22
Frame 1: 1
C   -0.7781   -1.0676   0.3211
C   1.3026   0.0521   -0.0283
C   -0.9720   1.4562   0.8237
C   1.9812   -0.4184   1.2502
C   2.2640   0.4352   -1.1331
N   0.2912   -0.8768   -0.5004
N   -2.0192   -1.3720   -0.2331
O   -1.6647   1.6302   -0.4018
H   -2.2586   0.8701   -0.4759
H   0.0278   -0.6783   -1.4585
H   -0.6098   -1.3679   1.3412
H   0.6813   0.9183   0.2869
H   -2.5733   -2.0574   0.2574
H   -2.0524   -1.5045   -1.2338
H   -0.3690   2.3514   0.9917
H   -1.6396   1.2942   1.6747
H   2.7644   0.2915   1.5228
H   1.7251   0.7307   -2.0378
H   2.4356   -1.4061   1.1342
H   1.2730   -0.4472   2.0806
H   2.8503   1.2987   -0.8143
H   2.9600   -0.3688   -1.3889
22
Frame 2: 2
C   -0.7971   -1.1620   0.1872
C   1.2831   0.0788   0.0202
C   -0.9361   1.6119   0.7810
C   1.9891   -0.4450   1.2615
C   2.2487   0.4218   -1.0940
N   0.2698   -0.8906   -0.5547
N   -2.0268   -1.4289   -0.2963
O   -1.7119   1.5981   -0.3442
H   -2.0076   0.6783   -0.4460
H   -0.0292   -0.5211   -1.4710
H   -0.7075   -1.0021   1.2598
H   0.7068   0.9874   0.3104
H   -2.6233   -1.9537   0.3453
H   -2.0954   -1.7512   -1.2702
H   -0.6759   2.6470   1.0324
H   -1.2690   1.0257   1.6483
H   2.7633   0.2691   1.5457
H   1.7085   0.7441   -1.9906
H   2.4579   -1.4189   1.1018
H   1.2921   -0.5245   2.0968
H   2.8952   1.2441   -0.7833
H   2.8701   -0.4393   -1.3575
22
Frame 3: 3
C   -0.8089   -1.1693   0.1899
C   1.2475   0.1253   0.0149
C   -0.9202   1.6446   0.8129
C   1.9666   -0.4274   1.2457
C   2.2425   0.4605   -1.0933
N   0.2589   -0.8846   -0.5540
N   -2.0442   -1.4128   -0.3244
O   -1.6246   1.5326   -0.3547
H   -1.9855   0.6292   -0.3999
H   -0.0598   -0.5608   -1.4793
H   -0.7400   -1.0582   1.2673
H   0.6129   1.0132   0.3567
H   -2.6353   -1.9423   0.3208
H   -2.0528   -1.8505   -1.2530
H   -0.6473   2.6815   1.0063
H   -1.2559   1.1115   1.7081
H   2.7569   0.2555   1.5818
H   1.7543   0.7892   -2.0167
H   2.4283   -1.3946   1.0247
H   1.2636   -0.5445   2.0762
H   2.9550   1.2406   -0.8023
H   2.8166   -0.4409   -1.3234
22
Frame 4: 4
C   -0.7984   -1.1836   0.1924
C   1.2170   0.1413   0.0180
C   -0.8844   1.6078   0.8111
C   1.9396   -0.3962   1.2452
C   2.2167   0.4611   -1.0841
N   0.2599   -0.8880   -0.5567
N   -2.0425   -1.4033   -0.2971
O   -1.5052   1.4957   -0.3965
H   -1.9624   0.6398   -0.4011
H   -0.0492   -0.5545   -1.4850
H   -0.7118   -1.0838   1.2727
H   0.5563   1.0306   0.3486
H   -2.6452   -1.9280   0.3356
H   -2.0893   -1.7748   -1.2534
H   -0.5912   2.6207   1.0535
H   -1.2589   1.0311   1.6552
H   2.7349   0.2966   1.5343
H   1.7336   0.7616   -2.0221
H   2.3848   -1.3699   1.0222
H   1.2578   -0.4997   2.0926
H   2.8997   1.2605   -0.7816
H   2.8068   -0.4422   -1.2818
22
Frame 5: 5
C   -0.8131   -1.1635   0.1984
C   1.1848   0.1328   0.0187
C   -0.8440   1.6049   0.8073
C   1.9188   -0.3832   1.2416
C   2.1865   0.4756   -1.0663
N   0.2498   -0.8857   -0.5564
N   -2.0442   -1.4108   -0.3008
O   -1.4396   1.4604   -0.4125
H   -1.9528   0.6403   -0.3957
H   -0.0458   -0.5408   -1.4793
H   -0.6995   -1.0770   1.2777
H   0.4709   0.9953   0.3506
H   -2.6460   -1.9277   0.3383
H   -2.0884   -1.7767   -1.2596
H   -0.5491   2.6144   1.0522
H   -1.2046   1.0037   1.6338
H   2.7127   0.3158   1.5265
H   1.7168   0.7714   -2.0077
H   2.3745   -1.3549   1.0205
H   1.2439   -0.4863   2.0932
H   2.8775   1.2668   -0.7680
H   2.7828   -0.4215   -1.2660
22
Frame 6: 6
C   -0.8393   -1.2072   0.2046
C   1.1854   0.0628   0.0193
C   -0.7029   1.6286   0.7400
C   1.8836   -0.4060   1.2650
C   2.1354   0.5057   -1.0525
N   0.2082   -0.8875   -0.5503
N   -2.0667   -1.4673   -0.3209
O   -1.3869   1.4716   -0.4271
H   -1.8839   0.6420   -0.3790
H   -0.1128   -0.5279   -1.4609
H   -0.7382   -1.1275   1.2867
H   0.5090   0.9964   0.3571
H   -2.6985   -1.9442   0.3216
H   -2.0911   -1.8893   -1.2580
H   -0.4225   2.6427   0.9669
H   -0.9940   1.0280   1.5848
H   2.6032   0.3622   1.5572
H   1.6005   0.8781   -1.9346
H   2.4076   -1.3529   1.1099
H   1.1718   -0.5115   2.0830
H   2.7647   1.3186   -0.6782
H   2.7804   -0.3255   -1.3608
22
Frame 7: 7
C   -0.8326   -1.2141   0.2056
C   1.2451   -0.0285   -0.0106
C   -0.6665   1.6076   0.7159
C   1.8800   -0.4183   1.2712
C   2.1335   0.5143   -1.0627
N   0.2062   -0.8933   -0.5573
N   -2.0637   -1.4573   -0.3172
O   -1.4328   1.4780   -0.4198
H   -1.8876   0.6256   -0.3644
H   -0.1176   -0.4975   -1.4522
H   -0.7437   -1.1197   1.2868
H   0.4838   1.0306   0.4240
H   -2.6951   -1.9363   0.3248
H   -2.0751   -1.8944   -1.2468
H   -0.4124   2.6370   0.9337
H   -1.0395   1.0807   1.5903
H   2.5782   0.3671   1.5743
H   1.5796   0.9027   -1.9280
H   2.4220   -1.3565   1.1414
H   1.1354   -0.5229   2.0623
H   2.7604   1.3213   -0.6713
H   2.7828   -0.2979   -1.4033
22
Frame 8: 8
C   -0.8326   -1.2040   0.2072
C   1.2840   -0.0759   -0.0318
C   -0.6687   1.6204   0.7162
C   1.8959   -0.4464   1.2723
C   2.1601   0.5015   -1.0850
N   0.1978   -0.8878   -0.5660
N   -2.0595   -1.4652   -0.3173
O   -1.4720   1.5053   -0.4159
H   -1.8843   0.6335   -0.3574
H   -0.1324   -0.4948   -1.4596
H   -0.7375   -1.1214   1.2888
H   0.3838   1.0507   0.4821
H   -2.6971   -1.9334   0.3259
H   -2.0764   -1.9039   -1.2464
H   -0.4595   2.6729   0.9242
H   -1.0711   1.1222   1.6072
H   2.5721   0.3544   1.5767
H   1.5758   0.9077   -1.9212
H   2.4588   -1.3797   1.2186
H   1.1298   -0.5295   2.0418
H   2.7677   1.3118   -0.6692
H   2.8313   -0.2729   -1.4757
22
Frame 9: 9
C   -0.8298   -1.2055   0.2026
C   1.2741   -0.0582   -0.0302
C   -0.6350   1.5836   0.7141
C   1.8802   -0.4305   1.2778
C   2.1499   0.5224   -1.0851
N   0.2030   -0.8937   -0.5681
N   -2.0612   -1.4611   -0.3180
O   -1.4895   1.5004   -0.3930
H   -1.9012   0.6260   -0.3645
H   -0.1211   -0.5000   -1.4636
H   -0.7325   -1.1114   1.2801
H   0.3291   1.0477   0.5227
H   -2.6953   -1.9257   0.3322
H   -2.0700   -1.9155   -1.2372
H   -0.4241   2.6382   0.9037
H   -1.1047   1.1589   1.6099
H   2.5764   0.3505   1.5950
H   1.5947   0.9338   -1.9380
H   2.4376   -1.3700   1.2102
H   1.1141   -0.5304   2.0468
H   2.7967   1.3109   -0.6907
H   2.8008   -0.2652   -1.4747
22
Frame 10: 10
C   -0.8292   -1.1995   0.2070
C   1.2763   -0.0425   -0.0363
C   -0.6231   1.5773   0.7128
C   1.8765   -0.4228   1.2747
C   2.1599   0.5220   -1.0913
N   0.2036   -0.8827   -0.5666
N   -2.0548   -1.4694   -0.3194
O   -1.4723   1.5039   -0.4110
H   -1.8863   0.6338   -0.3451
H   -0.1207   -0.5106   -1.4713
H   -0.7321   -1.1097   1.2862
H   0.2265   1.0423   0.5359
H   -2.6931   -1.9217   0.3302
H   -2.0714   -1.9216   -1.2389
H   -0.4118   2.6357   0.9034
H   -1.0939   1.1556   1.6170
H   2.5661   0.3601   1.5932
H   1.5809   0.9432   -1.9204
H   2.4235   -1.3657   1.1969
H   1.1079   -0.5155   2.0410
H   2.7864   1.3130   -0.6748
H   2.7994   -0.2795   -1.4766
22
Frame 11: 11
C   -0.8290   -1.1956   0.2053
C   1.2474   -0.0125   -0.0314
C   -0.5859   1.5175   0.7016
C   1.8482   -0.3840   1.2785
C   2.1338   0.5544   -1.0746
N   0.2178   -0.9015   -0.5671
N   -2.0446   -1.4710   -0.3157
O   -1.5055   1.5394   -0.3776
H   -1.8999   0.6598   -0.3574
H   -0.0950   -0.5636   -1.4862
H   -0.7289   -1.0933   1.2814
H   0.1126   0.9580   0.4901
H   -2.6971   -1.9161   0.3282
H   -2.0570   -1.9303   -1.2305
H   -0.2306   2.5383   0.8782
H   -1.0808   1.1672   1.6253
H   2.5574   0.3839   1.6046
H   1.5752   0.9897   -1.9094
H   2.3781   -1.3376   1.1766
H   1.0897   -0.4763   2.0605
H   2.7801   1.3323   -0.6621
H   2.7542   -0.2638   -1.4559
22
Frame 12: 12
C   -0.8309   -1.1814   0.1985
C   1.2314   -0.0124   -0.0232
C   -0.5303   1.4742   0.6842
C   1.8314   -0.3767   1.2835
C   2.1115   0.5665   -1.0620
N   0.2263   -0.9198   -0.5671
N   -2.0467   -1.4679   -0.3225
O   -1.5356   1.5623   -0.3375
H   -1.9082   0.6742   -0.3634
H   -0.0725   -0.5982   -1.4935
H   -0.7201   -1.0790   1.2698
H   0.0781   0.9609   0.4891
H   -2.6938   -1.9085   0.3310
H   -2.0595   -1.9337   -1.2347
H   -0.2453   2.5307   0.8728
H   -1.0556   1.1914   1.6253
H   2.5586   0.3831   1.5911
H   1.5662   0.9922   -1.9119
H   2.3774   -1.3252   1.1904
H   1.0732   -0.4753   2.0663
H   2.7775   1.3278   -0.6500
H   2.7432   -0.2389   -1.4543
