562
Frame 2
C   16.4126   15.4685   17.0108
C   18.4930   16.5875   16.6597
C   16.2193   17.9926   17.5114
C   19.1720   16.1180   17.9387
C   19.4551   16.9713   15.5551
N   17.4828   15.6592   16.1873
N   15.1706   15.1642   16.4550
O   15.5262   18.1665   16.2869
H   14.9322   17.4058   16.2125
H   17.2188   15.8577   15.2299
H   16.5811   15.1677   18.0294
H   17.8715   17.4546   16.9758
H   14.6177   14.4783   16.9455
H   15.1382   15.0311   15.4546
H   16.8217   18.8873   17.6801
H   15.5514   17.8301   18.3631
H   19.9553   16.8274   18.2112
H   18.9159   17.2669   14.6503
H   19.6265   15.1296   17.8226
H   18.4637   16.0887   18.7691
H   20.0412   17.8347   15.8741
H   20.1509   16.1671   15.2994
C   31.0130   13.4690   20.5000
H   31.2490   12.6100   21.1410
H   31.6000   14.3580   20.7590
H   31.3090   13.1730   19.4860
C   29.5240   13.6930   20.5110
C   28.9490   14.9820   20.4600
H   29.6230   15.8190   20.3030
C   27.5460   15.1780   20.4020
H   27.1240   16.1710   20.2790
C   26.7510   14.0910   20.7820
H   25.6720   14.1250   20.8970
C   27.2930   12.7880   20.7300
H   26.5470   12.0120   20.8740
C   28.6890   12.5880   20.6520
H   29.0430   11.5650   20.7440
C   9.2210   14.9750   13.0480
H   9.9180   14.2170   12.6700
H   8.7250   15.4390   12.1860
H   8.5460   14.3880   13.6810
C   9.9500   16.0790   13.9260
C   11.1730   16.6700   13.5290
H   11.6950   16.2330   12.6830
C   11.7790   17.6500   14.3810
H   12.6890   18.1940   14.1470
C   11.0580   18.1190   15.4870
H   11.4490   19.0070   15.9740
C   9.8790   17.5550   15.8260
H   9.3990   17.9040   16.7360
C   9.3470   16.4720   15.1090
H   8.3400   16.1840   15.3940
C   13.1040   20.9490   22.1230
H   12.1100   21.0700   22.5720
H   13.3280   19.8760   22.1570
H   12.9300   21.4440   21.1600
C   14.1720   21.7290   22.9410
C   13.9780   23.0550   23.3640
H   12.9880   23.4780   23.2220
C   14.9570   23.7090   24.0980
H   14.8720   24.7370   24.4370
C   16.0910   23.0190   24.4910
H   16.8240   23.5570   25.0840
C   16.3390   21.7000   24.0260
H   17.2960   21.2060   24.1580
C   15.3480   21.0720   23.2660
H   15.4870   20.1110   22.7800
C   22.3270   16.0930   8.4030
H   22.3260   16.2600   9.4870
H   21.4310   15.6720   7.9300
H   22.4190   17.0690   7.9110
C   23.4930   15.2320   7.9250
C   24.6760   15.8080   7.3600
H   24.7170   16.8840   7.2220
C   25.8340   15.0550   7.0100
H   26.7290   15.6050   6.7360
C   25.7140   13.6410   7.1510
H   26.5440   12.9840   6.9070
C   24.5170   13.0840   7.6510
H   24.4140   12.0140   7.8020
C   23.4280   13.8620   7.9640
H   22.4620   13.4500   8.2420
C   13.3770   8.3710   11.1840
H   13.9280   8.9300   11.9500
H   12.7730   7.5980   11.6750
H   12.7470   9.0620   10.6100
C   14.2950   7.7300   10.0940
C   14.0090   6.4760   9.6240
H   13.0770   6.0180   9.9390
C   14.8900   5.7890   8.7340
H   14.6040   4.8470   8.2740
C   16.0940   6.4030   8.4280
H   16.8170   5.9830   7.7360
C   16.3240   7.7020   8.8800
H   17.2290   8.1990   8.5440
C   15.3900   8.3770   9.6670
H   15.4990   9.4410   9.8550
C   22.3720   27.5750   12.3440
H   22.6740   28.6260   12.2520
H   21.8660   27.2750   11.4180
H   23.3360   27.0640   12.4640
C   21.5860   27.1640   13.5380
C   20.6270   26.1270   13.4710
H   20.5230   25.5770   12.5400
C   19.8190   25.9080   14.6070
H   19.0410   25.1530   14.6740
C   19.8330   26.8130   15.6810
H   19.1800   26.6280   16.5280
C   20.7150   27.8320   15.6880
H   20.6750   28.5050   16.5390
C   21.6510   27.9300   14.6880
H   22.3640   28.7490   14.7160
C   26.3230   15.1720   24.4190
H   27.1730   15.7810   24.7530
H   26.9100   14.3730   23.9500
H   25.8350   14.6810   25.2700
C   25.2980   15.8310   23.5700
C   25.3310   17.2270   23.3880
H   26.0260   17.7850   24.0090
C   24.4240   17.8360   22.4700
H   24.3120   18.9080   22.3350
C   23.4800   16.9710   21.8510
H   22.7300   17.3880   21.1860
C   23.4350   15.6140   22.0990
H   22.6180   15.0160   21.7070
C   24.3990   15.0550   22.9540
H   24.2710   14.0400   23.3190
C   12.5310   21.3930   17.8850
H   13.2140   21.0900   17.0820
H   11.5950   21.6280   17.3640
H   12.3060   20.6590   18.6680
C   13.0320   22.5830   18.7360
C   12.2150   23.1990   19.6560
H   11.1450   23.0160   19.6540
C   12.8150   24.0790   20.5840
H   12.1470   24.6520   21.2210
C   14.2070   24.1490   20.7110
H   14.6570   24.8010   21.4530
C   15.0790   23.3670   19.9600
H   16.1550   23.3650   20.1040
C   14.4560   22.6230   18.9390
H   15.0290   21.9490   18.3100
C   14.8830   6.8570   21.3950
H   14.5830   5.8040   21.4680
H   14.1110   7.5640   21.0690
H   14.9540   7.1620   22.4460
C   16.2700   6.9730   20.7720
C   17.3370   6.4110   21.5060
H   17.0910   5.8820   22.4210
C   18.6390   6.6200   20.9560
H   19.4860   6.2070   21.4970
C   18.8360   7.1840   19.6870
H   19.8020   7.2850   19.2010
C   17.7740   7.7920   19.0310
H   17.9360   8.3530   18.1150
C   16.4720   7.7040   19.5680
H   15.6290   8.1750   19.0710
C   14.8160   10.5740   15.3720
H   14.3440   11.0040   14.4800
H   15.1400   11.3900   16.0290
H   13.9830   10.0440   15.8500
C   15.8760   9.5730   14.9300
C   15.5810   8.3740   14.2260
H   14.5360   8.2410   13.9630
C   16.5460   7.4790   13.7060
H   16.2100   6.6290   13.1200
C   17.8520   7.6230   14.2370
H   18.6540   6.9360   13.9850
C   18.1870   8.7030   14.9950
H   19.2350   8.8200   15.2580
C   17.2460   9.6850   15.4350
H   17.6780   10.4650   16.0550
C   8.0650   7.4040   17.5740
H   8.1270   8.0850   16.7160
H   7.5600   7.9240   18.3970
H   7.4880   6.4980   17.3480
C   9.4790   7.0660   18.0080
C   10.5440   7.9760   17.7650
H   10.3730   8.9450   17.3060
C   11.8290   7.6370   18.2640
H   12.7100   8.2510   18.1010
C   12.0090   6.4900   19.0190
H   13.0130   6.2290   19.3400
C   10.9610   5.6080   19.2070
H   11.1880   4.6980   19.7550
C   9.6610   5.8390   18.6640
H   8.8970   5.0800   18.8040
C   18.2400   9.3350   23.8980
H   18.4220   9.0030   24.9280
H   18.8890   10.1800   23.6390
H   18.3460   8.4310   23.2860
C   16.8430   9.7990   23.8620
C   16.4750   10.9760   23.2580
H   17.2340   11.5320   22.7170
C   15.1310   11.3650   23.2170
H   14.8330   12.3010   22.7540
C   14.1480   10.5800   23.8790
H   13.1240   10.9410   23.8510
C   14.5070   9.3760   24.4910
H   13.6960   8.7620   24.8720
C   15.8380   9.0020   24.5510
H   16.1540   8.1380   25.1280
C   10.9060   11.5230   15.8000
H   10.2660   12.1380   16.4450
H   11.8110   12.1010   15.5760
H   11.3030   10.7560   16.4760
C   10.1450   10.8230   14.6590
C   8.8800   11.1470   14.2680
H   8.3050   11.8430   14.8720
C   8.2310   10.3560   13.3000
H   7.1860   10.6060   13.1480
C   8.9080   9.2900   12.6040
H   8.3580   8.8160   11.7960
C   10.2410   9.0790   12.9680
H   10.7620   8.2900   12.4330
C   10.8540   9.7140   14.0870
H   11.8650   9.4940   14.4180
C   12.4900   20.4970   8.7300
H   11.7150   20.4740   7.9540
H   12.2270   19.9760   9.6590
H   13.3460   20.0150   8.2410
C   12.8650   21.9680   8.9270
C   12.1420   22.7970   9.8120
H   11.2610   22.4200   10.3220
C   12.3840   24.1720   9.8850
H   11.8920   24.7890   10.6310
C   13.4520   24.6990   9.1480
H   13.6750   25.7620   9.1740
C   14.2260   23.9500   8.2820
H   15.0110   24.4020   7.6830
C   13.8970   22.5400   8.1400
H   14.4070   21.9210   7.4080
C   25.2240   23.2580   12.7270
H   25.5120   24.3000   12.9180
H   24.9920   23.1420   11.6620
H   26.0960   22.6100   12.8790
C   24.1020   22.8110   13.7090
C   24.1040   23.2240   14.9730
H   24.9610   23.8230   15.2650
C   23.1140   22.7650   15.8740
H   23.0750   23.1170   16.9010
C   22.0540   21.9550   15.3630
H   21.3500   21.5740   16.0970
C   21.9790   21.6570   14.0120
H   21.2210   20.9940   13.6040
C   22.9780   22.0850   13.1860
H   22.9530   21.7500   12.1530
C   15.9690   24.2190   11.3740
H   16.8540   24.6850   11.8250
H   15.3350   25.1120   11.4330
H   16.1270   23.9390   10.3250
C   15.4160   23.1270   12.1800
C   15.0320   21.8940   11.5900
H   15.1170   21.7510   10.5170
C   14.4730   20.9160   12.4130
H   14.1800   19.9440   12.0280
C   14.3810   21.0610   13.7930
H   14.0500   20.2450   14.4290
C   14.8220   22.2110   14.4320
H   14.6700   22.2620   15.5060
C   15.2630   23.2580   13.6150
H   15.6250   24.2030   14.0110
C   7.9820   23.6640   20.2210
H   7.6700   24.1780   19.3030
H   8.8810   24.2110   20.5300
H   7.2090   23.8760   20.9700
C   8.2150   22.1450   20.0450
C   8.9820   21.3660   20.9660
H   9.4280   21.8310   21.8400
C   9.3410   20.0110   20.7260
H   9.9200   19.4750   21.4720
C   8.8720   19.3730   19.6080
H   9.2540   18.3910   19.3440
C   8.1140   20.1330   18.6130
H   7.8040   19.7260   17.6550
C   7.8120   21.5360   18.8670
H   7.2650   22.1110   18.1260
C   16.6400   17.6150   24.7630
H   16.2880   18.1500   25.6540
H   16.0580   17.8970   23.8770
H   17.6690   17.9180   24.5330
C   16.4320   16.1690   24.9640
C   17.4700   15.2850   24.7630
H   18.3820   15.6110   24.2700
C   17.2870   13.9420   25.1470
H   18.0430   13.2190   24.8550
C   16.0500   13.5080   25.7080
H   15.9690   12.4530   25.9550
C   15.0160   14.4460   25.9100
H   14.0840   14.0850   26.3350
C   15.2290   15.7710   25.5010
H   14.4230   16.4770   25.6750
C   9.8970   25.7470   14.8340
H   9.2600   26.2100   14.0700
H   10.9030   26.1810   14.8020
H   9.4340   25.9280   15.8120
C   10.1050   24.2760   14.5480
C   9.4830   23.4020   15.4380
H   8.7910   23.7840   16.1820
C   9.7180   22.0020   15.3700
H   9.2880   21.4530   16.2030
C   10.5190   21.4980   14.3610
H   10.5880   20.4200   14.2480
C   11.0160   22.3430   13.3520
H   11.7280   21.9650   12.6240
C   10.8610   23.7380   13.4830
H   11.4610   24.3570   12.8230
C   21.4460   7.1060   12.4470
H   20.6860   6.3340   12.6150
H   22.2500   6.4780   12.0440
H   21.0510   7.7230   11.6300
C   21.6030   8.0210   13.6490
C   21.7540   7.6760   14.9780
H   21.7640   6.6430   15.3150
C   21.9350   8.6230   16.0550
H   22.0640   8.3230   17.0910
C   22.1380   9.9860   15.6920
H   22.3350   10.8010   16.3830
C   22.0340   10.3260   14.3310
H   22.1590   11.3300   13.9360
C   21.6750   9.3700   13.3830
H   21.5590   9.7230   12.3630
C   22.9880   17.6800   12.2810
H   22.9180   16.8740   13.0210
H   23.7730   18.3620   12.6300
H   23.2480   17.2650   11.3000
C   21.6550   18.3490   12.1870
C   20.6220   18.0880   13.0570
H   20.7970   17.3350   13.8210
C   19.4340   18.7990   13.0450
H   18.7570   18.7330   13.8920
C   19.1760   19.7760   12.0220
H   18.2920   20.4060   12.0440
C   20.1570   19.9410   11.0580
H   19.9550   20.5700   10.1960
C   21.4170   19.2580   11.1840
H   22.2080   19.5330   10.4920
C   11.5670   16.9320   9.5720
H   12.2140   17.1360   8.7100
H   11.2820   15.8920   9.3700
H   12.1900   17.0270   10.4710
C   10.3380   17.8120   9.7330
C   9.4070   17.9080   8.6630
H   9.2760   17.1270   7.9200
C   8.4820   18.9870   8.6270
H   7.7350   19.0310   7.8400
C   8.4710   19.9600   9.6310
H   7.7480   20.7700   9.6540
C   9.3540   19.8350   10.7390
H   9.3650   20.4890   11.6050
C   10.1940   18.7130   10.7970
H   10.9300   18.6810   11.5950
C   12.7180   16.6050   23.0210
H   12.8130   16.8270   21.9510
H   13.7280   16.3210   23.3450
H   12.5000   17.5290   23.5710
C   11.8010   15.4010   23.1530
C   10.6200   15.4240   22.3970
H   10.4520   16.2470   21.7090
C   9.7560   14.2780   22.4410
H   8.8510   14.2660   21.8410
C   10.0090   13.2210   23.3230
H   9.3460   12.3640   23.2430
C   11.1890   13.1930   24.0600
H   11.5060   12.4190   24.7520
C   12.1210   14.2630   23.8890
H   13.0670   14.1720   24.4150
C   18.8420   17.6350   27.7520
H   18.1240   17.0240   28.3120
H   18.2540   18.2490   27.0590
H   19.3830   18.2440   28.4880
C   19.7860   16.8740   26.9420
C   20.9230   17.5130   26.3330
H   21.0460   18.5910   26.2770
C   21.9600   16.7460   25.6900
H   22.7590   17.2130   25.1220
C   21.8200   15.3540   25.7340
H   22.5620   14.8350   25.1340
C   20.7780   14.7860   26.4240
H   20.6730   13.7070   26.4980
C   19.7540   15.4920   26.9560
H   18.9700   15.0490   27.5620
C   25.2430   22.7500   18.9430
H   24.6510   23.3730   19.6240
H   24.6070   22.0920   18.3390
H   25.7690   23.4530   18.2840
C   26.2890   22.0890   19.8050
C   27.6530   22.5380   19.7650
H   27.8930   23.3990   19.1490
C   28.6720   21.9360   20.4790
H   29.6960   22.2960   20.4470
C   28.3120   20.9270   21.3620
H   29.1140   20.5670   22.0000
C   26.9480   20.4890   21.5060
H   26.7050   19.7450   22.2580
C   25.9360   21.0700   20.7010
H   24.8820   20.8350   20.8180
C   8.6660   14.0750   6.3660
H   9.5670   14.3180   5.7890
H   8.3130   15.1000   6.5330
H   8.0120   13.6260   5.6080
C   8.9520   13.1750   7.5700
C   9.2520   13.8780   8.7390
H   9.0790   14.9490   8.7860
C   9.7250   13.1670   9.8870
H   10.1540   13.6370   10.7670
C   9.7320   11.7360   9.9480
H   9.9080   11.1180   10.8230
C   9.4160   11.0830   8.7270
H   9.5500   10.0100   8.6190
C   9.0570   11.7790   7.5340
H   8.9280   11.2640   6.5870
C   8.9500   11.1620   20.3870
H   9.6770   10.3770   20.1430
H   8.1570   10.6850   20.9760
H   9.5010   11.9120   20.9680
C   8.2120   11.8340   19.2710
C   8.5700   13.1620   18.8940
H   9.3950   13.6460   19.4100
C   7.8880   13.7660   17.8650
H   8.0520   14.7920   17.5510
C   6.8730   13.0430   17.1600
H   6.3940   13.5060   16.3020
C   6.6020   11.7170   17.5240
H   5.9300   11.0650   16.9750
C   7.2670   11.0920   18.5130
H   6.9380   10.1170   18.8610
C   26.4570   12.4450   13.5550
H   27.1280   12.9590   14.2540
H   26.8800   12.5280   12.5470
H   26.3480   11.3870   13.8240
C   25.0650   13.0040   13.5080
C   24.3200   13.0670   12.3170
H   24.6950   12.4320   11.5200
C   23.1080   13.7070   12.1810
H   22.5800   13.8270   11.2400
C   22.5170   14.2950   13.4070
H   21.5280   14.7440   13.3850
C   23.1780   14.0720   14.6700
H   22.7680   14.3710   15.6300
C   24.4820   13.4620   14.6840
H   25.0670   13.3620   15.5930
C   17.5710   21.2480   6.8890
H   18.6510   21.3700   6.7390
H   17.1030   22.0750   7.4370
H   17.0720   21.3190   5.9150
C   17.2290   19.8820   7.3990
C   18.1980   19.0800   7.9940
H   19.2050   19.4850   8.0050
C   17.9790   17.8310   8.6610
H   18.7330   17.2870   9.2230
C   16.6260   17.3740   8.6220
H   16.3320   16.4460   9.1030
C   15.6520   18.0670   7.8430
H   14.6170   17.7430   7.7980
C   15.9210   19.3400   7.2650
H   15.0810   19.8910   6.8510
C   21.3760   21.0260   23.7240
H   20.4220   20.4870   23.7730
H   21.7020   21.4030   24.7020
H   22.0140   20.1900   23.4130
C   21.3200   22.2390   22.7430
C   21.4220   21.9180   21.3730
H   21.5590   20.8770   21.0950
C   21.1640   22.8820   20.4680
H   21.2420   22.6310   19.4150
C   20.8980   24.2170   20.9180
H   20.7360   25.0150   20.1990
C   20.8810   24.5300   22.2790
H   20.7390   25.5510   22.6190
C   21.0600   23.5250   23.2330
H   21.0710   23.7440   24.2960
C   13.4980   11.9160   9.8290
H   12.9760   11.0440   9.4180
H   12.8920   12.3220   10.6480
H   14.4620   11.6150   10.2580
C   13.7160   13.0320   8.7680
C   15.0200   13.6160   8.6070
H   15.8970   13.3430   9.1870
C   15.2000   14.6260   7.6390
H   16.2250   14.9300   7.4480
C   14.1260   14.9630   6.7830
H   14.1730   15.7170   6.0030
C   12.8520   14.5840   7.1130
H   12.0640   15.0130   6.5020
C   12.6470   13.5090   8.0450
H   11.7110   12.9710   8.1580
C   19.7440   10.5210   20.4450
H   19.1710   11.4550   20.4980
H   19.2620   9.7620   21.0740
H   19.7140   10.3290   19.3650
C   21.1430   10.7570   21.0140
C   22.2290   10.3180   20.2850
H   22.1500   9.9270   19.2750
C   23.5250   10.5680   20.8390
H   24.4000   10.2310   20.2920
C   23.7170   11.1630   22.0780
H   24.7300   11.2050   22.4680
C   22.5380   11.3930   22.8610
H   22.7390   11.7980   23.8480
C   21.2670   11.2310   22.2990
H   20.3950   11.6100   22.8240
C   29.8070   21.0370   16.6750
H   29.7320   22.0770   16.3350
H   30.3810   20.5460   15.8790
H   30.3680   20.9570   17.6140
C   28.4450   20.3010   16.9690
C   28.2260   19.5640   18.1860
H   29.0220   19.4550   18.9170
C   26.8940   19.1050   18.4470
H   26.6720   18.4880   19.3130
C   25.8510   19.3550   17.6180
H   24.8790   18.9520   17.8890
C   26.0900   20.0720   16.3750
H   25.2500   20.2200   15.7020
C   27.3720   20.5830   16.0780
H   27.4500   21.3560   15.3190
C   18.5500   10.0140   11.4130
H   18.7830   9.7570   12.4530
H   19.3500   9.5800   10.8000
H   17.6150   9.5640   11.0570
C   18.6360   11.5680   11.2050
C   19.5130   12.2330   10.3370
H   20.2410   11.5850   9.8580
C   19.5720   13.6310   10.2560
H   20.3650   14.1740   9.7510
C   18.5680   14.3480   10.9390
H   18.6520   15.4260   10.8390
C   17.6480   13.7120   11.7250
H   17.1040   14.3100   12.4500
C   17.7060   12.3240   11.9490
H   17.2340   11.8230   12.7890
C   22.1020   25.4310   5.5970
H   21.4160   26.2880   5.5930
H   21.7860   24.8510   4.7220
H   23.1330   25.7650   5.4260
C   21.9980   24.6230   6.8970
C   21.0770   23.5600   6.9970
H   20.5490   23.2000   6.1180
C   20.8770   22.8840   8.2000
H   20.2320   22.0110   8.2230
C   21.4880   23.3510   9.3830
H   21.2750   22.8260   10.3090
C   22.4070   24.4640   9.3180
H   22.8440   24.9190   10.2020
C   22.7460   25.0220   8.0470
H   23.4980   25.8030   7.9750
C   19.3623   18.5069   21.3698
H   20.0359   18.5272   22.2362
H   18.9103   19.4983   21.5002
H   19.9911   18.5329   20.4707
C   18.5509   17.2347   21.3819
C   17.1611   17.3107   21.1950
H   16.6438   18.2621   21.1090
C   16.4181   16.1659   21.1498
H   15.3400   16.1588   21.0250
C   17.0058   14.8919   21.3594
H   16.4241   13.9890   21.1967
C   18.3740   14.7712   21.5449
H   18.8901   13.8189   21.6209
C   19.1076   15.9892   21.6220
H   20.1701   16.0474   21.8420
562
Frame 3
C   16.4094   15.4520   16.9685
C   18.5064   16.6138   16.6799
C   16.1928   17.9708   17.5392
C   19.1731   16.0964   17.9330
C   19.4436   16.9627   15.5660
N   17.4495   15.6654   16.2062
N   15.2302   15.1395   16.4606
O   15.5201   18.1551   16.2692
H   14.9254   17.4160   16.2119
H   17.2090   15.8530   15.2372
H   16.5764   15.2006   18.0227
H   17.9055   17.4402   16.9478
H   14.6144   14.5061   16.9625
H   15.1480   15.0531   15.4579
H   16.8272   18.8873   17.6828
H   15.5326   17.8368   18.3670
H   19.9490   16.8230   18.2125
H   18.9160   17.2496   14.6668
H   19.6250   15.1373   17.8237
H   18.4726   16.0876   18.7598
H   20.0358   17.8277   15.8714
H   20.1441   16.1685   15.3064
C   31.0130   13.4690   20.5000
H   31.2490   12.6100   21.1410
H   31.6000   14.3580   20.7590
H   31.3090   13.1730   19.4860
C   29.5240   13.6930   20.5110
C   28.9490   14.9820   20.4600
H   29.6230   15.8190   20.3030
C   27.5460   15.1780   20.4020
H   27.1240   16.1710   20.2790
C   26.7510   14.0910   20.7820
H   25.6720   14.1250   20.8970
C   27.2930   12.7880   20.7300
H   26.5470   12.0120   20.8740
C   28.6890   12.5880   20.6520
H   29.0430   11.5650   20.7440
C   9.2210   14.9750   13.0480
H   9.9180   14.2170   12.6700
H   8.7250   15.4390   12.1860
H   8.5460   14.3880   13.6810
C   9.9500   16.0790   13.9260
C   11.1730   16.6700   13.5290
H   11.6950   16.2330   12.6830
C   11.7790   17.6500   14.3810
H   12.6890   18.1940   14.1470
C   11.0580   18.1190   15.4870
H   11.4490   19.0070   15.9740
C   9.8790   17.5550   15.8260
H   9.3990   17.9040   16.7360
C   9.3470   16.4720   15.1090
H   8.3400   16.1840   15.3940
C   13.1040   20.9490   22.1230
H   12.1100   21.0700   22.5720
H   13.3280   19.8760   22.1570
H   12.9300   21.4440   21.1600
C   14.1720   21.7290   22.9410
C   13.9780   23.0550   23.3640
H   12.9880   23.4780   23.2220
C   14.9570   23.7090   24.0980
H   14.8720   24.7370   24.4370
C   16.0910   23.0190   24.4910
H   16.8240   23.5570   25.0840
C   16.3390   21.7000   24.0260
H   17.2960   21.2060   24.1580
C   15.3480   21.0720   23.2660
H   15.4870   20.1110   22.7800
C   22.3270   16.0930   8.4030
H   22.3260   16.2600   9.4870
H   21.4310   15.6720   7.9300
H   22.4190   17.0690   7.9110
C   23.4930   15.2320   7.9250
C   24.6760   15.8080   7.3600
H   24.7170   16.8840   7.2220
C   25.8340   15.0550   7.0100
H   26.7290   15.6050   6.7360
C   25.7140   13.6410   7.1510
H   26.5440   12.9840   6.9070
C   24.5170   13.0840   7.6510
H   24.4140   12.0140   7.8020
C   23.4280   13.8620   7.9640
H   22.4620   13.4500   8.2420
C   13.3770   8.3710   11.1840
H   13.9280   8.9300   11.9500
H   12.7730   7.5980   11.6750
H   12.7470   9.0620   10.6100
C   14.2950   7.7300   10.0940
C   14.0090   6.4760   9.6240
H   13.0770   6.0180   9.9390
C   14.8900   5.7890   8.7340
H   14.6040   4.8470   8.2740
C   16.0940   6.4030   8.4280
H   16.8170   5.9830   7.7360
C   16.3240   7.7020   8.8800
H   17.2290   8.1990   8.5440
C   15.3900   8.3770   9.6670
H   15.4990   9.4410   9.8550
C   22.3720   27.5750   12.3440
H   22.6740   28.6260   12.2520
H   21.8660   27.2750   11.4180
H   23.3360   27.0640   12.4640
C   21.5860   27.1640   13.5380
C   20.6270   26.1270   13.4710
H   20.5230   25.5770   12.5400
C   19.8190   25.9080   14.6070
H   19.0410   25.1530   14.6740
C   19.8330   26.8130   15.6810
H   19.1800   26.6280   16.5280
C   20.7150   27.8320   15.6880
H   20.6750   28.5050   16.5390
C   21.6510   27.9300   14.6880
H   22.3640   28.7490   14.7160
C   26.3230   15.1720   24.4190
H   27.1730   15.7810   24.7530
H   26.9100   14.3730   23.9500
H   25.8350   14.6810   25.2700
C   25.2980   15.8310   23.5700
C   25.3310   17.2270   23.3880
H   26.0260   17.7850   24.0090
C   24.4240   17.8360   22.4700
H   24.3120   18.9080   22.3350
C   23.4800   16.9710   21.8510
H   22.7300   17.3880   21.1860
C   23.4350   15.6140   22.0990
H   22.6180   15.0160   21.7070
C   24.3990   15.0550   22.9540
H   24.2710   14.0400   23.3190
C   12.5310   21.3930   17.8850
H   13.2140   21.0900   17.0820
H   11.5950   21.6280   17.3640
H   12.3060   20.6590   18.6680
C   13.0320   22.5830   18.7360
C   12.2150   23.1990   19.6560
H   11.1450   23.0160   19.6540
C   12.8150   24.0790   20.5840
H   12.1470   24.6520   21.2210
C   14.2070   24.1490   20.7110
H   14.6570   24.8010   21.4530
C   15.0790   23.3670   19.9600
H   16.1550   23.3650   20.1040
C   14.4560   22.6230   18.9390
H   15.0290   21.9490   18.3100
C   14.8830   6.8570   21.3950
H   14.5830   5.8040   21.4680
H   14.1110   7.5640   21.0690
H   14.9540   7.1620   22.4460
C   16.2700   6.9730   20.7720
C   17.3370   6.4110   21.5060
H   17.0910   5.8820   22.4210
C   18.6390   6.6200   20.9560
H   19.4860   6.2070   21.4970
C   18.8360   7.1840   19.6870
H   19.8020   7.2850   19.2010
C   17.7740   7.7920   19.0310
H   17.9360   8.3530   18.1150
C   16.4720   7.7040   19.5680
H   15.6290   8.1750   19.0710
C   14.8160   10.5740   15.3720
H   14.3440   11.0040   14.4800
H   15.1400   11.3900   16.0290
H   13.9830   10.0440   15.8500
C   15.8760   9.5730   14.9300
C   15.5810   8.3740   14.2260
H   14.5360   8.2410   13.9630
C   16.5460   7.4790   13.7060
H   16.2100   6.6290   13.1200
C   17.8520   7.6230   14.2370
H   18.6540   6.9360   13.9850
C   18.1870   8.7030   14.9950
H   19.2350   8.8200   15.2580
C   17.2460   9.6850   15.4350
H   17.6780   10.4650   16.0550
C   8.0650   7.4040   17.5740
H   8.1270   8.0850   16.7160
H   7.5600   7.9240   18.3970
H   7.4880   6.4980   17.3480
C   9.4790   7.0660   18.0080
C   10.5440   7.9760   17.7650
H   10.3730   8.9450   17.3060
C   11.8290   7.6370   18.2640
H   12.7100   8.2510   18.1010
C   12.0090   6.4900   19.0190
H   13.0130   6.2290   19.3400
C   10.9610   5.6080   19.2070
H   11.1880   4.6980   19.7550
C   9.6610   5.8390   18.6640
H   8.8970   5.0800   18.8040
C   18.2400   9.3350   23.8980
H   18.4220   9.0030   24.9280
H   18.8890   10.1800   23.6390
H   18.3460   8.4310   23.2860
C   16.8430   9.7990   23.8620
C   16.4750   10.9760   23.2580
H   17.2340   11.5320   22.7170
C   15.1310   11.3650   23.2170
H   14.8330   12.3010   22.7540
C   14.1480   10.5800   23.8790
H   13.1240   10.9410   23.8510
C   14.5070   9.3760   24.4910
H   13.6960   8.7620   24.8720
C   15.8380   9.0020   24.5510
H   16.1540   8.1380   25.1280
C   10.9060   11.5230   15.8000
H   10.2660   12.1380   16.4450
H   11.8110   12.1010   15.5760
H   11.3030   10.7560   16.4760
C   10.1450   10.8230   14.6590
C   8.8800   11.1470   14.2680
H   8.3050   11.8430   14.8720
C   8.2310   10.3560   13.3000
H   7.1860   10.6060   13.1480
C   8.9080   9.2900   12.6040
H   8.3580   8.8160   11.7960
C   10.2410   9.0790   12.9680
H   10.7620   8.2900   12.4330
C   10.8540   9.7140   14.0870
H   11.8650   9.4940   14.4180
C   12.4900   20.4970   8.7300
H   11.7150   20.4740   7.9540
H   12.2270   19.9760   9.6590
H   13.3460   20.0150   8.2410
C   12.8650   21.9680   8.9270
C   12.1420   22.7970   9.8120
H   11.2610   22.4200   10.3220
C   12.3840   24.1720   9.8850
H   11.8920   24.7890   10.6310
C   13.4520   24.6990   9.1480
H   13.6750   25.7620   9.1740
C   14.2260   23.9500   8.2820
H   15.0110   24.4020   7.6830
C   13.8970   22.5400   8.1400
H   14.4070   21.9210   7.4080
C   25.2240   23.2580   12.7270
H   25.5120   24.3000   12.9180
H   24.9920   23.1420   11.6620
H   26.0960   22.6100   12.8790
C   24.1020   22.8110   13.7090
C   24.1040   23.2240   14.9730
H   24.9610   23.8230   15.2650
C   23.1140   22.7650   15.8740
H   23.0750   23.1170   16.9010
C   22.0540   21.9550   15.3630
H   21.3500   21.5740   16.0970
C   21.9790   21.6570   14.0120
H   21.2210   20.9940   13.6040
C   22.9780   22.0850   13.1860
H   22.9530   21.7500   12.1530
C   15.9690   24.2190   11.3740
H   16.8540   24.6850   11.8250
H   15.3350   25.1120   11.4330
H   16.1270   23.9390   10.3250
C   15.4160   23.1270   12.1800
C   15.0320   21.8940   11.5900
H   15.1170   21.7510   10.5170
C   14.4730   20.9160   12.4130
H   14.1800   19.9440   12.0280
C   14.3810   21.0610   13.7930
H   14.0500   20.2450   14.4290
C   14.8220   22.2110   14.4320
H   14.6700   22.2620   15.5060
C   15.2630   23.2580   13.6150
H   15.6250   24.2030   14.0110
C   7.9820   23.6640   20.2210
H   7.6700   24.1780   19.3030
H   8.8810   24.2110   20.5300
H   7.2090   23.8760   20.9700
C   8.2150   22.1450   20.0450
C   8.9820   21.3660   20.9660
H   9.4280   21.8310   21.8400
C   9.3410   20.0110   20.7260
H   9.9200   19.4750   21.4720
C   8.8720   19.3730   19.6080
H   9.2540   18.3910   19.3440
C   8.1140   20.1330   18.6130
H   7.8040   19.7260   17.6550
C   7.8120   21.5360   18.8670
H   7.2650   22.1110   18.1260
C   16.6400   17.6150   24.7630
H   16.2880   18.1500   25.6540
H   16.0580   17.8970   23.8770
H   17.6690   17.9180   24.5330
C   16.4320   16.1690   24.9640
C   17.4700   15.2850   24.7630
H   18.3820   15.6110   24.2700
C   17.2870   13.9420   25.1470
H   18.0430   13.2190   24.8550
C   16.0500   13.5080   25.7080
H   15.9690   12.4530   25.9550
C   15.0160   14.4460   25.9100
H   14.0840   14.0850   26.3350
C   15.2290   15.7710   25.5010
H   14.4230   16.4770   25.6750
C   9.8970   25.7470   14.8340
H   9.2600   26.2100   14.0700
H   10.9030   26.1810   14.8020
H   9.4340   25.9280   15.8120
C   10.1050   24.2760   14.5480
C   9.4830   23.4020   15.4380
H   8.7910   23.7840   16.1820
C   9.7180   22.0020   15.3700
H   9.2880   21.4530   16.2030
C   10.5190   21.4980   14.3610
H   10.5880   20.4200   14.2480
C   11.0160   22.3430   13.3520
H   11.7280   21.9650   12.6240
C   10.8610   23.7380   13.4830
H   11.4610   24.3570   12.8230
C   21.4460   7.1060   12.4470
H   20.6860   6.3340   12.6150
H   22.2500   6.4780   12.0440
H   21.0510   7.7230   11.6300
C   21.6030   8.0210   13.6490
C   21.7540   7.6760   14.9780
H   21.7640   6.6430   15.3150
C   21.9350   8.6230   16.0550
H   22.0640   8.3230   17.0910
C   22.1380   9.9860   15.6920
H   22.3350   10.8010   16.3830
C   22.0340   10.3260   14.3310
H   22.1590   11.3300   13.9360
C   21.6750   9.3700   13.3830
H   21.5590   9.7230   12.3630
C   22.9880   17.6800   12.2810
H   22.9180   16.8740   13.0210
H   23.7730   18.3620   12.6300
H   23.2480   17.2650   11.3000
C   21.6550   18.3490   12.1870
C   20.6220   18.0880   13.0570
H   20.7970   17.3350   13.8210
C   19.4340   18.7990   13.0450
H   18.7570   18.7330   13.8920
C   19.1760   19.7760   12.0220
H   18.2920   20.4060   12.0440
C   20.1570   19.9410   11.0580
H   19.9550   20.5700   10.1960
C   21.4170   19.2580   11.1840
H   22.2080   19.5330   10.4920
C   11.5670   16.9320   9.5720
H   12.2140   17.1360   8.7100
H   11.2820   15.8920   9.3700
H   12.1900   17.0270   10.4710
C   10.3380   17.8120   9.7330
C   9.4070   17.9080   8.6630
H   9.2760   17.1270   7.9200
C   8.4820   18.9870   8.6270
H   7.7350   19.0310   7.8400
C   8.4710   19.9600   9.6310
H   7.7480   20.7700   9.6540
C   9.3540   19.8350   10.7390
H   9.3650   20.4890   11.6050
C   10.1940   18.7130   10.7970
H   10.9300   18.6810   11.5950
C   12.7180   16.6050   23.0210
H   12.8130   16.8270   21.9510
H   13.7280   16.3210   23.3450
H   12.5000   17.5290   23.5710
C   11.8010   15.4010   23.1530
C   10.6200   15.4240   22.3970
H   10.4520   16.2470   21.7090
C   9.7560   14.2780   22.4410
H   8.8510   14.2660   21.8410
C   10.0090   13.2210   23.3230
H   9.3460   12.3640   23.2430
C   11.1890   13.1930   24.0600
H   11.5060   12.4190   24.7520
C   12.1210   14.2630   23.8890
H   13.0670   14.1720   24.4150
C   18.8420   17.6350   27.7520
H   18.1240   17.0240   28.3120
H   18.2540   18.2490   27.0590
H   19.3830   18.2440   28.4880
C   19.7860   16.8740   26.9420
C   20.9230   17.5130   26.3330
H   21.0460   18.5910   26.2770
C   21.9600   16.7460   25.6900
H   22.7590   17.2130   25.1220
C   21.8200   15.3540   25.7340
H   22.5620   14.8350   25.1340
C   20.7780   14.7860   26.4240
H   20.6730   13.7070   26.4980
C   19.7540   15.4920   26.9560
H   18.9700   15.0490   27.5620
C   25.2430   22.7500   18.9430
H   24.6510   23.3730   19.6240
H   24.6070   22.0920   18.3390
H   25.7690   23.4530   18.2840
C   26.2890   22.0890   19.8050
C   27.6530   22.5380   19.7650
H   27.8930   23.3990   19.1490
C   28.6720   21.9360   20.4790
H   29.6960   22.2960   20.4470
C   28.3120   20.9270   21.3620
H   29.1140   20.5670   22.0000
C   26.9480   20.4890   21.5060
H   26.7050   19.7450   22.2580
C   25.9360   21.0700   20.7010
H   24.8820   20.8350   20.8180
C   8.6660   14.0750   6.3660
H   9.5670   14.3180   5.7890
H   8.3130   15.1000   6.5330
H   8.0120   13.6260   5.6080
C   8.9520   13.1750   7.5700
C   9.2520   13.8780   8.7390
H   9.0790   14.9490   8.7860
C   9.7250   13.1670   9.8870
H   10.1540   13.6370   10.7670
C   9.7320   11.7360   9.9480
H   9.9080   11.1180   10.8230
C   9.4160   11.0830   8.7270
H   9.5500   10.0100   8.6190
C   9.0570   11.7790   7.5340
H   8.9280   11.2640   6.5870
C   8.9500   11.1620   20.3870
H   9.6770   10.3770   20.1430
H   8.1570   10.6850   20.9760
H   9.5010   11.9120   20.9680
C   8.2120   11.8340   19.2710
C   8.5700   13.1620   18.8940
H   9.3950   13.6460   19.4100
C   7.8880   13.7660   17.8650
H   8.0520   14.7920   17.5510
C   6.8730   13.0430   17.1600
H   6.3940   13.5060   16.3020
C   6.6020   11.7170   17.5240
H   5.9300   11.0650   16.9750
C   7.2670   11.0920   18.5130
H   6.9380   10.1170   18.8610
C   26.4570   12.4450   13.5550
H   27.1280   12.9590   14.2540
H   26.8800   12.5280   12.5470
H   26.3480   11.3870   13.8240
C   25.0650   13.0040   13.5080
C   24.3200   13.0670   12.3170
H   24.6950   12.4320   11.5200
C   23.1080   13.7070   12.1810
H   22.5800   13.8270   11.2400
C   22.5170   14.2950   13.4070
H   21.5280   14.7440   13.3850
C   23.1780   14.0720   14.6700
H   22.7680   14.3710   15.6300
C   24.4820   13.4620   14.6840
H   25.0670   13.3620   15.5930
C   17.5710   21.2480   6.8890
H   18.6510   21.3700   6.7390
H   17.1030   22.0750   7.4370
H   17.0720   21.3190   5.9150
C   17.2290   19.8820   7.3990
C   18.1980   19.0800   7.9940
H   19.2050   19.4850   8.0050
C   17.9790   17.8310   8.6610
H   18.7330   17.2870   9.2230
C   16.6260   17.3740   8.6220
H   16.3320   16.4460   9.1030
C   15.6520   18.0670   7.8430
H   14.6170   17.7430   7.7980
C   15.9210   19.3400   7.2650
H   15.0810   19.8910   6.8510
C   21.3760   21.0260   23.7240
H   20.4220   20.4870   23.7730
H   21.7020   21.4030   24.7020
H   22.0140   20.1900   23.4130
C   21.3200   22.2390   22.7430
C   21.4220   21.9180   21.3730
H   21.5590   20.8770   21.0950
C   21.1640   22.8820   20.4680
H   21.2420   22.6310   19.4150
C   20.8980   24.2170   20.9180
H   20.7360   25.0150   20.1990
C   20.8810   24.5300   22.2790
H   20.7390   25.5510   22.6190
C   21.0600   23.5250   23.2330
H   21.0710   23.7440   24.2960
C   13.4980   11.9160   9.8290
H   12.9760   11.0440   9.4180
H   12.8920   12.3220   10.6480
H   14.4620   11.6150   10.2580
C   13.7160   13.0320   8.7680
C   15.0200   13.6160   8.6070
H   15.8970   13.3430   9.1870
C   15.2000   14.6260   7.6390
H   16.2250   14.9300   7.4480
C   14.1260   14.9630   6.7830
H   14.1730   15.7170   6.0030
C   12.8520   14.5840   7.1130
H   12.0640   15.0130   6.5020
C   12.6470   13.5090   8.0450
H   11.7110   12.9710   8.1580
C   19.7440   10.5210   20.4450
H   19.1710   11.4550   20.4980
H   19.2620   9.7620   21.0740
H   19.7140   10.3290   19.3650
C   21.1430   10.7570   21.0140
C   22.2290   10.3180   20.2850
H   22.1500   9.9270   19.2750
C   23.5250   10.5680   20.8390
H   24.4000   10.2310   20.2920
C   23.7170   11.1630   22.0780
H   24.7300   11.2050   22.4680
C   22.5380   11.3930   22.8610
H   22.7390   11.7980   23.8480
C   21.2670   11.2310   22.2990
H   20.3950   11.6100   22.8240
C   29.8070   21.0370   16.6750
H   29.7320   22.0770   16.3350
H   30.3810   20.5460   15.8790
H   30.3680   20.9570   17.6140
C   28.4450   20.3010   16.9690
C   28.2260   19.5640   18.1860
H   29.0220   19.4550   18.9170
C   26.8940   19.1050   18.4470
H   26.6720   18.4880   19.3130
C   25.8510   19.3550   17.6180
H   24.8790   18.9520   17.8890
C   26.0900   20.0720   16.3750
H   25.2500   20.2200   15.7020
C   27.3720   20.5830   16.0780
H   27.4500   21.3560   15.3190
C   18.5500   10.0140   11.4130
H   18.7830   9.7570   12.4530
H   19.3500   9.5800   10.8000
H   17.6150   9.5640   11.0570
C   18.6360   11.5680   11.2050
C   19.5130   12.2330   10.3370
H   20.2410   11.5850   9.8580
C   19.5720   13.6310   10.2560
H   20.3650   14.1740   9.7510
C   18.5680   14.3480   10.9390
H   18.6520   15.4260   10.8390
C   17.6480   13.7120   11.7250
H   17.1040   14.3100   12.4500
C   17.7060   12.3240   11.9490
H   17.2340   11.8230   12.7890
C   22.1020   25.4310   5.5970
H   21.4160   26.2880   5.5930
H   21.7860   24.8510   4.7220
H   23.1330   25.7650   5.4260
C   21.9980   24.6230   6.8970
C   21.0770   23.5600   6.9970
H   20.5490   23.2000   6.1180
C   20.8770   22.8840   8.2000
H   20.2320   22.0110   8.2230
C   21.4880   23.3510   9.3830
H   21.2750   22.8260   10.3090
C   22.4070   24.4640   9.3180
H   22.8440   24.9190   10.2020
C   22.7460   25.0220   8.0470
H   23.4980   25.8030   7.9750
C   19.3937   18.5114   21.3796
H   20.0436   18.5139   22.2282
H   18.8905   19.4769   21.4859
H   19.9877   18.5392   20.4842
C   18.5128   17.2503   21.3912
C   17.1496   17.3147   21.1941
H   16.6551   18.2601   21.1109
C   16.4170   16.1227   21.1593
H   15.3399   16.1697   21.0252
C   17.0114   14.8943   21.3335
H   16.4196   13.9900   21.2172
C   18.3877   14.8116   21.5504
H   18.8803   13.8329   21.6242
C   19.1220   15.9901   21.6169
H   20.1696   16.0245   21.8419
562
Frame 4
C   16.4146   15.4473   16.9691
C   18.5118   16.6075   16.6812
C   16.1907   17.9616   17.5394
C   19.1746   16.0954   17.9331
C   19.4436   16.9599   15.5706
N   17.4515   15.6736   16.2080
N   15.2373   15.1168   16.4577
O   15.5192   18.1549   16.2646
H   14.9177   17.4166   16.2111
H   17.2052   15.8517   15.2379
H   16.5738   15.2162   18.0190
H   17.9129   17.4480   16.9418
H   14.6149   14.5232   16.9693
H   15.1522   15.0640   15.4577
H   16.8264   18.8836   17.6855
H   15.5171   17.8423   18.3745
H   19.9462   16.8197   18.2131
H   18.9136   17.2412   14.6736
H   19.6267   15.1348   17.8227
H   18.4757   16.0860   18.7568
H   20.0326   17.8241   15.8703
H   20.1409   16.1677   15.3107
C   31.0130   13.4690   20.5000
H   31.2490   12.6100   21.1410
H   31.6000   14.3580   20.7590
H   31.3090   13.1730   19.4860
C   29.5240   13.6930   20.5110
C   28.9490   14.9820   20.4600
H   29.6230   15.8190   20.3030
C   27.5460   15.1780   20.4020
H   27.1240   16.1710   20.2790
C   26.7510   14.0910   20.7820
H   25.6720   14.1250   20.8970
C   27.2930   12.7880   20.7300
H   26.5470   12.0120   20.8740
C   28.6890   12.5880   20.6520
H   29.0430   11.5650   20.7440
C   9.2210   14.9750   13.0480
H   9.9180   14.2170   12.6700
H   8.7250   15.4390   12.1860
H   8.5460   14.3880   13.6810
C   9.9500   16.0790   13.9260
C   11.1730   16.6700   13.5290
H   11.6950   16.2330   12.6830
C   11.7790   17.6500   14.3810
H   12.6890   18.1940   14.1470
C   11.0580   18.1190   15.4870
H   11.4490   19.0070   15.9740
C   9.8790   17.5550   15.8260
H   9.3990   17.9040   16.7360
C   9.3470   16.4720   15.1090
H   8.3400   16.1840   15.3940
C   13.1040   20.9490   22.1230
H   12.1100   21.0700   22.5720
H   13.3280   19.8760   22.1570
H   12.9300   21.4440   21.1600
C   14.1720   21.7290   22.9410
C   13.9780   23.0550   23.3640
H   12.9880   23.4780   23.2220
C   14.9570   23.7090   24.0980
H   14.8720   24.7370   24.4370
C   16.0910   23.0190   24.4910
H   16.8240   23.5570   25.0840
C   16.3390   21.7000   24.0260
H   17.2960   21.2060   24.1580
C   15.3480   21.0720   23.2660
H   15.4870   20.1110   22.7800
C   22.3270   16.0930   8.4030
H   22.3260   16.2600   9.4870
H   21.4310   15.6720   7.9300
H   22.4190   17.0690   7.9110
C   23.4930   15.2320   7.9250
C   24.6760   15.8080   7.3600
H   24.7170   16.8840   7.2220
C   25.8340   15.0550   7.0100
H   26.7290   15.6050   6.7360
C   25.7140   13.6410   7.1510
H   26.5440   12.9840   6.9070
C   24.5170   13.0840   7.6510
H   24.4140   12.0140   7.8020
C   23.4280   13.8620   7.9640
H   22.4620   13.4500   8.2420
C   13.3770   8.3710   11.1840
H   13.9280   8.9300   11.9500
H   12.7730   7.5980   11.6750
H   12.7470   9.0620   10.6100
C   14.2950   7.7300   10.0940
C   14.0090   6.4760   9.6240
H   13.0770   6.0180   9.9390
C   14.8900   5.7890   8.7340
H   14.6040   4.8470   8.2740
C   16.0940   6.4030   8.4280
H   16.8170   5.9830   7.7360
C   16.3240   7.7020   8.8800
H   17.2290   8.1990   8.5440
C   15.3900   8.3770   9.6670
H   15.4990   9.4410   9.8550
C   22.3720   27.5750   12.3440
H   22.6740   28.6260   12.2520
H   21.8660   27.2750   11.4180
H   23.3360   27.0640   12.4640
C   21.5860   27.1640   13.5380
C   20.6270   26.1270   13.4710
H   20.5230   25.5770   12.5400
C   19.8190   25.9080   14.6070
H   19.0410   25.1530   14.6740
C   19.8330   26.8130   15.6810
H   19.1800   26.6280   16.5280
C   20.7150   27.8320   15.6880
H   20.6750   28.5050   16.5390
C   21.6510   27.9300   14.6880
H   22.3640   28.7490   14.7160
C   26.3230   15.1720   24.4190
H   27.1730   15.7810   24.7530
H   26.9100   14.3730   23.9500
H   25.8350   14.6810   25.2700
C   25.2980   15.8310   23.5700
C   25.3310   17.2270   23.3880
H   26.0260   17.7850   24.0090
C   24.4240   17.8360   22.4700
H   24.3120   18.9080   22.3350
C   23.4800   16.9710   21.8510
H   22.7300   17.3880   21.1860
C   23.4350   15.6140   22.0990
H   22.6180   15.0160   21.7070
C   24.3990   15.0550   22.9540
H   24.2710   14.0400   23.3190
C   12.5310   21.3930   17.8850
H   13.2140   21.0900   17.0820
H   11.5950   21.6280   17.3640
H   12.3060   20.6590   18.6680
C   13.0320   22.5830   18.7360
C   12.2150   23.1990   19.6560
H   11.1450   23.0160   19.6540
C   12.8150   24.0790   20.5840
H   12.1470   24.6520   21.2210
C   14.2070   24.1490   20.7110
H   14.6570   24.8010   21.4530
C   15.0790   23.3670   19.9600
H   16.1550   23.3650   20.1040
C   14.4560   22.6230   18.9390
H   15.0290   21.9490   18.3100
C   14.8830   6.8570   21.3950
H   14.5830   5.8040   21.4680
H   14.1110   7.5640   21.0690
H   14.9540   7.1620   22.4460
C   16.2700   6.9730   20.7720
C   17.3370   6.4110   21.5060
H   17.0910   5.8820   22.4210
C   18.6390   6.6200   20.9560
H   19.4860   6.2070   21.4970
C   18.8360   7.1840   19.6870
H   19.8020   7.2850   19.2010
C   17.7740   7.7920   19.0310
H   17.9360   8.3530   18.1150
C   16.4720   7.7040   19.5680
H   15.6290   8.1750   19.0710
C   14.8160   10.5740   15.3720
H   14.3440   11.0040   14.4800
H   15.1400   11.3900   16.0290
H   13.9830   10.0440   15.8500
C   15.8760   9.5730   14.9300
C   15.5810   8.3740   14.2260
H   14.5360   8.2410   13.9630
C   16.5460   7.4790   13.7060
H   16.2100   6.6290   13.1200
C   17.8520   7.6230   14.2370
H   18.6540   6.9360   13.9850
C   18.1870   8.7030   14.9950
H   19.2350   8.8200   15.2580
C   17.2460   9.6850   15.4350
H   17.6780   10.4650   16.0550
C   8.0650   7.4040   17.5740
H   8.1270   8.0850   16.7160
H   7.5600   7.9240   18.3970
H   7.4880   6.4980   17.3480
C   9.4790   7.0660   18.0080
C   10.5440   7.9760   17.7650
H   10.3730   8.9450   17.3060
C   11.8290   7.6370   18.2640
H   12.7100   8.2510   18.1010
C   12.0090   6.4900   19.0190
H   13.0130   6.2290   19.3400
C   10.9610   5.6080   19.2070
H   11.1880   4.6980   19.7550
C   9.6610   5.8390   18.6640
H   8.8970   5.0800   18.8040
C   18.2400   9.3350   23.8980
H   18.4220   9.0030   24.9280
H   18.8890   10.1800   23.6390
H   18.3460   8.4310   23.2860
C   16.8430   9.7990   23.8620
C   16.4750   10.9760   23.2580
H   17.2340   11.5320   22.7170
C   15.1310   11.3650   23.2170
H   14.8330   12.3010   22.7540
C   14.1480   10.5800   23.8790
H   13.1240   10.9410   23.8510
C   14.5070   9.3760   24.4910
H   13.6960   8.7620   24.8720
C   15.8380   9.0020   24.5510
H   16.1540   8.1380   25.1280
C   10.9060   11.5230   15.8000
H   10.2660   12.1380   16.4450
H   11.8110   12.1010   15.5760
H   11.3030   10.7560   16.4760
C   10.1450   10.8230   14.6590
C   8.8800   11.1470   14.2680
H   8.3050   11.8430   14.8720
C   8.2310   10.3560   13.3000
H   7.1860   10.6060   13.1480
C   8.9080   9.2900   12.6040
H   8.3580   8.8160   11.7960
C   10.2410   9.0790   12.9680
H   10.7620   8.2900   12.4330
C   10.8540   9.7140   14.0870
H   11.8650   9.4940   14.4180
C   12.4900   20.4970   8.7300
H   11.7150   20.4740   7.9540
H   12.2270   19.9760   9.6590
H   13.3460   20.0150   8.2410
C   12.8650   21.9680   8.9270
C   12.1420   22.7970   9.8120
H   11.2610   22.4200   10.3220
C   12.3840   24.1720   9.8850
H   11.8920   24.7890   10.6310
C   13.4520   24.6990   9.1480
H   13.6750   25.7620   9.1740
C   14.2260   23.9500   8.2820
H   15.0110   24.4020   7.6830
C   13.8970   22.5400   8.1400
H   14.4070   21.9210   7.4080
C   25.2240   23.2580   12.7270
H   25.5120   24.3000   12.9180
H   24.9920   23.1420   11.6620
H   26.0960   22.6100   12.8790
C   24.1020   22.8110   13.7090
C   24.1040   23.2240   14.9730
H   24.9610   23.8230   15.2650
C   23.1140   22.7650   15.8740
H   23.0750   23.1170   16.9010
C   22.0540   21.9550   15.3630
H   21.3500   21.5740   16.0970
C   21.9790   21.6570   14.0120
H   21.2210   20.9940   13.6040
C   22.9780   22.0850   13.1860
H   22.9530   21.7500   12.1530
C   15.9690   24.2190   11.3740
H   16.8540   24.6850   11.8250
H   15.3350   25.1120   11.4330
H   16.1270   23.9390   10.3250
C   15.4160   23.1270   12.1800
C   15.0320   21.8940   11.5900
H   15.1170   21.7510   10.5170
C   14.4730   20.9160   12.4130
H   14.1800   19.9440   12.0280
C   14.3810   21.0610   13.7930
H   14.0500   20.2450   14.4290
C   14.8220   22.2110   14.4320
H   14.6700   22.2620   15.5060
C   15.2630   23.2580   13.6150
H   15.6250   24.2030   14.0110
C   7.9820   23.6640   20.2210
H   7.6700   24.1780   19.3030
H   8.8810   24.2110   20.5300
H   7.2090   23.8760   20.9700
C   8.2150   22.1450   20.0450
C   8.9820   21.3660   20.9660
H   9.4280   21.8310   21.8400
C   9.3410   20.0110   20.7260
H   9.9200   19.4750   21.4720
C   8.8720   19.3730   19.6080
H   9.2540   18.3910   19.3440
C   8.1140   20.1330   18.6130
H   7.8040   19.7260   17.6550
C   7.8120   21.5360   18.8670
H   7.2650   22.1110   18.1260
C   16.6400   17.6150   24.7630
H   16.2880   18.1500   25.6540
H   16.0580   17.8970   23.8770
H   17.6690   17.9180   24.5330
C   16.4320   16.1690   24.9640
C   17.4700   15.2850   24.7630
H   18.3820   15.6110   24.2700
C   17.2870   13.9420   25.1470
H   18.0430   13.2190   24.8550
C   16.0500   13.5080   25.7080
H   15.9690   12.4530   25.9550
C   15.0160   14.4460   25.9100
H   14.0840   14.0850   26.3350
C   15.2290   15.7710   25.5010
H   14.4230   16.4770   25.6750
C   9.8970   25.7470   14.8340
H   9.2600   26.2100   14.0700
H   10.9030   26.1810   14.8020
H   9.4340   25.9280   15.8120
C   10.1050   24.2760   14.5480
C   9.4830   23.4020   15.4380
H   8.7910   23.7840   16.1820
C   9.7180   22.0020   15.3700
H   9.2880   21.4530   16.2030
C   10.5190   21.4980   14.3610
H   10.5880   20.4200   14.2480
C   11.0160   22.3430   13.3520
H   11.7280   21.9650   12.6240
C   10.8610   23.7380   13.4830
H   11.4610   24.3570   12.8230
C   21.4460   7.1060   12.4470
H   20.6860   6.3340   12.6150
H   22.2500   6.4780   12.0440
H   21.0510   7.7230   11.6300
C   21.6030   8.0210   13.6490
C   21.7540   7.6760   14.9780
H   21.7640   6.6430   15.3150
C   21.9350   8.6230   16.0550
H   22.0640   8.3230   17.0910
C   22.1380   9.9860   15.6920
H   22.3350   10.8010   16.3830
C   22.0340   10.3260   14.3310
H   22.1590   11.3300   13.9360
C   21.6750   9.3700   13.3830
H   21.5590   9.7230   12.3630
C   22.9880   17.6800   12.2810
H   22.9180   16.8740   13.0210
H   23.7730   18.3620   12.6300
H   23.2480   17.2650   11.3000
C   21.6550   18.3490   12.1870
C   20.6220   18.0880   13.0570
H   20.7970   17.3350   13.8210
C   19.4340   18.7990   13.0450
H   18.7570   18.7330   13.8920
C   19.1760   19.7760   12.0220
H   18.2920   20.4060   12.0440
C   20.1570   19.9410   11.0580
H   19.9550   20.5700   10.1960
C   21.4170   19.2580   11.1840
H   22.2080   19.5330   10.4920
C   11.5670   16.9320   9.5720
H   12.2140   17.1360   8.7100
H   11.2820   15.8920   9.3700
H   12.1900   17.0270   10.4710
C   10.3380   17.8120   9.7330
C   9.4070   17.9080   8.6630
H   9.2760   17.1270   7.9200
C   8.4820   18.9870   8.6270
H   7.7350   19.0310   7.8400
C   8.4710   19.9600   9.6310
H   7.7480   20.7700   9.6540
C   9.3540   19.8350   10.7390
H   9.3650   20.4890   11.6050
C   10.1940   18.7130   10.7970
H   10.9300   18.6810   11.5950
C   12.7180   16.6050   23.0210
H   12.8130   16.8270   21.9510
H   13.7280   16.3210   23.3450
H   12.5000   17.5290   23.5710
C   11.8010   15.4010   23.1530
C   10.6200   15.4240   22.3970
H   10.4520   16.2470   21.7090
C   9.7560   14.2780   22.4410
H   8.8510   14.2660   21.8410
C   10.0090   13.2210   23.3230
H   9.3460   12.3640   23.2430
C   11.1890   13.1930   24.0600
H   11.5060   12.4190   24.7520
C   12.1210   14.2630   23.8890
H   13.0670   14.1720   24.4150
C   18.8420   17.6350   27.7520
H   18.1240   17.0240   28.3120
H   18.2540   18.2490   27.0590
H   19.3830   18.2440   28.4880
C   19.7860   16.8740   26.9420
C   20.9230   17.5130   26.3330
H   21.0460   18.5910   26.2770
C   21.9600   16.7460   25.6900
H   22.7590   17.2130   25.1220
C   21.8200   15.3540   25.7340
H   22.5620   14.8350   25.1340
C   20.7780   14.7860   26.4240
H   20.6730   13.7070   26.4980
C   19.7540   15.4920   26.9560
H   18.9700   15.0490   27.5620
C   25.2430   22.7500   18.9430
H   24.6510   23.3730   19.6240
H   24.6070   22.0920   18.3390
H   25.7690   23.4530   18.2840
C   26.2890   22.0890   19.8050
C   27.6530   22.5380   19.7650
H   27.8930   23.3990   19.1490
C   28.6720   21.9360   20.4790
H   29.6960   22.2960   20.4470
C   28.3120   20.9270   21.3620
H   29.1140   20.5670   22.0000
C   26.9480   20.4890   21.5060
H   26.7050   19.7450   22.2580
C   25.9360   21.0700   20.7010
H   24.8820   20.8350   20.8180
C   8.6660   14.0750   6.3660
H   9.5670   14.3180   5.7890
H   8.3130   15.1000   6.5330
H   8.0120   13.6260   5.6080
C   8.9520   13.1750   7.5700
C   9.2520   13.8780   8.7390
H   9.0790   14.9490   8.7860
C   9.7250   13.1670   9.8870
H   10.1540   13.6370   10.7670
C   9.7320   11.7360   9.9480
H   9.9080   11.1180   10.8230
C   9.4160   11.0830   8.7270
H   9.5500   10.0100   8.6190
C   9.0570   11.7790   7.5340
H   8.9280   11.2640   6.5870
C   8.9500   11.1620   20.3870
H   9.6770   10.3770   20.1430
H   8.1570   10.6850   20.9760
H   9.5010   11.9120   20.9680
C   8.2120   11.8340   19.2710
C   8.5700   13.1620   18.8940
H   9.3950   13.6460   19.4100
C   7.8880   13.7660   17.8650
H   8.0520   14.7920   17.5510
C   6.8730   13.0430   17.1600
H   6.3940   13.5060   16.3020
C   6.6020   11.7170   17.5240
H   5.9300   11.0650   16.9750
C   7.2670   11.0920   18.5130
H   6.9380   10.1170   18.8610
C   26.4570   12.4450   13.5550
H   27.1280   12.9590   14.2540
H   26.8800   12.5280   12.5470
H   26.3480   11.3870   13.8240
C   25.0650   13.0040   13.5080
C   24.3200   13.0670   12.3170
H   24.6950   12.4320   11.5200
C   23.1080   13.7070   12.1810
H   22.5800   13.8270   11.2400
C   22.5170   14.2950   13.4070
H   21.5280   14.7440   13.3850
C   23.1780   14.0720   14.6700
H   22.7680   14.3710   15.6300
C   24.4820   13.4620   14.6840
H   25.0670   13.3620   15.5930
C   17.5710   21.2480   6.8890
H   18.6510   21.3700   6.7390
H   17.1030   22.0750   7.4370
H   17.0720   21.3190   5.9150
C   17.2290   19.8820   7.3990
C   18.1980   19.0800   7.9940
H   19.2050   19.4850   8.0050
C   17.9790   17.8310   8.6610
H   18.7330   17.2870   9.2230
C   16.6260   17.3740   8.6220
H   16.3320   16.4460   9.1030
C   15.6520   18.0670   7.8430
H   14.6170   17.7430   7.7980
C   15.9210   19.3400   7.2650
H   15.0810   19.8910   6.8510
C   21.3760   21.0260   23.7240
H   20.4220   20.4870   23.7730
H   21.7020   21.4030   24.7020
H   22.0140   20.1900   23.4130
C   21.3200   22.2390   22.7430
C   21.4220   21.9180   21.3730
H   21.5590   20.8770   21.0950
C   21.1640   22.8820   20.4680
H   21.2420   22.6310   19.4150
C   20.8980   24.2170   20.9180
H   20.7360   25.0150   20.1990
C   20.8810   24.5300   22.2790
H   20.7390   25.5510   22.6190
C   21.0600   23.5250   23.2330
H   21.0710   23.7440   24.2960
C   13.4980   11.9160   9.8290
H   12.9760   11.0440   9.4180
H   12.8920   12.3220   10.6480
H   14.4620   11.6150   10.2580
C   13.7160   13.0320   8.7680
C   15.0200   13.6160   8.6070
H   15.8970   13.3430   9.1870
C   15.2000   14.6260   7.6390
H   16.2250   14.9300   7.4480
C   14.1260   14.9630   6.7830
H   14.1730   15.7170   6.0030
C   12.8520   14.5840   7.1130
H   12.0640   15.0130   6.5020
C   12.6470   13.5090   8.0450
H   11.7110   12.9710   8.1580
C   19.7440   10.5210   20.4450
H   19.1710   11.4550   20.4980
H   19.2620   9.7620   21.0740
H   19.7140   10.3290   19.3650
C   21.1430   10.7570   21.0140
C   22.2290   10.3180   20.2850
H   22.1500   9.9270   19.2750
C   23.5250   10.5680   20.8390
H   24.4000   10.2310   20.2920
C   23.7170   11.1630   22.0780
H   24.7300   11.2050   22.4680
C   22.5380   11.3930   22.8610
H   22.7390   11.7980   23.8480
C   21.2670   11.2310   22.2990
H   20.3950   11.6100   22.8240
C   29.8070   21.0370   16.6750
H   29.7320   22.0770   16.3350
H   30.3810   20.5460   15.8790
H   30.3680   20.9570   17.6140
C   28.4450   20.3010   16.9690
C   28.2260   19.5640   18.1860
H   29.0220   19.4550   18.9170
C   26.8940   19.1050   18.4470
H   26.6720   18.4880   19.3130
C   25.8510   19.3550   17.6180
H   24.8790   18.9520   17.8890
C   26.0900   20.0720   16.3750
H   25.2500   20.2200   15.7020
C   27.3720   20.5830   16.0780
H   27.4500   21.3560   15.3190
C   18.5500   10.0140   11.4130
H   18.7830   9.7570   12.4530
H   19.3500   9.5800   10.8000
H   17.6150   9.5640   11.0570
C   18.6360   11.5680   11.2050
C   19.5130   12.2330   10.3370
H   20.2410   11.5850   9.8580
C   19.5720   13.6310   10.2560
H   20.3650   14.1740   9.7510
C   18.5680   14.3480   10.9390
H   18.6520   15.4260   10.8390
C   17.6480   13.7120   11.7250
H   17.1040   14.3100   12.4500
C   17.7060   12.3240   11.9490
H   17.2340   11.8230   12.7890
C   22.1020   25.4310   5.5970
H   21.4160   26.2880   5.5930
H   21.7860   24.8510   4.7220
H   23.1330   25.7650   5.4260
C   21.9980   24.6230   6.8970
C   21.0770   23.5600   6.9970
H   20.5490   23.2000   6.1180
C   20.8770   22.8840   8.2000
H   20.2320   22.0110   8.2230
C   21.4880   23.3510   9.3830
H   21.2750   22.8260   10.3090
C   22.4070   24.4640   9.3180
H   22.8440   24.9190   10.2020
C   22.7460   25.0220   8.0470
H   23.4980   25.8030   7.9750
C   19.3959   18.5115   21.3826
H   20.0514   18.5077   22.2296
H   18.8820   19.4669   21.4796
H   19.9889   18.5417   20.4869
C   18.5070   17.2544   21.3960
C   17.1465   17.3135   21.1956
H   16.6571   18.2609   21.1117
C   16.4098   16.1128   21.1604
H   15.3404   16.1732   21.0256
C   17.0224   14.8943   21.3264
H   16.4184   13.9894   21.2270
C   18.3841   14.8203   21.5498
H   18.8774   13.8415   21.6263
C   19.1257   15.9985   21.6149
H   20.1713   16.0148   21.8419
562
Frame 5
C   16.4219   15.4318   16.9683
C   18.5184   16.5949   16.6841
C   16.1801   17.9371   17.5420
C   19.1816   16.0896   17.9342
C   19.4470   16.9494   15.5826
N   17.4618   15.6970   16.2104
N   15.2780   15.0539   16.4490
O   15.5141   18.1515   16.2525
H   14.8927   17.4212   16.2081
H   17.1951   15.8482   15.2398
H   16.5674   15.2655   18.0136
H   17.9410   17.4710   16.9238
H   14.6060   14.5710   16.9975
H   15.1630   15.0976   15.4523
H   16.8210   18.8668   17.6956
H   15.4693   17.8625   18.3924
H   19.9399   16.8104   18.2161
H   18.9036   17.2140   14.6942
H   19.6328   15.1253   17.8192
H   18.4838   16.0798   18.7494
H   20.0233   17.8144   15.8679
H   20.1327   16.1620   15.3245
C   31.0130   13.4690   20.5000
H   31.2490   12.6100   21.1410
H   31.6000   14.3580   20.7590
H   31.3090   13.1730   19.4860
C   29.5240   13.6930   20.5110
C   28.9490   14.9820   20.4600
H   29.6230   15.8190   20.3030
C   27.5460   15.1780   20.4020
H   27.1240   16.1710   20.2790
C   26.7510   14.0910   20.7820
H   25.6720   14.1250   20.8970
C   27.2930   12.7880   20.7300
H   26.5470   12.0120   20.8740
C   28.6890   12.5880   20.6520
H   29.0430   11.5650   20.7440
C   9.2210   14.9750   13.0480
H   9.9180   14.2170   12.6700
H   8.7250   15.4390   12.1860
H   8.5460   14.3880   13.6810
C   9.9500   16.0790   13.9260
C   11.1730   16.6700   13.5290
H   11.6950   16.2330   12.6830
C   11.7790   17.6500   14.3810
H   12.6890   18.1940   14.1470
C   11.0580   18.1190   15.4870
H   11.4490   19.0070   15.9740
C   9.8790   17.5550   15.8260
H   9.3990   17.9040   16.7360
C   9.3470   16.4720   15.1090
H   8.3400   16.1840   15.3940
C   13.1040   20.9490   22.1230
H   12.1100   21.0700   22.5720
H   13.3280   19.8760   22.1570
H   12.9300   21.4440   21.1600
C   14.1720   21.7290   22.9410
C   13.9780   23.0550   23.3640
H   12.9880   23.4780   23.2220
C   14.9570   23.7090   24.0980
H   14.8720   24.7370   24.4370
C   16.0910   23.0190   24.4910
H   16.8240   23.5570   25.0840
C   16.3390   21.7000   24.0260
H   17.2960   21.2060   24.1580
C   15.3480   21.0720   23.2660
H   15.4870   20.1110   22.7800
C   22.3270   16.0930   8.4030
H   22.3260   16.2600   9.4870
H   21.4310   15.6720   7.9300
H   22.4190   17.0690   7.9110
C   23.4930   15.2320   7.9250
C   24.6760   15.8080   7.3600
H   24.7170   16.8840   7.2220
C   25.8340   15.0550   7.0100
H   26.7290   15.6050   6.7360
C   25.7140   13.6410   7.1510
H   26.5440   12.9840   6.9070
C   24.5170   13.0840   7.6510
H   24.4140   12.0140   7.8020
C   23.4280   13.8620   7.9640
H   22.4620   13.4500   8.2420
C   13.3770   8.3710   11.1840
H   13.9280   8.9300   11.9500
H   12.7730   7.5980   11.6750
H   12.7470   9.0620   10.6100
C   14.2950   7.7300   10.0940
C   14.0090   6.4760   9.6240
H   13.0770   6.0180   9.9390
C   14.8900   5.7890   8.7340
H   14.6040   4.8470   8.2740
C   16.0940   6.4030   8.4280
H   16.8170   5.9830   7.7360
C   16.3240   7.7020   8.8800
H   17.2290   8.1990   8.5440
C   15.3900   8.3770   9.6670
H   15.4990   9.4410   9.8550
C   22.3720   27.5750   12.3440
H   22.6740   28.6260   12.2520
H   21.8660   27.2750   11.4180
H   23.3360   27.0640   12.4640
C   21.5860   27.1640   13.5380
C   20.6270   26.1270   13.4710
H   20.5230   25.5770   12.5400
C   19.8190   25.9080   14.6070
H   19.0410   25.1530   14.6740
C   19.8330   26.8130   15.6810
H   19.1800   26.6280   16.5280
C   20.7150   27.8320   15.6880
H   20.6750   28.5050   16.5390
C   21.6510   27.9300   14.6880
H   22.3640   28.7490   14.7160
C   26.3230   15.1720   24.4190
H   27.1730   15.7810   24.7530
H   26.9100   14.3730   23.9500
H   25.8350   14.6810   25.2700
C   25.2980   15.8310   23.5700
C   25.3310   17.2270   23.3880
H   26.0260   17.7850   24.0090
C   24.4240   17.8360   22.4700
H   24.3120   18.9080   22.3350
C   23.4800   16.9710   21.8510
H   22.7300   17.3880   21.1860
C   23.4350   15.6140   22.0990
H   22.6180   15.0160   21.7070
C   24.3990   15.0550   22.9540
H   24.2710   14.0400   23.3190
C   12.5310   21.3930   17.8850
H   13.2140   21.0900   17.0820
H   11.5950   21.6280   17.3640
H   12.3060   20.6590   18.6680
C   13.0320   22.5830   18.7360
C   12.2150   23.1990   19.6560
H   11.1450   23.0160   19.6540
C   12.8150   24.0790   20.5840
H   12.1470   24.6520   21.2210
C   14.2070   24.1490   20.7110
H   14.6570   24.8010   21.4530
C   15.0790   23.3670   19.9600
H   16.1550   23.3650   20.1040
C   14.4560   22.6230   18.9390
H   15.0290   21.9490   18.3100
C   14.8830   6.8570   21.3950
H   14.5830   5.8040   21.4680
H   14.1110   7.5640   21.0690
H   14.9540   7.1620   22.4460
C   16.2700   6.9730   20.7720
C   17.3370   6.4110   21.5060
H   17.0910   5.8820   22.4210
C   18.6390   6.6200   20.9560
H   19.4860   6.2070   21.4970
C   18.8360   7.1840   19.6870
H   19.8020   7.2850   19.2010
C   17.7740   7.7920   19.0310
H   17.9360   8.3530   18.1150
C   16.4720   7.7040   19.5680
H   15.6290   8.1750   19.0710
C   14.8160   10.5740   15.3720
H   14.3440   11.0040   14.4800
H   15.1400   11.3900   16.0290
H   13.9830   10.0440   15.8500
C   15.8760   9.5730   14.9300
C   15.5810   8.3740   14.2260
H   14.5360   8.2410   13.9630
C   16.5460   7.4790   13.7060
H   16.2100   6.6290   13.1200
C   17.8520   7.6230   14.2370
H   18.6540   6.9360   13.9850
C   18.1870   8.7030   14.9950
H   19.2350   8.8200   15.2580
C   17.2460   9.6850   15.4350
H   17.6780   10.4650   16.0550
C   8.0650   7.4040   17.5740
H   8.1270   8.0850   16.7160
H   7.5600   7.9240   18.3970
H   7.4880   6.4980   17.3480
C   9.4790   7.0660   18.0080
C   10.5440   7.9760   17.7650
H   10.3730   8.9450   17.3060
C   11.8290   7.6370   18.2640
H   12.7100   8.2510   18.1010
C   12.0090   6.4900   19.0190
H   13.0130   6.2290   19.3400
C   10.9610   5.6080   19.2070
H   11.1880   4.6980   19.7550
C   9.6610   5.8390   18.6640
H   8.8970   5.0800   18.8040
C   18.2400   9.3350   23.8980
H   18.4220   9.0030   24.9280
H   18.8890   10.1800   23.6390
H   18.3460   8.4310   23.2860
C   16.8430   9.7990   23.8620
C   16.4750   10.9760   23.2580
H   17.2340   11.5320   22.7170
C   15.1310   11.3650   23.2170
H   14.8330   12.3010   22.7540
C   14.1480   10.5800   23.8790
H   13.1240   10.9410   23.8510
C   14.5070   9.3760   24.4910
H   13.6960   8.7620   24.8720
C   15.8380   9.0020   24.5510
H   16.1540   8.1380   25.1280
C   10.9060   11.5230   15.8000
H   10.2660   12.1380   16.4450
H   11.8110   12.1010   15.5760
H   11.3030   10.7560   16.4760
C   10.1450   10.8230   14.6590
C   8.8800   11.1470   14.2680
H   8.3050   11.8430   14.8720
C   8.2310   10.3560   13.3000
H   7.1860   10.6060   13.1480
C   8.9080   9.2900   12.6040
H   8.3580   8.8160   11.7960
C   10.2410   9.0790   12.9680
H   10.7620   8.2900   12.4330
C   10.8540   9.7140   14.0870
H   11.8650   9.4940   14.4180
C   12.4900   20.4970   8.7300
H   11.7150   20.4740   7.9540
H   12.2270   19.9760   9.6590
H   13.3460   20.0150   8.2410
C   12.8650   21.9680   8.9270
C   12.1420   22.7970   9.8120
H   11.2610   22.4200   10.3220
C   12.3840   24.1720   9.8850
H   11.8920   24.7890   10.6310
C   13.4520   24.6990   9.1480
H   13.6750   25.7620   9.1740
C   14.2260   23.9500   8.2820
H   15.0110   24.4020   7.6830
C   13.8970   22.5400   8.1400
H   14.4070   21.9210   7.4080
C   25.2240   23.2580   12.7270
H   25.5120   24.3000   12.9180
H   24.9920   23.1420   11.6620
H   26.0960   22.6100   12.8790
C   24.1020   22.8110   13.7090
C   24.1040   23.2240   14.9730
H   24.9610   23.8230   15.2650
C   23.1140   22.7650   15.8740
H   23.0750   23.1170   16.9010
C   22.0540   21.9550   15.3630
H   21.3500   21.5740   16.0970
C   21.9790   21.6570   14.0120
H   21.2210   20.9940   13.6040
C   22.9780   22.0850   13.1860
H   22.9530   21.7500   12.1530
C   15.9690   24.2190   11.3740
H   16.8540   24.6850   11.8250
H   15.3350   25.1120   11.4330
H   16.1270   23.9390   10.3250
C   15.4160   23.1270   12.1800
C   15.0320   21.8940   11.5900
H   15.1170   21.7510   10.5170
C   14.4730   20.9160   12.4130
H   14.1800   19.9440   12.0280
C   14.3810   21.0610   13.7930
H   14.0500   20.2450   14.4290
C   14.8220   22.2110   14.4320
H   14.6700   22.2620   15.5060
C   15.2630   23.2580   13.6150
H   15.6250   24.2030   14.0110
C   7.9820   23.6640   20.2210
H   7.6700   24.1780   19.3030
H   8.8810   24.2110   20.5300
H   7.2090   23.8760   20.9700
C   8.2150   22.1450   20.0450
C   8.9820   21.3660   20.9660
H   9.4280   21.8310   21.8400
C   9.3410   20.0110   20.7260
H   9.9200   19.4750   21.4720
C   8.8720   19.3730   19.6080
H   9.2540   18.3910   19.3440
C   8.1140   20.1330   18.6130
H   7.8040   19.7260   17.6550
C   7.8120   21.5360   18.8670
H   7.2650   22.1110   18.1260
C   16.6400   17.6150   24.7630
H   16.2880   18.1500   25.6540
H   16.0580   17.8970   23.8770
H   17.6690   17.9180   24.5330
C   16.4320   16.1690   24.9640
C   17.4700   15.2850   24.7630
H   18.3820   15.6110   24.2700
C   17.2870   13.9420   25.1470
H   18.0430   13.2190   24.8550
C   16.0500   13.5080   25.7080
H   15.9690   12.4530   25.9550
C   15.0160   14.4460   25.9100
H   14.0840   14.0850   26.3350
C   15.2290   15.7710   25.5010
H   14.4230   16.4770   25.6750
C   9.8970   25.7470   14.8340
H   9.2600   26.2100   14.0700
H   10.9030   26.1810   14.8020
H   9.4340   25.9280   15.8120
C   10.1050   24.2760   14.5480
C   9.4830   23.4020   15.4380
H   8.7910   23.7840   16.1820
C   9.7180   22.0020   15.3700
H   9.2880   21.4530   16.2030
C   10.5190   21.4980   14.3610
H   10.5880   20.4200   14.2480
C   11.0160   22.3430   13.3520
H   11.7280   21.9650   12.6240
C   10.8610   23.7380   13.4830
H   11.4610   24.3570   12.8230
C   21.4460   7.1060   12.4470
H   20.6860   6.3340   12.6150
H   22.2500   6.4780   12.0440
H   21.0510   7.7230   11.6300
C   21.6030   8.0210   13.6490
C   21.7540   7.6760   14.9780
H   21.7640   6.6430   15.3150
C   21.9350   8.6230   16.0550
H   22.0640   8.3230   17.0910
C   22.1380   9.9860   15.6920
H   22.3350   10.8010   16.3830
C   22.0340   10.3260   14.3310
H   22.1590   11.3300   13.9360
C   21.6750   9.3700   13.3830
H   21.5590   9.7230   12.3630
C   22.9880   17.6800   12.2810
H   22.9180   16.8740   13.0210
H   23.7730   18.3620   12.6300
H   23.2480   17.2650   11.3000
C   21.6550   18.3490   12.1870
C   20.6220   18.0880   13.0570
H   20.7970   17.3350   13.8210
C   19.4340   18.7990   13.0450
H   18.7570   18.7330   13.8920
C   19.1760   19.7760   12.0220
H   18.2920   20.4060   12.0440
C   20.1570   19.9410   11.0580
H   19.9550   20.5700   10.1960
C   21.4170   19.2580   11.1840
H   22.2080   19.5330   10.4920
C   11.5670   16.9320   9.5720
H   12.2140   17.1360   8.7100
H   11.2820   15.8920   9.3700
H   12.1900   17.0270   10.4710
C   10.3380   17.8120   9.7330
C   9.4070   17.9080   8.6630
H   9.2760   17.1270   7.9200
C   8.4820   18.9870   8.6270
H   7.7350   19.0310   7.8400
C   8.4710   19.9600   9.6310
H   7.7480   20.7700   9.6540
C   9.3540   19.8350   10.7390
H   9.3650   20.4890   11.6050
C   10.1940   18.7130   10.7970
H   10.9300   18.6810   11.5950
C   12.7180   16.6050   23.0210
H   12.8130   16.8270   21.9510
H   13.7280   16.3210   23.3450
H   12.5000   17.5290   23.5710
C   11.8010   15.4010   23.1530
C   10.6200   15.4240   22.3970
H   10.4520   16.2470   21.7090
C   9.7560   14.2780   22.4410
H   8.8510   14.2660   21.8410
C   10.0090   13.2210   23.3230
H   9.3460   12.3640   23.2430
C   11.1890   13.1930   24.0600
H   11.5060   12.4190   24.7520
C   12.1210   14.2630   23.8890
H   13.0670   14.1720   24.4150
C   18.8420   17.6350   27.7520
H   18.1240   17.0240   28.3120
H   18.2540   18.2490   27.0590
H   19.3830   18.2440   28.4880
C   19.7860   16.8740   26.9420
C   20.9230   17.5130   26.3330
H   21.0460   18.5910   26.2770
C   21.9600   16.7460   25.6900
H   22.7590   17.2130   25.1220
C   21.8200   15.3540   25.7340
H   22.5620   14.8350   25.1340
C   20.7780   14.7860   26.4240
H   20.6730   13.7070   26.4980
C   19.7540   15.4920   26.9560
H   18.9700   15.0490   27.5620
C   25.2430   22.7500   18.9430
H   24.6510   23.3730   19.6240
H   24.6070   22.0920   18.3390
H   25.7690   23.4530   18.2840
C   26.2890   22.0890   19.8050
C   27.6530   22.5380   19.7650
H   27.8930   23.3990   19.1490
C   28.6720   21.9360   20.4790
H   29.6960   22.2960   20.4470
C   28.3120   20.9270   21.3620
H   29.1140   20.5670   22.0000
C   26.9480   20.4890   21.5060
H   26.7050   19.7450   22.2580
C   25.9360   21.0700   20.7010
H   24.8820   20.8350   20.8180
C   8.6660   14.0750   6.3660
H   9.5670   14.3180   5.7890
H   8.3130   15.1000   6.5330
H   8.0120   13.6260   5.6080
C   8.9520   13.1750   7.5700
C   9.2520   13.8780   8.7390
H   9.0790   14.9490   8.7860
C   9.7250   13.1670   9.8870
H   10.1540   13.6370   10.7670
C   9.7320   11.7360   9.9480
H   9.9080   11.1180   10.8230
C   9.4160   11.0830   8.7270
H   9.5500   10.0100   8.6190
C   9.0570   11.7790   7.5340
H   8.9280   11.2640   6.5870
C   8.9500   11.1620   20.3870
H   9.6770   10.3770   20.1430
H   8.1570   10.6850   20.9760
H   9.5010   11.9120   20.9680
C   8.2120   11.8340   19.2710
C   8.5700   13.1620   18.8940
H   9.3950   13.6460   19.4100
C   7.8880   13.7660   17.8650
H   8.0520   14.7920   17.5510
C   6.8730   13.0430   17.1600
H   6.3940   13.5060   16.3020
C   6.6020   11.7170   17.5240
H   5.9300   11.0650   16.9750
C   7.2670   11.0920   18.5130
H   6.9380   10.1170   18.8610
C   26.4570   12.4450   13.5550
H   27.1280   12.9590   14.2540
H   26.8800   12.5280   12.5470
H   26.3480   11.3870   13.8240
C   25.0650   13.0040   13.5080
C   24.3200   13.0670   12.3170
H   24.6950   12.4320   11.5200
C   23.1080   13.7070   12.1810
H   22.5800   13.8270   11.2400
C   22.5170   14.2950   13.4070
H   21.5280   14.7440   13.3850
C   23.1780   14.0720   14.6700
H   22.7680   14.3710   15.6300
C   24.4820   13.4620   14.6840
H   25.0670   13.3620   15.5930
C   17.5710   21.2480   6.8890
H   18.6510   21.3700   6.7390
H   17.1030   22.0750   7.4370
H   17.0720   21.3190   5.9150
C   17.2290   19.8820   7.3990
C   18.1980   19.0800   7.9940
H   19.2050   19.4850   8.0050
C   17.9790   17.8310   8.6610
H   18.7330   17.2870   9.2230
C   16.6260   17.3740   8.6220
H   16.3320   16.4460   9.1030
C   15.6520   18.0670   7.8430
H   14.6170   17.7430   7.7980
C   15.9210   19.3400   7.2650
H   15.0810   19.8910   6.8510
C   21.3760   21.0260   23.7240
H   20.4220   20.4870   23.7730
H   21.7020   21.4030   24.7020
H   22.0140   20.1900   23.4130
C   21.3200   22.2390   22.7430
C   21.4220   21.9180   21.3730
H   21.5590   20.8770   21.0950
C   21.1640   22.8820   20.4680
H   21.2420   22.6310   19.4150
C   20.8980   24.2170   20.9180
H   20.7360   25.0150   20.1990
C   20.8810   24.5300   22.2790
H   20.7390   25.5510   22.6190
C   21.0600   23.5250   23.2330
H   21.0710   23.7440   24.2960
C   13.4980   11.9160   9.8290
H   12.9760   11.0440   9.4180
H   12.8920   12.3220   10.6480
H   14.4620   11.6150   10.2580
C   13.7160   13.0320   8.7680
C   15.0200   13.6160   8.6070
H   15.8970   13.3430   9.1870
C   15.2000   14.6260   7.6390
H   16.2250   14.9300   7.4480
C   14.1260   14.9630   6.7830
H   14.1730   15.7170   6.0030
C   12.8520   14.5840   7.1130
H   12.0640   15.0130   6.5020
C   12.6470   13.5090   8.0450
H   11.7110   12.9710   8.1580
C   19.7440   10.5210   20.4450
H   19.1710   11.4550   20.4980
H   19.2620   9.7620   21.0740
H   19.7140   10.3290   19.3650
C   21.1430   10.7570   21.0140
C   22.2290   10.3180   20.2850
H   22.1500   9.9270   19.2750
C   23.5250   10.5680   20.8390
H   24.4000   10.2310   20.2920
C   23.7170   11.1630   22.0780
H   24.7300   11.2050   22.4680
C   22.5380   11.3930   22.8610
H   22.7390   11.7980   23.8480
C   21.2670   11.2310   22.2990
H   20.3950   11.6100   22.8240
C   29.8070   21.0370   16.6750
H   29.7320   22.0770   16.3350
H   30.3810   20.5460   15.8790
H   30.3680   20.9570   17.6140
C   28.4450   20.3010   16.9690
C   28.2260   19.5640   18.1860
H   29.0220   19.4550   18.9170
C   26.8940   19.1050   18.4470
H   26.6720   18.4880   19.3130
C   25.8510   19.3550   17.6180
H   24.8790   18.9520   17.8890
C   26.0900   20.0720   16.3750
H   25.2500   20.2200   15.7020
C   27.3720   20.5830   16.0780
H   27.4500   21.3560   15.3190
C   18.5500   10.0140   11.4130
H   18.7830   9.7570   12.4530
H   19.3500   9.5800   10.8000
H   17.6150   9.5640   11.0570
C   18.6360   11.5680   11.2050
C   19.5130   12.2330   10.3370
H   20.2410   11.5850   9.8580
C   19.5720   13.6310   10.2560
H   20.3650   14.1740   9.7510
C   18.5680   14.3480   10.9390
H   18.6520   15.4260   10.8390
C   17.6480   13.7120   11.7250
H   17.1040   14.3100   12.4500
C   17.7060   12.3240   11.9490
H   17.2340   11.8230   12.7890
C   22.1020   25.4310   5.5970
H   21.4160   26.2880   5.5930
H   21.7860   24.8510   4.7220
H   23.1330   25.7650   5.4260
C   21.9980   24.6230   6.8970
C   21.0770   23.5600   6.9970
H   20.5490   23.2000   6.1180
C   20.8770   22.8840   8.2000
H   20.2320   22.0110   8.2230
C   21.4880   23.3510   9.3830
H   21.2750   22.8260   10.3090
C   22.4070   24.4640   9.3180
H   22.8440   24.9190   10.2020
C   22.7460   25.0220   8.0470
H   23.4980   25.8030   7.9750
C   19.3980   18.5079   21.3925
H   20.0771   18.4882   22.2348
H   18.8540   19.4372   21.4604
H   19.9936   18.5495   20.4941
C   18.5034   17.2687   21.4113
C   17.1255   17.2993   21.2016
H   16.6610   18.2632   21.1144
C   16.3963   16.1064   21.1625
H   15.3377   16.1817   21.0263
C   17.0362   14.8840   21.3011
H   16.4192   13.9887   21.2598
C   18.3937   14.8454   21.5492
H   18.8675   13.8728   21.6336
C   19.1289   16.0191   21.6095
H   20.1784   15.9848   21.8415
562
Frame 6
C   16.4466   15.4296   16.9766
C   18.5082   16.6041   16.6863
C   16.1600   17.9273   17.5564
C   19.1903   16.0781   17.9335
C   19.4543   16.9373   15.5870
N   17.4644   15.6981   16.2035
N   15.3139   14.9928   16.4270
O   15.5044   18.1440   16.2482
H   14.8672   17.4310   16.2042
H   17.1949   15.8487   15.2418
H   16.5640   15.3104   18.0216
H   17.9737   17.4909   16.9154
H   14.5863   14.6123   17.0264
H   15.1661   15.1254   15.4483
H   16.8083   18.8375   17.7072
H   15.4331   17.8873   18.3902
H   19.9436   16.8068   18.2208
H   18.8886   17.1884   14.7079
H   19.6393   15.1140   17.8153
H   18.4854   16.0701   18.7500
H   20.0189   17.8125   15.8690
H   20.1350   16.1446   15.3362
C   31.0130   13.4690   20.5000
H   31.2490   12.6100   21.1410
H   31.6000   14.3580   20.7590
H   31.3090   13.1730   19.4860
C   29.5240   13.6930   20.5110
C   28.9490   14.9820   20.4600
H   29.6230   15.8190   20.3030
C   27.5460   15.1780   20.4020
H   27.1240   16.1710   20.2790
C   26.7510   14.0910   20.7820
H   25.6720   14.1250   20.8970
C   27.2930   12.7880   20.7300
H   26.5470   12.0120   20.8740
C   28.6890   12.5880   20.6520
H   29.0430   11.5650   20.7440
C   9.2210   14.9750   13.0480
H   9.9180   14.2170   12.6700
H   8.7250   15.4390   12.1860
H   8.5460   14.3880   13.6810
C   9.9500   16.0790   13.9260
C   11.1730   16.6700   13.5290
H   11.6950   16.2330   12.6830
C   11.7790   17.6500   14.3810
H   12.6890   18.1940   14.1470
C   11.0580   18.1190   15.4870
H   11.4490   19.0070   15.9740
C   9.8790   17.5550   15.8260
H   9.3990   17.9040   16.7360
C   9.3470   16.4720   15.1090
H   8.3400   16.1840   15.3940
C   13.1040   20.9490   22.1230
H   12.1100   21.0700   22.5720
H   13.3280   19.8760   22.1570
H   12.9300   21.4440   21.1600
C   14.1720   21.7290   22.9410
C   13.9780   23.0550   23.3640
H   12.9880   23.4780   23.2220
C   14.9570   23.7090   24.0980
H   14.8720   24.7370   24.4370
C   16.0910   23.0190   24.4910
H   16.8240   23.5570   25.0840
C   16.3390   21.7000   24.0260
H   17.2960   21.2060   24.1580
C   15.3480   21.0720   23.2660
H   15.4870   20.1110   22.7800
C   22.3270   16.0930   8.4030
H   22.3260   16.2600   9.4870
H   21.4310   15.6720   7.9300
H   22.4190   17.0690   7.9110
C   23.4930   15.2320   7.9250
C   24.6760   15.8080   7.3600
H   24.7170   16.8840   7.2220
C   25.8340   15.0550   7.0100
H   26.7290   15.6050   6.7360
C   25.7140   13.6410   7.1510
H   26.5440   12.9840   6.9070
C   24.5170   13.0840   7.6510
H   24.4140   12.0140   7.8020
C   23.4280   13.8620   7.9640
H   22.4620   13.4500   8.2420
C   13.3770   8.3710   11.1840
H   13.9280   8.9300   11.9500
H   12.7730   7.5980   11.6750
H   12.7470   9.0620   10.6100
C   14.2950   7.7300   10.0940
C   14.0090   6.4760   9.6240
H   13.0770   6.0180   9.9390
C   14.8900   5.7890   8.7340
H   14.6040   4.8470   8.2740
C   16.0940   6.4030   8.4280
H   16.8170   5.9830   7.7360
C   16.3240   7.7020   8.8800
H   17.2290   8.1990   8.5440
C   15.3900   8.3770   9.6670
H   15.4990   9.4410   9.8550
C   22.3720   27.5750   12.3440
H   22.6740   28.6260   12.2520
H   21.8660   27.2750   11.4180
H   23.3360   27.0640   12.4640
C   21.5860   27.1640   13.5380
C   20.6270   26.1270   13.4710
H   20.5230   25.5770   12.5400
C   19.8190   25.9080   14.6070
H   19.0410   25.1530   14.6740
C   19.8330   26.8130   15.6810
H   19.1800   26.6280   16.5280
C   20.7150   27.8320   15.6880
H   20.6750   28.5050   16.5390
C   21.6510   27.9300   14.6880
H   22.3640   28.7490   14.7160
C   26.3230   15.1720   24.4190
H   27.1730   15.7810   24.7530
H   26.9100   14.3730   23.9500
H   25.8350   14.6810   25.2700
C   25.2980   15.8310   23.5700
C   25.3310   17.2270   23.3880
H   26.0260   17.7850   24.0090
C   24.4240   17.8360   22.4700
H   24.3120   18.9080   22.3350
C   23.4800   16.9710   21.8510
H   22.7300   17.3880   21.1860
C   23.4350   15.6140   22.0990
H   22.6180   15.0160   21.7070
C   24.3990   15.0550   22.9540
H   24.2710   14.0400   23.3190
C   12.5310   21.3930   17.8850
H   13.2140   21.0900   17.0820
H   11.5950   21.6280   17.3640
H   12.3060   20.6590   18.6680
C   13.0320   22.5830   18.7360
C   12.2150   23.1990   19.6560
H   11.1450   23.0160   19.6540
C   12.8150   24.0790   20.5840
H   12.1470   24.6520   21.2210
C   14.2070   24.1490   20.7110
H   14.6570   24.8010   21.4530
C   15.0790   23.3670   19.9600
H   16.1550   23.3650   20.1040
C   14.4560   22.6230   18.9390
H   15.0290   21.9490   18.3100
C   14.8830   6.8570   21.3950
H   14.5830   5.8040   21.4680
H   14.1110   7.5640   21.0690
H   14.9540   7.1620   22.4460
C   16.2700   6.9730   20.7720
C   17.3370   6.4110   21.5060
H   17.0910   5.8820   22.4210
C   18.6390   6.6200   20.9560
H   19.4860   6.2070   21.4970
C   18.8360   7.1840   19.6870
H   19.8020   7.2850   19.2010
C   17.7740   7.7920   19.0310
H   17.9360   8.3530   18.1150
C   16.4720   7.7040   19.5680
H   15.6290   8.1750   19.0710
C   14.8160   10.5740   15.3720
H   14.3440   11.0040   14.4800
H   15.1400   11.3900   16.0290
H   13.9830   10.0440   15.8500
C   15.8760   9.5730   14.9300
C   15.5810   8.3740   14.2260
H   14.5360   8.2410   13.9630
C   16.5460   7.4790   13.7060
H   16.2100   6.6290   13.1200
C   17.8520   7.6230   14.2370
H   18.6540   6.9360   13.9850
C   18.1870   8.7030   14.9950
H   19.2350   8.8200   15.2580
C   17.2460   9.6850   15.4350
H   17.6780   10.4650   16.0550
C   8.0650   7.4040   17.5740
H   8.1270   8.0850   16.7160
H   7.5600   7.9240   18.3970
H   7.4880   6.4980   17.3480
C   9.4790   7.0660   18.0080
C   10.5440   7.9760   17.7650
H   10.3730   8.9450   17.3060
C   11.8290   7.6370   18.2640
H   12.7100   8.2510   18.1010
C   12.0090   6.4900   19.0190
H   13.0130   6.2290   19.3400
C   10.9610   5.6080   19.2070
H   11.1880   4.6980   19.7550
C   9.6610   5.8390   18.6640
H   8.8970   5.0800   18.8040
C   18.2400   9.3350   23.8980
H   18.4220   9.0030   24.9280
H   18.8890   10.1800   23.6390
H   18.3460   8.4310   23.2860
C   16.8430   9.7990   23.8620
C   16.4750   10.9760   23.2580
H   17.2340   11.5320   22.7170
C   15.1310   11.3650   23.2170
H   14.8330   12.3010   22.7540
C   14.1480   10.5800   23.8790
H   13.1240   10.9410   23.8510
C   14.5070   9.3760   24.4910
H   13.6960   8.7620   24.8720
C   15.8380   9.0020   24.5510
H   16.1540   8.1380   25.1280
C   10.9060   11.5230   15.8000
H   10.2660   12.1380   16.4450
H   11.8110   12.1010   15.5760
H   11.3030   10.7560   16.4760
C   10.1450   10.8230   14.6590
C   8.8800   11.1470   14.2680
H   8.3050   11.8430   14.8720
C   8.2310   10.3560   13.3000
H   7.1860   10.6060   13.1480
C   8.9080   9.2900   12.6040
H   8.3580   8.8160   11.7960
C   10.2410   9.0790   12.9680
H   10.7620   8.2900   12.4330
C   10.8540   9.7140   14.0870
H   11.8650   9.4940   14.4180
C   12.4900   20.4970   8.7300
H   11.7150   20.4740   7.9540
H   12.2270   19.9760   9.6590
H   13.3460   20.0150   8.2410
C   12.8650   21.9680   8.9270
C   12.1420   22.7970   9.8120
H   11.2610   22.4200   10.3220
C   12.3840   24.1720   9.8850
H   11.8920   24.7890   10.6310
C   13.4520   24.6990   9.1480
H   13.6750   25.7620   9.1740
C   14.2260   23.9500   8.2820
H   15.0110   24.4020   7.6830
C   13.8970   22.5400   8.1400
H   14.4070   21.9210   7.4080
C   25.2240   23.2580   12.7270
H   25.5120   24.3000   12.9180
H   24.9920   23.1420   11.6620
H   26.0960   22.6100   12.8790
C   24.1020   22.8110   13.7090
C   24.1040   23.2240   14.9730
H   24.9610   23.8230   15.2650
C   23.1140   22.7650   15.8740
H   23.0750   23.1170   16.9010
C   22.0540   21.9550   15.3630
H   21.3500   21.5740   16.0970
C   21.9790   21.6570   14.0120
H   21.2210   20.9940   13.6040
C   22.9780   22.0850   13.1860
H   22.9530   21.7500   12.1530
C   15.9690   24.2190   11.3740
H   16.8540   24.6850   11.8250
H   15.3350   25.1120   11.4330
H   16.1270   23.9390   10.3250
C   15.4160   23.1270   12.1800
C   15.0320   21.8940   11.5900
H   15.1170   21.7510   10.5170
C   14.4730   20.9160   12.4130
H   14.1800   19.9440   12.0280
C   14.3810   21.0610   13.7930
H   14.0500   20.2450   14.4290
C   14.8220   22.2110   14.4320
H   14.6700   22.2620   15.5060
C   15.2630   23.2580   13.6150
H   15.6250   24.2030   14.0110
C   7.9820   23.6640   20.2210
H   7.6700   24.1780   19.3030
H   8.8810   24.2110   20.5300
H   7.2090   23.8760   20.9700
C   8.2150   22.1450   20.0450
C   8.9820   21.3660   20.9660
H   9.4280   21.8310   21.8400
C   9.3410   20.0110   20.7260
H   9.9200   19.4750   21.4720
C   8.8720   19.3730   19.6080
H   9.2540   18.3910   19.3440
C   8.1140   20.1330   18.6130
H   7.8040   19.7260   17.6550
C   7.8120   21.5360   18.8670
H   7.2650   22.1110   18.1260
C   16.6400   17.6150   24.7630
H   16.2880   18.1500   25.6540
H   16.0580   17.8970   23.8770
H   17.6690   17.9180   24.5330
C   16.4320   16.1690   24.9640
C   17.4700   15.2850   24.7630
H   18.3820   15.6110   24.2700
C   17.2870   13.9420   25.1470
H   18.0430   13.2190   24.8550
C   16.0500   13.5080   25.7080
H   15.9690   12.4530   25.9550
C   15.0160   14.4460   25.9100
H   14.0840   14.0850   26.3350
C   15.2290   15.7710   25.5010
H   14.4230   16.4770   25.6750
C   9.8970   25.7470   14.8340
H   9.2600   26.2100   14.0700
H   10.9030   26.1810   14.8020
H   9.4340   25.9280   15.8120
C   10.1050   24.2760   14.5480
C   9.4830   23.4020   15.4380
H   8.7910   23.7840   16.1820
C   9.7180   22.0020   15.3700
H   9.2880   21.4530   16.2030
C   10.5190   21.4980   14.3610
H   10.5880   20.4200   14.2480
C   11.0160   22.3430   13.3520
H   11.7280   21.9650   12.6240
C   10.8610   23.7380   13.4830
H   11.4610   24.3570   12.8230
C   21.4460   7.1060   12.4470
H   20.6860   6.3340   12.6150
H   22.2500   6.4780   12.0440
H   21.0510   7.7230   11.6300
C   21.6030   8.0210   13.6490
C   21.7540   7.6760   14.9780
H   21.7640   6.6430   15.3150
C   21.9350   8.6230   16.0550
H   22.0640   8.3230   17.0910
C   22.1380   9.9860   15.6920
H   22.3350   10.8010   16.3830
C   22.0340   10.3260   14.3310
H   22.1590   11.3300   13.9360
C   21.6750   9.3700   13.3830
H   21.5590   9.7230   12.3630
C   22.9880   17.6800   12.2810
H   22.9180   16.8740   13.0210
H   23.7730   18.3620   12.6300
H   23.2480   17.2650   11.3000
C   21.6550   18.3490   12.1870
C   20.6220   18.0880   13.0570
H   20.7970   17.3350   13.8210
C   19.4340   18.7990   13.0450
H   18.7570   18.7330   13.8920
C   19.1760   19.7760   12.0220
H   18.2920   20.4060   12.0440
C   20.1570   19.9410   11.0580
H   19.9550   20.5700   10.1960
C   21.4170   19.2580   11.1840
H   22.2080   19.5330   10.4920
C   11.5670   16.9320   9.5720
H   12.2140   17.1360   8.7100
H   11.2820   15.8920   9.3700
H   12.1900   17.0270   10.4710
C   10.3380   17.8120   9.7330
C   9.4070   17.9080   8.6630
H   9.2760   17.1270   7.9200
C   8.4820   18.9870   8.6270
H   7.7350   19.0310   7.8400
C   8.4710   19.9600   9.6310
H   7.7480   20.7700   9.6540
C   9.3540   19.8350   10.7390
H   9.3650   20.4890   11.6050
C   10.1940   18.7130   10.7970
H   10.9300   18.6810   11.5950
C   12.7180   16.6050   23.0210
H   12.8130   16.8270   21.9510
H   13.7280   16.3210   23.3450
H   12.5000   17.5290   23.5710
C   11.8010   15.4010   23.1530
C   10.6200   15.4240   22.3970
H   10.4520   16.2470   21.7090
C   9.7560   14.2780   22.4410
H   8.8510   14.2660   21.8410
C   10.0090   13.2210   23.3230
H   9.3460   12.3640   23.2430
C   11.1890   13.1930   24.0600
H   11.5060   12.4190   24.7520
C   12.1210   14.2630   23.8890
H   13.0670   14.1720   24.4150
C   18.8420   17.6350   27.7520
H   18.1240   17.0240   28.3120
H   18.2540   18.2490   27.0590
H   19.3830   18.2440   28.4880
C   19.7860   16.8740   26.9420
C   20.9230   17.5130   26.3330
H   21.0460   18.5910   26.2770
C   21.9600   16.7460   25.6900
H   22.7590   17.2130   25.1220
C   21.8200   15.3540   25.7340
H   22.5620   14.8350   25.1340
C   20.7780   14.7860   26.4240
H   20.6730   13.7070   26.4980
C   19.7540   15.4920   26.9560
H   18.9700   15.0490   27.5620
C   25.2430   22.7500   18.9430
H   24.6510   23.3730   19.6240
H   24.6070   22.0920   18.3390
H   25.7690   23.4530   18.2840
C   26.2890   22.0890   19.8050
C   27.6530   22.5380   19.7650
H   27.8930   23.3990   19.1490
C   28.6720   21.9360   20.4790
H   29.6960   22.2960   20.4470
C   28.3120   20.9270   21.3620
H   29.1140   20.5670   22.0000
C   26.9480   20.4890   21.5060
H   26.7050   19.7450   22.2580
C   25.9360   21.0700   20.7010
H   24.8820   20.8350   20.8180
C   8.6660   14.0750   6.3660
H   9.5670   14.3180   5.7890
H   8.3130   15.1000   6.5330
H   8.0120   13.6260   5.6080
C   8.9520   13.1750   7.5700
C   9.2520   13.8780   8.7390
H   9.0790   14.9490   8.7860
C   9.7250   13.1670   9.8870
H   10.1540   13.6370   10.7670
C   9.7320   11.7360   9.9480
H   9.9080   11.1180   10.8230
C   9.4160   11.0830   8.7270
H   9.5500   10.0100   8.6190
C   9.0570   11.7790   7.5340
H   8.9280   11.2640   6.5870
C   8.9500   11.1620   20.3870
H   9.6770   10.3770   20.1430
H   8.1570   10.6850   20.9760
H   9.5010   11.9120   20.9680
C   8.2120   11.8340   19.2710
C   8.5700   13.1620   18.8940
H   9.3950   13.6460   19.4100
C   7.8880   13.7660   17.8650
H   8.0520   14.7920   17.5510
C   6.8730   13.0430   17.1600
H   6.3940   13.5060   16.3020
C   6.6020   11.7170   17.5240
H   5.9300   11.0650   16.9750
C   7.2670   11.0920   18.5130
H   6.9380   10.1170   18.8610
C   26.4570   12.4450   13.5550
H   27.1280   12.9590   14.2540
H   26.8800   12.5280   12.5470
H   26.3480   11.3870   13.8240
C   25.0650   13.0040   13.5080
C   24.3200   13.0670   12.3170
H   24.6950   12.4320   11.5200
C   23.1080   13.7070   12.1810
H   22.5800   13.8270   11.2400
C   22.5170   14.2950   13.4070
H   21.5280   14.7440   13.3850
C   23.1780   14.0720   14.6700
H   22.7680   14.3710   15.6300
C   24.4820   13.4620   14.6840
H   25.0670   13.3620   15.5930
C   17.5710   21.2480   6.8890
H   18.6510   21.3700   6.7390
H   17.1030   22.0750   7.4370
H   17.0720   21.3190   5.9150
C   17.2290   19.8820   7.3990
C   18.1980   19.0800   7.9940
H   19.2050   19.4850   8.0050
C   17.9790   17.8310   8.6610
H   18.7330   17.2870   9.2230
C   16.6260   17.3740   8.6220
H   16.3320   16.4460   9.1030
C   15.6520   18.0670   7.8430
H   14.6170   17.7430   7.7980
C   15.9210   19.3400   7.2650
H   15.0810   19.8910   6.8510
C   21.3760   21.0260   23.7240
H   20.4220   20.4870   23.7730
H   21.7020   21.4030   24.7020
H   22.0140   20.1900   23.4130
C   21.3200   22.2390   22.7430
C   21.4220   21.9180   21.3730
H   21.5590   20.8770   21.0950
C   21.1640   22.8820   20.4680
H   21.2420   22.6310   19.4150
C   20.8980   24.2170   20.9180
H   20.7360   25.0150   20.1990
C   20.8810   24.5300   22.2790
H   20.7390   25.5510   22.6190
C   21.0600   23.5250   23.2330
H   21.0710   23.7440   24.2960
C   13.4980   11.9160   9.8290
H   12.9760   11.0440   9.4180
H   12.8920   12.3220   10.6480
H   14.4620   11.6150   10.2580
C   13.7160   13.0320   8.7680
C   15.0200   13.6160   8.6070
H   15.8970   13.3430   9.1870
C   15.2000   14.6260   7.6390
H   16.2250   14.9300   7.4480
C   14.1260   14.9630   6.7830
H   14.1730   15.7170   6.0030
C   12.8520   14.5840   7.1130
H   12.0640   15.0130   6.5020
C   12.6470   13.5090   8.0450
H   11.7110   12.9710   8.1580
C   19.7440   10.5210   20.4450
H   19.1710   11.4550   20.4980
H   19.2620   9.7620   21.0740
H   19.7140   10.3290   19.3650
C   21.1430   10.7570   21.0140
C   22.2290   10.3180   20.2850
H   22.1500   9.9270   19.2750
C   23.5250   10.5680   20.8390
H   24.4000   10.2310   20.2920
C   23.7170   11.1630   22.0780
H   24.7300   11.2050   22.4680
C   22.5380   11.3930   22.8610
H   22.7390   11.7980   23.8480
C   21.2670   11.2310   22.2990
H   20.3950   11.6100   22.8240
C   29.8070   21.0370   16.6750
H   29.7320   22.0770   16.3350
H   30.3810   20.5460   15.8790
H   30.3680   20.9570   17.6140
C   28.4450   20.3010   16.9690
C   28.2260   19.5640   18.1860
H   29.0220   19.4550   18.9170
C   26.8940   19.1050   18.4470
H   26.6720   18.4880   19.3130
C   25.8510   19.3550   17.6180
H   24.8790   18.9520   17.8890
C   26.0900   20.0720   16.3750
H   25.2500   20.2200   15.7020
C   27.3720   20.5830   16.0780
H   27.4500   21.3560   15.3190
C   18.5500   10.0140   11.4130
H   18.7830   9.7570   12.4530
H   19.3500   9.5800   10.8000
H   17.6150   9.5640   11.0570
C   18.6360   11.5680   11.2050
C   19.5130   12.2330   10.3370
H   20.2410   11.5850   9.8580
C   19.5720   13.6310   10.2560
H   20.3650   14.1740   9.7510
C   18.5680   14.3480   10.9390
H   18.6520   15.4260   10.8390
C   17.6480   13.7120   11.7250
H   17.1040   14.3100   12.4500
C   17.7060   12.3240   11.9490
H   17.2340   11.8230   12.7890
C   22.1020   25.4310   5.5970
H   21.4160   26.2880   5.5930
H   21.7860   24.8510   4.7220
H   23.1330   25.7650   5.4260
C   21.9980   24.6230   6.8970
C   21.0770   23.5600   6.9970
H   20.5490   23.2000   6.1180
C   20.8770   22.8840   8.2000
H   20.2320   22.0110   8.2230
C   21.4880   23.3510   9.3830
H   21.2750   22.8260   10.3090
C   22.4070   24.4640   9.3180
H   22.8440   24.9190   10.2020
C   22.7460   25.0220   8.0470
H   23.4980   25.8030   7.9750
C   19.3896   18.5074   21.4009
H   20.0982   18.4726   22.2384
H   18.8319   19.4112   21.4457
H   19.9970   18.5546   20.5014
C   18.5059   17.2650   21.4202
C   17.1287   17.2976   21.2142
H   16.6567   18.2613   21.1172
C   16.3970   16.1062   21.1600
H   15.3252   16.1841   21.0261
C   17.0344   14.8946   21.2855
H   16.4256   13.9808   21.2912
C   18.3862   14.8494   21.5396
H   18.8684   13.9005   21.6435
C   19.1353   16.0427   21.6108
H   20.1822   15.9639   21.8390
562
Frame 7
C   16.4476   15.4243   16.9731
C   18.5088   16.6051   16.6851
C   16.1450   17.9273   17.5597
C   19.1908   16.0754   17.9331
C   19.4564   16.9329   15.5880
N   17.4731   15.6963   16.2023
N   15.3337   14.9577   16.4328
O   15.5007   18.1405   16.2516
H   14.8501   17.4364   16.2023
H   17.1971   15.8505   15.2395
H   16.5637   15.3342   18.0331
H   17.9872   17.5064   16.9167
H   14.5806   14.6387   17.0331
H   15.1646   15.1391   15.4438
H   16.8001   18.8189   17.7153
H   15.4130   17.9026   18.3863
H   19.9478   16.8051   18.2237
H   18.8797   17.1747   14.7121
H   19.6434   15.1061   17.8121
H   18.4863   16.0625   18.7516
H   20.0181   17.8127   15.8699
H   20.1407   16.1298   15.3424
C   31.0130   13.4690   20.5000
H   31.2490   12.6100   21.1410
H   31.6000   14.3580   20.7590
H   31.3090   13.1730   19.4860
C   29.5240   13.6930   20.5110
C   28.9490   14.9820   20.4600
H   29.6230   15.8190   20.3030
C   27.5460   15.1780   20.4020
H   27.1240   16.1710   20.2790
C   26.7510   14.0910   20.7820
H   25.6720   14.1250   20.8970
C   27.2930   12.7880   20.7300
H   26.5470   12.0120   20.8740
C   28.6890   12.5880   20.6520
H   29.0430   11.5650   20.7440
C   9.2210   14.9750   13.0480
H   9.9180   14.2170   12.6700
H   8.7250   15.4390   12.1860
H   8.5460   14.3880   13.6810
C   9.9500   16.0790   13.9260
C   11.1730   16.6700   13.5290
H   11.6950   16.2330   12.6830
C   11.7790   17.6500   14.3810
H   12.6890   18.1940   14.1470
C   11.0580   18.1190   15.4870
H   11.4490   19.0070   15.9740
C   9.8790   17.5550   15.8260
H   9.3990   17.9040   16.7360
C   9.3470   16.4720   15.1090
H   8.3400   16.1840   15.3940
C   13.1040   20.9490   22.1230
H   12.1100   21.0700   22.5720
H   13.3280   19.8760   22.1570
H   12.9300   21.4440   21.1600
C   14.1720   21.7290   22.9410
C   13.9780   23.0550   23.3640
H   12.9880   23.4780   23.2220
C   14.9570   23.7090   24.0980
H   14.8720   24.7370   24.4370
C   16.0910   23.0190   24.4910
H   16.8240   23.5570   25.0840
C   16.3390   21.7000   24.0260
H   17.2960   21.2060   24.1580
C   15.3480   21.0720   23.2660
H   15.4870   20.1110   22.7800
C   22.3270   16.0930   8.4030
H   22.3260   16.2600   9.4870
H   21.4310   15.6720   7.9300
H   22.4190   17.0690   7.9110
C   23.4930   15.2320   7.9250
C   24.6760   15.8080   7.3600
H   24.7170   16.8840   7.2220
C   25.8340   15.0550   7.0100
H   26.7290   15.6050   6.7360
C   25.7140   13.6410   7.1510
H   26.5440   12.9840   6.9070
C   24.5170   13.0840   7.6510
H   24.4140   12.0140   7.8020
C   23.4280   13.8620   7.9640
H   22.4620   13.4500   8.2420
C   13.3770   8.3710   11.1840
H   13.9280   8.9300   11.9500
H   12.7730   7.5980   11.6750
H   12.7470   9.0620   10.6100
C   14.2950   7.7300   10.0940
C   14.0090   6.4760   9.6240
H   13.0770   6.0180   9.9390
C   14.8900   5.7890   8.7340
H   14.6040   4.8470   8.2740
C   16.0940   6.4030   8.4280
H   16.8170   5.9830   7.7360
C   16.3240   7.7020   8.8800
H   17.2290   8.1990   8.5440
C   15.3900   8.3770   9.6670
H   15.4990   9.4410   9.8550
C   22.3720   27.5750   12.3440
H   22.6740   28.6260   12.2520
H   21.8660   27.2750   11.4180
H   23.3360   27.0640   12.4640
C   21.5860   27.1640   13.5380
C   20.6270   26.1270   13.4710
H   20.5230   25.5770   12.5400
C   19.8190   25.9080   14.6070
H   19.0410   25.1530   14.6740
C   19.8330   26.8130   15.6810
H   19.1800   26.6280   16.5280
C   20.7150   27.8320   15.6880
H   20.6750   28.5050   16.5390
C   21.6510   27.9300   14.6880
H   22.3640   28.7490   14.7160
C   26.3230   15.1720   24.4190
H   27.1730   15.7810   24.7530
H   26.9100   14.3730   23.9500
H   25.8350   14.6810   25.2700
C   25.2980   15.8310   23.5700
C   25.3310   17.2270   23.3880
H   26.0260   17.7850   24.0090
C   24.4240   17.8360   22.4700
H   24.3120   18.9080   22.3350
C   23.4800   16.9710   21.8510
H   22.7300   17.3880   21.1860
C   23.4350   15.6140   22.0990
H   22.6180   15.0160   21.7070
C   24.3990   15.0550   22.9540
H   24.2710   14.0400   23.3190
C   12.5310   21.3930   17.8850
H   13.2140   21.0900   17.0820
H   11.5950   21.6280   17.3640
H   12.3060   20.6590   18.6680
C   13.0320   22.5830   18.7360
C   12.2150   23.1990   19.6560
H   11.1450   23.0160   19.6540
C   12.8150   24.0790   20.5840
H   12.1470   24.6520   21.2210
C   14.2070   24.1490   20.7110
H   14.6570   24.8010   21.4530
C   15.0790   23.3670   19.9600
H   16.1550   23.3650   20.1040
C   14.4560   22.6230   18.9390
H   15.0290   21.9490   18.3100
C   14.8830   6.8570   21.3950
H   14.5830   5.8040   21.4680
H   14.1110   7.5640   21.0690
H   14.9540   7.1620   22.4460
C   16.2700   6.9730   20.7720
C   17.3370   6.4110   21.5060
H   17.0910   5.8820   22.4210
C   18.6390   6.6200   20.9560
H   19.4860   6.2070   21.4970
C   18.8360   7.1840   19.6870
H   19.8020   7.2850   19.2010
C   17.7740   7.7920   19.0310
H   17.9360   8.3530   18.1150
C   16.4720   7.7040   19.5680
H   15.6290   8.1750   19.0710
C   14.8160   10.5740   15.3720
H   14.3440   11.0040   14.4800
H   15.1400   11.3900   16.0290
H   13.9830   10.0440   15.8500
C   15.8760   9.5730   14.9300
C   15.5810   8.3740   14.2260
H   14.5360   8.2410   13.9630
C   16.5460   7.4790   13.7060
H   16.2100   6.6290   13.1200
C   17.8520   7.6230   14.2370
H   18.6540   6.9360   13.9850
C   18.1870   8.7030   14.9950
H   19.2350   8.8200   15.2580
C   17.2460   9.6850   15.4350
H   17.6780   10.4650   16.0550
C   8.0650   7.4040   17.5740
H   8.1270   8.0850   16.7160
H   7.5600   7.9240   18.3970
H   7.4880   6.4980   17.3480
C   9.4790   7.0660   18.0080
C   10.5440   7.9760   17.7650
H   10.3730   8.9450   17.3060
C   11.8290   7.6370   18.2640
H   12.7100   8.2510   18.1010
C   12.0090   6.4900   19.0190
H   13.0130   6.2290   19.3400
C   10.9610   5.6080   19.2070
H   11.1880   4.6980   19.7550
C   9.6610   5.8390   18.6640
H   8.8970   5.0800   18.8040
C   18.2400   9.3350   23.8980
H   18.4220   9.0030   24.9280
H   18.8890   10.1800   23.6390
H   18.3460   8.4310   23.2860
C   16.8430   9.7990   23.8620
C   16.4750   10.9760   23.2580
H   17.2340   11.5320   22.7170
C   15.1310   11.3650   23.2170
H   14.8330   12.3010   22.7540
C   14.1480   10.5800   23.8790
H   13.1240   10.9410   23.8510
C   14.5070   9.3760   24.4910
H   13.6960   8.7620   24.8720
C   15.8380   9.0020   24.5510
H   16.1540   8.1380   25.1280
C   10.9060   11.5230   15.8000
H   10.2660   12.1380   16.4450
H   11.8110   12.1010   15.5760
H   11.3030   10.7560   16.4760
C   10.1450   10.8230   14.6590
C   8.8800   11.1470   14.2680
H   8.3050   11.8430   14.8720
C   8.2310   10.3560   13.3000
H   7.1860   10.6060   13.1480
C   8.9080   9.2900   12.6040
H   8.3580   8.8160   11.7960
C   10.2410   9.0790   12.9680
H   10.7620   8.2900   12.4330
C   10.8540   9.7140   14.0870
H   11.8650   9.4940   14.4180
C   12.4900   20.4970   8.7300
H   11.7150   20.4740   7.9540
H   12.2270   19.9760   9.6590
H   13.3460   20.0150   8.2410
C   12.8650   21.9680   8.9270
C   12.1420   22.7970   9.8120
H   11.2610   22.4200   10.3220
C   12.3840   24.1720   9.8850
H   11.8920   24.7890   10.6310
C   13.4520   24.6990   9.1480
H   13.6750   25.7620   9.1740
C   14.2260   23.9500   8.2820
H   15.0110   24.4020   7.6830
C   13.8970   22.5400   8.1400
H   14.4070   21.9210   7.4080
C   25.2240   23.2580   12.7270
H   25.5120   24.3000   12.9180
H   24.9920   23.1420   11.6620
H   26.0960   22.6100   12.8790
C   24.1020   22.8110   13.7090
C   24.1040   23.2240   14.9730
H   24.9610   23.8230   15.2650
C   23.1140   22.7650   15.8740
H   23.0750   23.1170   16.9010
C   22.0540   21.9550   15.3630
H   21.3500   21.5740   16.0970
C   21.9790   21.6570   14.0120
H   21.2210   20.9940   13.6040
C   22.9780   22.0850   13.1860
H   22.9530   21.7500   12.1530
C   15.9690   24.2190   11.3740
H   16.8540   24.6850   11.8250
H   15.3350   25.1120   11.4330
H   16.1270   23.9390   10.3250
C   15.4160   23.1270   12.1800
C   15.0320   21.8940   11.5900
H   15.1170   21.7510   10.5170
C   14.4730   20.9160   12.4130
H   14.1800   19.9440   12.0280
C   14.3810   21.0610   13.7930
H   14.0500   20.2450   14.4290
C   14.8220   22.2110   14.4320
H   14.6700   22.2620   15.5060
C   15.2630   23.2580   13.6150
H   15.6250   24.2030   14.0110
C   7.9820   23.6640   20.2210
H   7.6700   24.1780   19.3030
H   8.8810   24.2110   20.5300
H   7.2090   23.8760   20.9700
C   8.2150   22.1450   20.0450
C   8.9820   21.3660   20.9660
H   9.4280   21.8310   21.8400
C   9.3410   20.0110   20.7260
H   9.9200   19.4750   21.4720
C   8.8720   19.3730   19.6080
H   9.2540   18.3910   19.3440
C   8.1140   20.1330   18.6130
H   7.8040   19.7260   17.6550
C   7.8120   21.5360   18.8670
H   7.2650   22.1110   18.1260
C   16.6400   17.6150   24.7630
H   16.2880   18.1500   25.6540
H   16.0580   17.8970   23.8770
H   17.6690   17.9180   24.5330
C   16.4320   16.1690   24.9640
C   17.4700   15.2850   24.7630
H   18.3820   15.6110   24.2700
C   17.2870   13.9420   25.1470
H   18.0430   13.2190   24.8550
C   16.0500   13.5080   25.7080
H   15.9690   12.4530   25.9550
C   15.0160   14.4460   25.9100
H   14.0840   14.0850   26.3350
C   15.2290   15.7710   25.5010
H   14.4230   16.4770   25.6750
C   9.8970   25.7470   14.8340
H   9.2600   26.2100   14.0700
H   10.9030   26.1810   14.8020
H   9.4340   25.9280   15.8120
C   10.1050   24.2760   14.5480
C   9.4830   23.4020   15.4380
H   8.7910   23.7840   16.1820
C   9.7180   22.0020   15.3700
H   9.2880   21.4530   16.2030
C   10.5190   21.4980   14.3610
H   10.5880   20.4200   14.2480
C   11.0160   22.3430   13.3520
H   11.7280   21.9650   12.6240
C   10.8610   23.7380   13.4830
H   11.4610   24.3570   12.8230
C   21.4460   7.1060   12.4470
H   20.6860   6.3340   12.6150
H   22.2500   6.4780   12.0440
H   21.0510   7.7230   11.6300
C   21.6030   8.0210   13.6490
C   21.7540   7.6760   14.9780
H   21.7640   6.6430   15.3150
C   21.9350   8.6230   16.0550
H   22.0640   8.3230   17.0910
C   22.1380   9.9860   15.6920
H   22.3350   10.8010   16.3830
C   22.0340   10.3260   14.3310
H   22.1590   11.3300   13.9360
C   21.6750   9.3700   13.3830
H   21.5590   9.7230   12.3630
C   22.9880   17.6800   12.2810
H   22.9180   16.8740   13.0210
H   23.7730   18.3620   12.6300
H   23.2480   17.2650   11.3000
C   21.6550   18.3490   12.1870
C   20.6220   18.0880   13.0570
H   20.7970   17.3350   13.8210
C   19.4340   18.7990   13.0450
H   18.7570   18.7330   13.8920
C   19.1760   19.7760   12.0220
H   18.2920   20.4060   12.0440
C   20.1570   19.9410   11.0580
H   19.9550   20.5700   10.1960
C   21.4170   19.2580   11.1840
H   22.2080   19.5330   10.4920
C   11.5670   16.9320   9.5720
H   12.2140   17.1360   8.7100
H   11.2820   15.8920   9.3700
H   12.1900   17.0270   10.4710
C   10.3380   17.8120   9.7330
C   9.4070   17.9080   8.6630
H   9.2760   17.1270   7.9200
C   8.4820   18.9870   8.6270
H   7.7350   19.0310   7.8400
C   8.4710   19.9600   9.6310
H   7.7480   20.7700   9.6540
C   9.3540   19.8350   10.7390
H   9.3650   20.4890   11.6050
C   10.1940   18.7130   10.7970
H   10.9300   18.6810   11.5950
C   12.7180   16.6050   23.0210
H   12.8130   16.8270   21.9510
H   13.7280   16.3210   23.3450
H   12.5000   17.5290   23.5710
C   11.8010   15.4010   23.1530
C   10.6200   15.4240   22.3970
H   10.4520   16.2470   21.7090
C   9.7560   14.2780   22.4410
H   8.8510   14.2660   21.8410
C   10.0090   13.2210   23.3230
H   9.3460   12.3640   23.2430
C   11.1890   13.1930   24.0600
H   11.5060   12.4190   24.7520
C   12.1210   14.2630   23.8890
H   13.0670   14.1720   24.4150
C   18.8420   17.6350   27.7520
H   18.1240   17.0240   28.3120
H   18.2540   18.2490   27.0590
H   19.3830   18.2440   28.4880
C   19.7860   16.8740   26.9420
C   20.9230   17.5130   26.3330
H   21.0460   18.5910   26.2770
C   21.9600   16.7460   25.6900
H   22.7590   17.2130   25.1220
C   21.8200   15.3540   25.7340
H   22.5620   14.8350   25.1340
C   20.7780   14.7860   26.4240
H   20.6730   13.7070   26.4980
C   19.7540   15.4920   26.9560
H   18.9700   15.0490   27.5620
C   25.2430   22.7500   18.9430
H   24.6510   23.3730   19.6240
H   24.6070   22.0920   18.3390
H   25.7690   23.4530   18.2840
C   26.2890   22.0890   19.8050
C   27.6530   22.5380   19.7650
H   27.8930   23.3990   19.1490
C   28.6720   21.9360   20.4790
H   29.6960   22.2960   20.4470
C   28.3120   20.9270   21.3620
H   29.1140   20.5670   22.0000
C   26.9480   20.4890   21.5060
H   26.7050   19.7450   22.2580
C   25.9360   21.0700   20.7010
H   24.8820   20.8350   20.8180
C   8.6660   14.0750   6.3660
H   9.5670   14.3180   5.7890
H   8.3130   15.1000   6.5330
H   8.0120   13.6260   5.6080
C   8.9520   13.1750   7.5700
C   9.2520   13.8780   8.7390
H   9.0790   14.9490   8.7860
C   9.7250   13.1670   9.8870
H   10.1540   13.6370   10.7670
C   9.7320   11.7360   9.9480
H   9.9080   11.1180   10.8230
C   9.4160   11.0830   8.7270
H   9.5500   10.0100   8.6190
C   9.0570   11.7790   7.5340
H   8.9280   11.2640   6.5870
C   8.9500   11.1620   20.3870
H   9.6770   10.3770   20.1430
H   8.1570   10.6850   20.9760
H   9.5010   11.9120   20.9680
C   8.2120   11.8340   19.2710
C   8.5700   13.1620   18.8940
H   9.3950   13.6460   19.4100
C   7.8880   13.7660   17.8650
H   8.0520   14.7920   17.5510
C   6.8730   13.0430   17.1600
H   6.3940   13.5060   16.3020
C   6.6020   11.7170   17.5240
H   5.9300   11.0650   16.9750
C   7.2670   11.0920   18.5130
H   6.9380   10.1170   18.8610
C   26.4570   12.4450   13.5550
H   27.1280   12.9590   14.2540
H   26.8800   12.5280   12.5470
H   26.3480   11.3870   13.8240
C   25.0650   13.0040   13.5080
C   24.3200   13.0670   12.3170
H   24.6950   12.4320   11.5200
C   23.1080   13.7070   12.1810
H   22.5800   13.8270   11.2400
C   22.5170   14.2950   13.4070
H   21.5280   14.7440   13.3850
C   23.1780   14.0720   14.6700
H   22.7680   14.3710   15.6300
C   24.4820   13.4620   14.6840
H   25.0670   13.3620   15.5930
C   17.5710   21.2480   6.8890
H   18.6510   21.3700   6.7390
H   17.1030   22.0750   7.4370
H   17.0720   21.3190   5.9150
C   17.2290   19.8820   7.3990
C   18.1980   19.0800   7.9940
H   19.2050   19.4850   8.0050
C   17.9790   17.8310   8.6610
H   18.7330   17.2870   9.2230
C   16.6260   17.3740   8.6220
H   16.3320   16.4460   9.1030
C   15.6520   18.0670   7.8430
H   14.6170   17.7430   7.7980
C   15.9210   19.3400   7.2650
H   15.0810   19.8910   6.8510
C   21.3760   21.0260   23.7240
H   20.4220   20.4870   23.7730
H   21.7020   21.4030   24.7020
H   22.0140   20.1900   23.4130
C   21.3200   22.2390   22.7430
C   21.4220   21.9180   21.3730
H   21.5590   20.8770   21.0950
C   21.1640   22.8820   20.4680
H   21.2420   22.6310   19.4150
C   20.8980   24.2170   20.9180
H   20.7360   25.0150   20.1990
C   20.8810   24.5300   22.2790
H   20.7390   25.5510   22.6190
C   21.0600   23.5250   23.2330
H   21.0710   23.7440   24.2960
C   13.4980   11.9160   9.8290
H   12.9760   11.0440   9.4180
H   12.8920   12.3220   10.6480
H   14.4620   11.6150   10.2580
C   13.7160   13.0320   8.7680
C   15.0200   13.6160   8.6070
H   15.8970   13.3430   9.1870
C   15.2000   14.6260   7.6390
H   16.2250   14.9300   7.4480
C   14.1260   14.9630   6.7830
H   14.1730   15.7170   6.0030
C   12.8520   14.5840   7.1130
H   12.0640   15.0130   6.5020
C   12.6470   13.5090   8.0450
H   11.7110   12.9710   8.1580
C   19.7440   10.5210   20.4450
H   19.1710   11.4550   20.4980
H   19.2620   9.7620   21.0740
H   19.7140   10.3290   19.3650
C   21.1430   10.7570   21.0140
C   22.2290   10.3180   20.2850
H   22.1500   9.9270   19.2750
C   23.5250   10.5680   20.8390
H   24.4000   10.2310   20.2920
C   23.7170   11.1630   22.0780
H   24.7300   11.2050   22.4680
C   22.5380   11.3930   22.8610
H   22.7390   11.7980   23.8480
C   21.2670   11.2310   22.2990
H   20.3950   11.6100   22.8240
C   29.8070   21.0370   16.6750
H   29.7320   22.0770   16.3350
H   30.3810   20.5460   15.8790
H   30.3680   20.9570   17.6140
C   28.4450   20.3010   16.9690
C   28.2260   19.5640   18.1860
H   29.0220   19.4550   18.9170
C   26.8940   19.1050   18.4470
H   26.6720   18.4880   19.3130
C   25.8510   19.3550   17.6180
H   24.8790   18.9520   17.8890
C   26.0900   20.0720   16.3750
H   25.2500   20.2200   15.7020
C   27.3720   20.5830   16.0780
H   27.4500   21.3560   15.3190
C   18.5500   10.0140   11.4130
H   18.7830   9.7570   12.4530
H   19.3500   9.5800   10.8000
H   17.6150   9.5640   11.0570
C   18.6360   11.5680   11.2050
C   19.5130   12.2330   10.3370
H   20.2410   11.5850   9.8580
C   19.5720   13.6310   10.2560
H   20.3650   14.1740   9.7510
C   18.5680   14.3480   10.9390
H   18.6520   15.4260   10.8390
C   17.6480   13.7120   11.7250
H   17.1040   14.3100   12.4500
C   17.7060   12.3240   11.9490
H   17.2340   11.8230   12.7890
C   22.1020   25.4310   5.5970
H   21.4160   26.2880   5.5930
H   21.7860   24.8510   4.7220
H   23.1330   25.7650   5.4260
C   21.9980   24.6230   6.8970
C   21.0770   23.5600   6.9970
H   20.5490   23.2000   6.1180
C   20.8770   22.8840   8.2000
H   20.2320   22.0110   8.2230
C   21.4880   23.3510   9.3830
H   21.2750   22.8260   10.3090
C   22.4070   24.4640   9.3180
H   22.8440   24.9190   10.2020
C   22.7460   25.0220   8.0470
H   23.4980   25.8030   7.9750
C   19.3902   18.5011   21.4058
H   20.1043   18.4668   22.2370
H   18.8180   19.4049   21.4408
H   19.9967   18.5560   20.5067
C   18.5127   17.2655   21.4226
C   17.1341   17.2966   21.2220
H   16.6520   18.2594   21.1200
C   16.3904   16.1181   21.1548
H   15.3217   16.1832   21.0258
C   17.0280   14.8959   21.2824
H   16.4326   13.9778   21.3076
C   18.3855   14.8582   21.5322
H   18.8738   13.9099   21.6501
C   19.1336   16.0383   21.6133
H   20.1839   15.9570   21.8370
562
Frame 8
C   16.4461   15.4183   16.9754
C   18.5148   16.6101   16.6846
C   16.1288   17.9308   17.5554
C   19.1894   16.0746   17.9337
C   19.4605   16.9285   15.5837
N   17.4799   15.6872   16.2022
N   15.3417   14.9368   16.4324
O   15.4946   18.1355   16.2611
H   14.8345   17.4459   16.2019
H   17.2051   15.8541   15.2355
H   16.5654   15.3516   18.0440
H   17.9925   17.5185   16.9260
H   14.5788   14.6590   17.0301
H   15.1614   15.1420   15.4557
H   16.7931   18.8027   17.7250
H   15.3962   17.9180   18.3790
H   19.9538   16.8032   18.2258
H   18.8721   17.1645   14.7093
H   19.6455   15.1013   17.8086
H   18.4866   16.0531   18.7554
H   20.0201   17.8146   15.8707
H   20.1489   16.1144   15.3477
C   31.0130   13.4690   20.5000
H   31.2490   12.6100   21.1410
H   31.6000   14.3580   20.7590
H   31.3090   13.1730   19.4860
C   29.5240   13.6930   20.5110
C   28.9490   14.9820   20.4600
H   29.6230   15.8190   20.3030
C   27.5460   15.1780   20.4020
H   27.1240   16.1710   20.2790
C   26.7510   14.0910   20.7820
H   25.6720   14.1250   20.8970
C   27.2930   12.7880   20.7300
H   26.5470   12.0120   20.8740
C   28.6890   12.5880   20.6520
H   29.0430   11.5650   20.7440
C   9.2210   14.9750   13.0480
H   9.9180   14.2170   12.6700
H   8.7250   15.4390   12.1860
H   8.5460   14.3880   13.6810
C   9.9500   16.0790   13.9260
C   11.1730   16.6700   13.5290
H   11.6950   16.2330   12.6830
C   11.7790   17.6500   14.3810
H   12.6890   18.1940   14.1470
C   11.0580   18.1190   15.4870
H   11.4490   19.0070   15.9740
C   9.8790   17.5550   15.8260
H   9.3990   17.9040   16.7360
C   9.3470   16.4720   15.1090
H   8.3400   16.1840   15.3940
C   13.1040   20.9490   22.1230
H   12.1100   21.0700   22.5720
H   13.3280   19.8760   22.1570
H   12.9300   21.4440   21.1600
C   14.1720   21.7290   22.9410
C   13.9780   23.0550   23.3640
H   12.9880   23.4780   23.2220
C   14.9570   23.7090   24.0980
H   14.8720   24.7370   24.4370
C   16.0910   23.0190   24.4910
H   16.8240   23.5570   25.0840
C   16.3390   21.7000   24.0260
H   17.2960   21.2060   24.1580
C   15.3480   21.0720   23.2660
H   15.4870   20.1110   22.7800
C   22.3270   16.0930   8.4030
H   22.3260   16.2600   9.4870
H   21.4310   15.6720   7.9300
H   22.4190   17.0690   7.9110
C   23.4930   15.2320   7.9250
C   24.6760   15.8080   7.3600
H   24.7170   16.8840   7.2220
C   25.8340   15.0550   7.0100
H   26.7290   15.6050   6.7360
C   25.7140   13.6410   7.1510
H   26.5440   12.9840   6.9070
C   24.5170   13.0840   7.6510
H   24.4140   12.0140   7.8020
C   23.4280   13.8620   7.9640
H   22.4620   13.4500   8.2420
C   13.3770   8.3710   11.1840
H   13.9280   8.9300   11.9500
H   12.7730   7.5980   11.6750
H   12.7470   9.0620   10.6100
C   14.2950   7.7300   10.0940
C   14.0090   6.4760   9.6240
H   13.0770   6.0180   9.9390
C   14.8900   5.7890   8.7340
H   14.6040   4.8470   8.2740
C   16.0940   6.4030   8.4280
H   16.8170   5.9830   7.7360
C   16.3240   7.7020   8.8800
H   17.2290   8.1990   8.5440
C   15.3900   8.3770   9.6670
H   15.4990   9.4410   9.8550
C   22.3720   27.5750   12.3440
H   22.6740   28.6260   12.2520
H   21.8660   27.2750   11.4180
H   23.3360   27.0640   12.4640
C   21.5860   27.1640   13.5380
C   20.6270   26.1270   13.4710
H   20.5230   25.5770   12.5400
C   19.8190   25.9080   14.6070
H   19.0410   25.1530   14.6740
C   19.8330   26.8130   15.6810
H   19.1800   26.6280   16.5280
C   20.7150   27.8320   15.6880
H   20.6750   28.5050   16.5390
C   21.6510   27.9300   14.6880
H   22.3640   28.7490   14.7160
C   26.3230   15.1720   24.4190
H   27.1730   15.7810   24.7530
H   26.9100   14.3730   23.9500
H   25.8350   14.6810   25.2700
C   25.2980   15.8310   23.5700
C   25.3310   17.2270   23.3880
H   26.0260   17.7850   24.0090
C   24.4240   17.8360   22.4700
H   24.3120   18.9080   22.3350
C   23.4800   16.9710   21.8510
H   22.7300   17.3880   21.1860
C   23.4350   15.6140   22.0990
H   22.6180   15.0160   21.7070
C   24.3990   15.0550   22.9540
H   24.2710   14.0400   23.3190
C   12.5310   21.3930   17.8850
H   13.2140   21.0900   17.0820
H   11.5950   21.6280   17.3640
H   12.3060   20.6590   18.6680
C   13.0320   22.5830   18.7360
C   12.2150   23.1990   19.6560
H   11.1450   23.0160   19.6540
C   12.8150   24.0790   20.5840
H   12.1470   24.6520   21.2210
C   14.2070   24.1490   20.7110
H   14.6570   24.8010   21.4530
C   15.0790   23.3670   19.9600
H   16.1550   23.3650   20.1040
C   14.4560   22.6230   18.9390
H   15.0290   21.9490   18.3100
C   14.8830   6.8570   21.3950
H   14.5830   5.8040   21.4680
H   14.1110   7.5640   21.0690
H   14.9540   7.1620   22.4460
C   16.2700   6.9730   20.7720
C   17.3370   6.4110   21.5060
H   17.0910   5.8820   22.4210
C   18.6390   6.6200   20.9560
H   19.4860   6.2070   21.4970
C   18.8360   7.1840   19.6870
H   19.8020   7.2850   19.2010
C   17.7740   7.7920   19.0310
H   17.9360   8.3530   18.1150
C   16.4720   7.7040   19.5680
H   15.6290   8.1750   19.0710
C   14.8160   10.5740   15.3720
H   14.3440   11.0040   14.4800
H   15.1400   11.3900   16.0290
H   13.9830   10.0440   15.8500
C   15.8760   9.5730   14.9300
C   15.5810   8.3740   14.2260
H   14.5360   8.2410   13.9630
C   16.5460   7.4790   13.7060
H   16.2100   6.6290   13.1200
C   17.8520   7.6230   14.2370
H   18.6540   6.9360   13.9850
C   18.1870   8.7030   14.9950
H   19.2350   8.8200   15.2580
C   17.2460   9.6850   15.4350
H   17.6780   10.4650   16.0550
C   8.0650   7.4040   17.5740
H   8.1270   8.0850   16.7160
H   7.5600   7.9240   18.3970
H   7.4880   6.4980   17.3480
C   9.4790   7.0660   18.0080
C   10.5440   7.9760   17.7650
H   10.3730   8.9450   17.3060
C   11.8290   7.6370   18.2640
H   12.7100   8.2510   18.1010
C   12.0090   6.4900   19.0190
H   13.0130   6.2290   19.3400
C   10.9610   5.6080   19.2070
H   11.1880   4.6980   19.7550
C   9.6610   5.8390   18.6640
H   8.8970   5.0800   18.8040
C   18.2400   9.3350   23.8980
H   18.4220   9.0030   24.9280
H   18.8890   10.1800   23.6390
H   18.3460   8.4310   23.2860
C   16.8430   9.7990   23.8620
C   16.4750   10.9760   23.2580
H   17.2340   11.5320   22.7170
C   15.1310   11.3650   23.2170
H   14.8330   12.3010   22.7540
C   14.1480   10.5800   23.8790
H   13.1240   10.9410   23.8510
C   14.5070   9.3760   24.4910
H   13.6960   8.7620   24.8720
C   15.8380   9.0020   24.5510
H   16.1540   8.1380   25.1280
C   10.9060   11.5230   15.8000
H   10.2660   12.1380   16.4450
H   11.8110   12.1010   15.5760
H   11.3030   10.7560   16.4760
C   10.1450   10.8230   14.6590
C   8.8800   11.1470   14.2680
H   8.3050   11.8430   14.8720
C   8.2310   10.3560   13.3000
H   7.1860   10.6060   13.1480
C   8.9080   9.2900   12.6040
H   8.3580   8.8160   11.7960
C   10.2410   9.0790   12.9680
H   10.7620   8.2900   12.4330
C   10.8540   9.7140   14.0870
H   11.8650   9.4940   14.4180
C   12.4900   20.4970   8.7300
H   11.7150   20.4740   7.9540
H   12.2270   19.9760   9.6590
H   13.3460   20.0150   8.2410
C   12.8650   21.9680   8.9270
C   12.1420   22.7970   9.8120
H   11.2610   22.4200   10.3220
C   12.3840   24.1720   9.8850
H   11.8920   24.7890   10.6310
C   13.4520   24.6990   9.1480
H   13.6750   25.7620   9.1740
C   14.2260   23.9500   8.2820
H   15.0110   24.4020   7.6830
C   13.8970   22.5400   8.1400
H   14.4070   21.9210   7.4080
C   25.2240   23.2580   12.7270
H   25.5120   24.3000   12.9180
H   24.9920   23.1420   11.6620
H   26.0960   22.6100   12.8790
C   24.1020   22.8110   13.7090
C   24.1040   23.2240   14.9730
H   24.9610   23.8230   15.2650
C   23.1140   22.7650   15.8740
H   23.0750   23.1170   16.9010
C   22.0540   21.9550   15.3630
H   21.3500   21.5740   16.0970
C   21.9790   21.6570   14.0120
H   21.2210   20.9940   13.6040
C   22.9780   22.0850   13.1860
H   22.9530   21.7500   12.1530
C   15.9690   24.2190   11.3740
H   16.8540   24.6850   11.8250
H   15.3350   25.1120   11.4330
H   16.1270   23.9390   10.3250
C   15.4160   23.1270   12.1800
C   15.0320   21.8940   11.5900
H   15.1170   21.7510   10.5170
C   14.4730   20.9160   12.4130
H   14.1800   19.9440   12.0280
C   14.3810   21.0610   13.7930
H   14.0500   20.2450   14.4290
C   14.8220   22.2110   14.4320
H   14.6700   22.2620   15.5060
C   15.2630   23.2580   13.6150
H   15.6250   24.2030   14.0110
C   7.9820   23.6640   20.2210
H   7.6700   24.1780   19.3030
H   8.8810   24.2110   20.5300
H   7.2090   23.8760   20.9700
C   8.2150   22.1450   20.0450
C   8.9820   21.3660   20.9660
H   9.4280   21.8310   21.8400
C   9.3410   20.0110   20.7260
H   9.9200   19.4750   21.4720
C   8.8720   19.3730   19.6080
H   9.2540   18.3910   19.3440
C   8.1140   20.1330   18.6130
H   7.8040   19.7260   17.6550
C   7.8120   21.5360   18.8670
H   7.2650   22.1110   18.1260
C   16.6400   17.6150   24.7630
H   16.2880   18.1500   25.6540
H   16.0580   17.8970   23.8770
H   17.6690   17.9180   24.5330
C   16.4320   16.1690   24.9640
C   17.4700   15.2850   24.7630
H   18.3820   15.6110   24.2700
C   17.2870   13.9420   25.1470
H   18.0430   13.2190   24.8550
C   16.0500   13.5080   25.7080
H   15.9690   12.4530   25.9550
C   15.0160   14.4460   25.9100
H   14.0840   14.0850   26.3350
C   15.2290   15.7710   25.5010
H   14.4230   16.4770   25.6750
C   9.8970   25.7470   14.8340
H   9.2600   26.2100   14.0700
H   10.9030   26.1810   14.8020
H   9.4340   25.9280   15.8120
C   10.1050   24.2760   14.5480
C   9.4830   23.4020   15.4380
H   8.7910   23.7840   16.1820
C   9.7180   22.0020   15.3700
H   9.2880   21.4530   16.2030
C   10.5190   21.4980   14.3610
H   10.5880   20.4200   14.2480
C   11.0160   22.3430   13.3520
H   11.7280   21.9650   12.6240
C   10.8610   23.7380   13.4830
H   11.4610   24.3570   12.8230
C   21.4460   7.1060   12.4470
H   20.6860   6.3340   12.6150
H   22.2500   6.4780   12.0440
H   21.0510   7.7230   11.6300
C   21.6030   8.0210   13.6490
C   21.7540   7.6760   14.9780
H   21.7640   6.6430   15.3150
C   21.9350   8.6230   16.0550
H   22.0640   8.3230   17.0910
C   22.1380   9.9860   15.6920
H   22.3350   10.8010   16.3830
C   22.0340   10.3260   14.3310
H   22.1590   11.3300   13.9360
C   21.6750   9.3700   13.3830
H   21.5590   9.7230   12.3630
C   22.9880   17.6800   12.2810
H   22.9180   16.8740   13.0210
H   23.7730   18.3620   12.6300
H   23.2480   17.2650   11.3000
C   21.6550   18.3490   12.1870
C   20.6220   18.0880   13.0570
H   20.7970   17.3350   13.8210
C   19.4340   18.7990   13.0450
H   18.7570   18.7330   13.8920
C   19.1760   19.7760   12.0220
H   18.2920   20.4060   12.0440
C   20.1570   19.9410   11.0580
H   19.9550   20.5700   10.1960
C   21.4170   19.2580   11.1840
H   22.2080   19.5330   10.4920
C   11.5670   16.9320   9.5720
H   12.2140   17.1360   8.7100
H   11.2820   15.8920   9.3700
H   12.1900   17.0270   10.4710
C   10.3380   17.8120   9.7330
C   9.4070   17.9080   8.6630
H   9.2760   17.1270   7.9200
C   8.4820   18.9870   8.6270
H   7.7350   19.0310   7.8400
C   8.4710   19.9600   9.6310
H   7.7480   20.7700   9.6540
C   9.3540   19.8350   10.7390
H   9.3650   20.4890   11.6050
C   10.1940   18.7130   10.7970
H   10.9300   18.6810   11.5950
C   12.7180   16.6050   23.0210
H   12.8130   16.8270   21.9510
H   13.7280   16.3210   23.3450
H   12.5000   17.5290   23.5710
C   11.8010   15.4010   23.1530
C   10.6200   15.4240   22.3970
H   10.4520   16.2470   21.7090
C   9.7560   14.2780   22.4410
H   8.8510   14.2660   21.8410
C   10.0090   13.2210   23.3230
H   9.3460   12.3640   23.2430
C   11.1890   13.1930   24.0600
H   11.5060   12.4190   24.7520
C   12.1210   14.2630   23.8890
H   13.0670   14.1720   24.4150
C   18.8420   17.6350   27.7520
H   18.1240   17.0240   28.3120
H   18.2540   18.2490   27.0590
H   19.3830   18.2440   28.4880
C   19.7860   16.8740   26.9420
C   20.9230   17.5130   26.3330
H   21.0460   18.5910   26.2770
C   21.9600   16.7460   25.6900
H   22.7590   17.2130   25.1220
C   21.8200   15.3540   25.7340
H   22.5620   14.8350   25.1340
C   20.7780   14.7860   26.4240
H   20.6730   13.7070   26.4980
C   19.7540   15.4920   26.9560
H   18.9700   15.0490   27.5620
C   25.2430   22.7500   18.9430
H   24.6510   23.3730   19.6240
H   24.6070   22.0920   18.3390
H   25.7690   23.4530   18.2840
C   26.2890   22.0890   19.8050
C   27.6530   22.5380   19.7650
H   27.8930   23.3990   19.1490
C   28.6720   21.9360   20.4790
H   29.6960   22.2960   20.4470
C   28.3120   20.9270   21.3620
H   29.1140   20.5670   22.0000
C   26.9480   20.4890   21.5060
H   26.7050   19.7450   22.2580
C   25.9360   21.0700   20.7010
H   24.8820   20.8350   20.8180
C   8.6660   14.0750   6.3660
H   9.5670   14.3180   5.7890
H   8.3130   15.1000   6.5330
H   8.0120   13.6260   5.6080
C   8.9520   13.1750   7.5700
C   9.2520   13.8780   8.7390
H   9.0790   14.9490   8.7860
C   9.7250   13.1670   9.8870
H   10.1540   13.6370   10.7670
C   9.7320   11.7360   9.9480
H   9.9080   11.1180   10.8230
C   9.4160   11.0830   8.7270
H   9.5500   10.0100   8.6190
C   9.0570   11.7790   7.5340
H   8.9280   11.2640   6.5870
C   8.9500   11.1620   20.3870
H   9.6770   10.3770   20.1430
H   8.1570   10.6850   20.9760
H   9.5010   11.9120   20.9680
C   8.2120   11.8340   19.2710
C   8.5700   13.1620   18.8940
H   9.3950   13.6460   19.4100
C   7.8880   13.7660   17.8650
H   8.0520   14.7920   17.5510
C   6.8730   13.0430   17.1600
H   6.3940   13.5060   16.3020
C   6.6020   11.7170   17.5240
H   5.9300   11.0650   16.9750
C   7.2670   11.0920   18.5130
H   6.9380   10.1170   18.8610
C   26.4570   12.4450   13.5550
H   27.1280   12.9590   14.2540
H   26.8800   12.5280   12.5470
H   26.3480   11.3870   13.8240
C   25.0650   13.0040   13.5080
C   24.3200   13.0670   12.3170
H   24.6950   12.4320   11.5200
C   23.1080   13.7070   12.1810
H   22.5800   13.8270   11.2400
C   22.5170   14.2950   13.4070
H   21.5280   14.7440   13.3850
C   23.1780   14.0720   14.6700
H   22.7680   14.3710   15.6300
C   24.4820   13.4620   14.6840
H   25.0670   13.3620   15.5930
C   17.5710   21.2480   6.8890
H   18.6510   21.3700   6.7390
H   17.1030   22.0750   7.4370
H   17.0720   21.3190   5.9150
C   17.2290   19.8820   7.3990
C   18.1980   19.0800   7.9940
H   19.2050   19.4850   8.0050
C   17.9790   17.8310   8.6610
H   18.7330   17.2870   9.2230
C   16.6260   17.3740   8.6220
H   16.3320   16.4460   9.1030
C   15.6520   18.0670   7.8430
H   14.6170   17.7430   7.7980
C   15.9210   19.3400   7.2650
H   15.0810   19.8910   6.8510
C   21.3760   21.0260   23.7240
H   20.4220   20.4870   23.7730
H   21.7020   21.4030   24.7020
H   22.0140   20.1900   23.4130
C   21.3200   22.2390   22.7430
C   21.4220   21.9180   21.3730
H   21.5590   20.8770   21.0950
C   21.1640   22.8820   20.4680
H   21.2420   22.6310   19.4150
C   20.8980   24.2170   20.9180
H   20.7360   25.0150   20.1990
C   20.8810   24.5300   22.2790
H   20.7390   25.5510   22.6190
C   21.0600   23.5250   23.2330
H   21.0710   23.7440   24.2960
C   13.4980   11.9160   9.8290
H   12.9760   11.0440   9.4180
H   12.8920   12.3220   10.6480
H   14.4620   11.6150   10.2580
C   13.7160   13.0320   8.7680
C   15.0200   13.6160   8.6070
H   15.8970   13.3430   9.1870
C   15.2000   14.6260   7.6390
H   16.2250   14.9300   7.4480
C   14.1260   14.9630   6.7830
H   14.1730   15.7170   6.0030
C   12.8520   14.5840   7.1130
H   12.0640   15.0130   6.5020
C   12.6470   13.5090   8.0450
H   11.7110   12.9710   8.1580
C   19.7440   10.5210   20.4450
H   19.1710   11.4550   20.4980
H   19.2620   9.7620   21.0740
H   19.7140   10.3290   19.3650
C   21.1430   10.7570   21.0140
C   22.2290   10.3180   20.2850
H   22.1500   9.9270   19.2750
C   23.5250   10.5680   20.8390
H   24.4000   10.2310   20.2920
C   23.7170   11.1630   22.0780
H   24.7300   11.2050   22.4680
C   22.5380   11.3930   22.8610
H   22.7390   11.7980   23.8480
C   21.2670   11.2310   22.2990
H   20.3950   11.6100   22.8240
C   29.8070   21.0370   16.6750
H   29.7320   22.0770   16.3350
H   30.3810   20.5460   15.8790
H   30.3680   20.9570   17.6140
C   28.4450   20.3010   16.9690
C   28.2260   19.5640   18.1860
H   29.0220   19.4550   18.9170
C   26.8940   19.1050   18.4470
H   26.6720   18.4880   19.3130
C   25.8510   19.3550   17.6180
H   24.8790   18.9520   17.8890
C   26.0900   20.0720   16.3750
H   25.2500   20.2200   15.7020
C   27.3720   20.5830   16.0780
H   27.4500   21.3560   15.3190
C   18.5500   10.0140   11.4130
H   18.7830   9.7570   12.4530
H   19.3500   9.5800   10.8000
H   17.6150   9.5640   11.0570
C   18.6360   11.5680   11.2050
C   19.5130   12.2330   10.3370
H   20.2410   11.5850   9.8580
C   19.5720   13.6310   10.2560
H   20.3650   14.1740   9.7510
C   18.5680   14.3480   10.9390
H   18.6520   15.4260   10.8390
C   17.6480   13.7120   11.7250
H   17.1040   14.3100   12.4500
C   17.7060   12.3240   11.9490
H   17.2340   11.8230   12.7890
C   22.1020   25.4310   5.5970
H   21.4160   26.2880   5.5930
H   21.7860   24.8510   4.7220
H   23.1330   25.7650   5.4260
C   21.9980   24.6230   6.8970
C   21.0770   23.5600   6.9970
H   20.5490   23.2000   6.1180
C   20.8770   22.8840   8.2000
H   20.2320   22.0110   8.2230
C   21.4880   23.3510   9.3830
H   21.2750   22.8260   10.3090
C   22.4070   24.4640   9.3180
H   22.8440   24.9190   10.2020
C   22.7460   25.0220   8.0470
H   23.4980   25.8030   7.9750
C   19.3939   18.4948   21.4087
H   20.1012   18.4670   22.2324
H   18.8092   19.4073   21.4427
H   19.9936   18.5546   20.5116
C   18.5239   17.2620   21.4209
C   17.1414   17.3029   21.2274
H   16.6465   18.2551   21.1246
C   16.3872   16.1329   21.1481
H   15.3190   16.1810   21.0242
C   17.0135   14.9007   21.2880
H   16.4421   13.9760   21.3188
C   18.3857   14.8601   21.5241
H   18.8837   13.9114   21.6564
C   19.1299   16.0212   21.6171
H   20.1827   15.9583   21.8344
562
Frame 9
C   16.4459   15.4123   16.9732
C   18.5195   16.6142   16.6879
C   16.1164   17.9225   17.5602
C   19.1915   16.0728   17.9355
C   19.4664   16.9241   15.5795
N   17.4825   15.6834   16.2054
N   15.3547   14.9245   16.4388
O   15.4864   18.1352   16.2593
H   14.8179   17.4547   16.2020
H   17.2129   15.8559   15.2354
H   16.5652   15.3676   18.0479
H   17.9961   17.5236   16.9322
H   14.5759   14.6754   17.0284
H   15.1598   15.1434   15.4650
H   16.7899   18.7943   17.7333
H   15.3786   17.9320   18.3749
H   19.9565   16.7983   18.2272
H   18.8686   17.1542   14.7073
H   19.6453   15.1014   17.8054
H   18.4886   16.0445   18.7575
H   20.0209   17.8124   15.8685
H   20.1523   16.1060   15.3537
C   31.0130   13.4690   20.5000
H   31.2490   12.6100   21.1410
H   31.6000   14.3580   20.7590
H   31.3090   13.1730   19.4860
C   29.5240   13.6930   20.5110
C   28.9490   14.9820   20.4600
H   29.6230   15.8190   20.3030
C   27.5460   15.1780   20.4020
H   27.1240   16.1710   20.2790
C   26.7510   14.0910   20.7820
H   25.6720   14.1250   20.8970
C   27.2930   12.7880   20.7300
H   26.5470   12.0120   20.8740
C   28.6890   12.5880   20.6520
H   29.0430   11.5650   20.7440
C   9.2210   14.9750   13.0480
H   9.9180   14.2170   12.6700
H   8.7250   15.4390   12.1860
H   8.5460   14.3880   13.6810
C   9.9500   16.0790   13.9260
C   11.1730   16.6700   13.5290
H   11.6950   16.2330   12.6830
C   11.7790   17.6500   14.3810
H   12.6890   18.1940   14.1470
C   11.0580   18.1190   15.4870
H   11.4490   19.0070   15.9740
C   9.8790   17.5550   15.8260
H   9.3990   17.9040   16.7360
C   9.3470   16.4720   15.1090
H   8.3400   16.1840   15.3940
C   13.1040   20.9490   22.1230
H   12.1100   21.0700   22.5720
H   13.3280   19.8760   22.1570
H   12.9300   21.4440   21.1600
C   14.1720   21.7290   22.9410
C   13.9780   23.0550   23.3640
H   12.9880   23.4780   23.2220
C   14.9570   23.7090   24.0980
H   14.8720   24.7370   24.4370
C   16.0910   23.0190   24.4910
H   16.8240   23.5570   25.0840
C   16.3390   21.7000   24.0260
H   17.2960   21.2060   24.1580
C   15.3480   21.0720   23.2660
H   15.4870   20.1110   22.7800
C   22.3270   16.0930   8.4030
H   22.3260   16.2600   9.4870
H   21.4310   15.6720   7.9300
H   22.4190   17.0690   7.9110
C   23.4930   15.2320   7.9250
C   24.6760   15.8080   7.3600
H   24.7170   16.8840   7.2220
C   25.8340   15.0550   7.0100
H   26.7290   15.6050   6.7360
C   25.7140   13.6410   7.1510
H   26.5440   12.9840   6.9070
C   24.5170   13.0840   7.6510
H   24.4140   12.0140   7.8020
C   23.4280   13.8620   7.9640
H   22.4620   13.4500   8.2420
C   13.3770   8.3710   11.1840
H   13.9280   8.9300   11.9500
H   12.7730   7.5980   11.6750
H   12.7470   9.0620   10.6100
C   14.2950   7.7300   10.0940
C   14.0090   6.4760   9.6240
H   13.0770   6.0180   9.9390
C   14.8900   5.7890   8.7340
H   14.6040   4.8470   8.2740
C   16.0940   6.4030   8.4280
H   16.8170   5.9830   7.7360
C   16.3240   7.7020   8.8800
H   17.2290   8.1990   8.5440
C   15.3900   8.3770   9.6670
H   15.4990   9.4410   9.8550
C   22.3720   27.5750   12.3440
H   22.6740   28.6260   12.2520
H   21.8660   27.2750   11.4180
H   23.3360   27.0640   12.4640
C   21.5860   27.1640   13.5380
C   20.6270   26.1270   13.4710
H   20.5230   25.5770   12.5400
C   19.8190   25.9080   14.6070
H   19.0410   25.1530   14.6740
C   19.8330   26.8130   15.6810
H   19.1800   26.6280   16.5280
C   20.7150   27.8320   15.6880
H   20.6750   28.5050   16.5390
C   21.6510   27.9300   14.6880
H   22.3640   28.7490   14.7160
C   26.3230   15.1720   24.4190
H   27.1730   15.7810   24.7530
H   26.9100   14.3730   23.9500
H   25.8350   14.6810   25.2700
C   25.2980   15.8310   23.5700
C   25.3310   17.2270   23.3880
H   26.0260   17.7850   24.0090
C   24.4240   17.8360   22.4700
H   24.3120   18.9080   22.3350
C   23.4800   16.9710   21.8510
H   22.7300   17.3880   21.1860
C   23.4350   15.6140   22.0990
H   22.6180   15.0160   21.7070
C   24.3990   15.0550   22.9540
H   24.2710   14.0400   23.3190
C   12.5310   21.3930   17.8850
H   13.2140   21.0900   17.0820
H   11.5950   21.6280   17.3640
H   12.3060   20.6590   18.6680
C   13.0320   22.5830   18.7360
C   12.2150   23.1990   19.6560
H   11.1450   23.0160   19.6540
C   12.8150   24.0790   20.5840
H   12.1470   24.6520   21.2210
C   14.2070   24.1490   20.7110
H   14.6570   24.8010   21.4530
C   15.0790   23.3670   19.9600
H   16.1550   23.3650   20.1040
C   14.4560   22.6230   18.9390
H   15.0290   21.9490   18.3100
C   14.8830   6.8570   21.3950
H   14.5830   5.8040   21.4680
H   14.1110   7.5640   21.0690
H   14.9540   7.1620   22.4460
C   16.2700   6.9730   20.7720
C   17.3370   6.4110   21.5060
H   17.0910   5.8820   22.4210
C   18.6390   6.6200   20.9560
H   19.4860   6.2070   21.4970
C   18.8360   7.1840   19.6870
H   19.8020   7.2850   19.2010
C   17.7740   7.7920   19.0310
H   17.9360   8.3530   18.1150
C   16.4720   7.7040   19.5680
H   15.6290   8.1750   19.0710
C   14.8160   10.5740   15.3720
H   14.3440   11.0040   14.4800
H   15.1400   11.3900   16.0290
H   13.9830   10.0440   15.8500
C   15.8760   9.5730   14.9300
C   15.5810   8.3740   14.2260
H   14.5360   8.2410   13.9630
C   16.5460   7.4790   13.7060
H   16.2100   6.6290   13.1200
C   17.8520   7.6230   14.2370
H   18.6540   6.9360   13.9850
C   18.1870   8.7030   14.9950
H   19.2350   8.8200   15.2580
C   17.2460   9.6850   15.4350
H   17.6780   10.4650   16.0550
C   8.0650   7.4040   17.5740
H   8.1270   8.0850   16.7160
H   7.5600   7.9240   18.3970
H   7.4880   6.4980   17.3480
C   9.4790   7.0660   18.0080
C   10.5440   7.9760   17.7650
H   10.3730   8.9450   17.3060
C   11.8290   7.6370   18.2640
H   12.7100   8.2510   18.1010
C   12.0090   6.4900   19.0190
H   13.0130   6.2290   19.3400
C   10.9610   5.6080   19.2070
H   11.1880   4.6980   19.7550
C   9.6610   5.8390   18.6640
H   8.8970   5.0800   18.8040
C   18.2400   9.3350   23.8980
H   18.4220   9.0030   24.9280
H   18.8890   10.1800   23.6390
H   18.3460   8.4310   23.2860
C   16.8430   9.7990   23.8620
C   16.4750   10.9760   23.2580
H   17.2340   11.5320   22.7170
C   15.1310   11.3650   23.2170
H   14.8330   12.3010   22.7540
C   14.1480   10.5800   23.8790
H   13.1240   10.9410   23.8510
C   14.5070   9.3760   24.4910
H   13.6960   8.7620   24.8720
C   15.8380   9.0020   24.5510
H   16.1540   8.1380   25.1280
C   10.9060   11.5230   15.8000
H   10.2660   12.1380   16.4450
H   11.8110   12.1010   15.5760
H   11.3030   10.7560   16.4760
C   10.1450   10.8230   14.6590
C   8.8800   11.1470   14.2680
H   8.3050   11.8430   14.8720
C   8.2310   10.3560   13.3000
H   7.1860   10.6060   13.1480
C   8.9080   9.2900   12.6040
H   8.3580   8.8160   11.7960
C   10.2410   9.0790   12.9680
H   10.7620   8.2900   12.4330
C   10.8540   9.7140   14.0870
H   11.8650   9.4940   14.4180
C   12.4900   20.4970   8.7300
H   11.7150   20.4740   7.9540
H   12.2270   19.9760   9.6590
H   13.3460   20.0150   8.2410
C   12.8650   21.9680   8.9270
C   12.1420   22.7970   9.8120
H   11.2610   22.4200   10.3220
C   12.3840   24.1720   9.8850
H   11.8920   24.7890   10.6310
C   13.4520   24.6990   9.1480
H   13.6750   25.7620   9.1740
C   14.2260   23.9500   8.2820
H   15.0110   24.4020   7.6830
C   13.8970   22.5400   8.1400
H   14.4070   21.9210   7.4080
C   25.2240   23.2580   12.7270
H   25.5120   24.3000   12.9180
H   24.9920   23.1420   11.6620
H   26.0960   22.6100   12.8790
C   24.1020   22.8110   13.7090
C   24.1040   23.2240   14.9730
H   24.9610   23.8230   15.2650
C   23.1140   22.7650   15.8740
H   23.0750   23.1170   16.9010
C   22.0540   21.9550   15.3630
H   21.3500   21.5740   16.0970
C   21.9790   21.6570   14.0120
H   21.2210   20.9940   13.6040
C   22.9780   22.0850   13.1860
H   22.9530   21.7500   12.1530
C   15.9690   24.2190   11.3740
H   16.8540   24.6850   11.8250
H   15.3350   25.1120   11.4330
H   16.1270   23.9390   10.3250
C   15.4160   23.1270   12.1800
C   15.0320   21.8940   11.5900
H   15.1170   21.7510   10.5170
C   14.4730   20.9160   12.4130
H   14.1800   19.9440   12.0280
C   14.3810   21.0610   13.7930
H   14.0500   20.2450   14.4290
C   14.8220   22.2110   14.4320
H   14.6700   22.2620   15.5060
C   15.2630   23.2580   13.6150
H   15.6250   24.2030   14.0110
C   7.9820   23.6640   20.2210
H   7.6700   24.1780   19.3030
H   8.8810   24.2110   20.5300
H   7.2090   23.8760   20.9700
C   8.2150   22.1450   20.0450
C   8.9820   21.3660   20.9660
H   9.4280   21.8310   21.8400
C   9.3410   20.0110   20.7260
H   9.9200   19.4750   21.4720
C   8.8720   19.3730   19.6080
H   9.2540   18.3910   19.3440
C   8.1140   20.1330   18.6130
H   7.8040   19.7260   17.6550
C   7.8120   21.5360   18.8670
H   7.2650   22.1110   18.1260
C   16.6400   17.6150   24.7630
H   16.2880   18.1500   25.6540
H   16.0580   17.8970   23.8770
H   17.6690   17.9180   24.5330
C   16.4320   16.1690   24.9640
C   17.4700   15.2850   24.7630
H   18.3820   15.6110   24.2700
C   17.2870   13.9420   25.1470
H   18.0430   13.2190   24.8550
C   16.0500   13.5080   25.7080
H   15.9690   12.4530   25.9550
C   15.0160   14.4460   25.9100
H   14.0840   14.0850   26.3350
C   15.2290   15.7710   25.5010
H   14.4230   16.4770   25.6750
C   9.8970   25.7470   14.8340
H   9.2600   26.2100   14.0700
H   10.9030   26.1810   14.8020
H   9.4340   25.9280   15.8120
C   10.1050   24.2760   14.5480
C   9.4830   23.4020   15.4380
H   8.7910   23.7840   16.1820
C   9.7180   22.0020   15.3700
H   9.2880   21.4530   16.2030
C   10.5190   21.4980   14.3610
H   10.5880   20.4200   14.2480
C   11.0160   22.3430   13.3520
H   11.7280   21.9650   12.6240
C   10.8610   23.7380   13.4830
H   11.4610   24.3570   12.8230
C   21.4460   7.1060   12.4470
H   20.6860   6.3340   12.6150
H   22.2500   6.4780   12.0440
H   21.0510   7.7230   11.6300
C   21.6030   8.0210   13.6490
C   21.7540   7.6760   14.9780
H   21.7640   6.6430   15.3150
C   21.9350   8.6230   16.0550
H   22.0640   8.3230   17.0910
C   22.1380   9.9860   15.6920
H   22.3350   10.8010   16.3830
C   22.0340   10.3260   14.3310
H   22.1590   11.3300   13.9360
C   21.6750   9.3700   13.3830
H   21.5590   9.7230   12.3630
C   22.9880   17.6800   12.2810
H   22.9180   16.8740   13.0210
H   23.7730   18.3620   12.6300
H   23.2480   17.2650   11.3000
C   21.6550   18.3490   12.1870
C   20.6220   18.0880   13.0570
H   20.7970   17.3350   13.8210
C   19.4340   18.7990   13.0450
H   18.7570   18.7330   13.8920
C   19.1760   19.7760   12.0220
H   18.2920   20.4060   12.0440
C   20.1570   19.9410   11.0580
H   19.9550   20.5700   10.1960
C   21.4170   19.2580   11.1840
H   22.2080   19.5330   10.4920
C   11.5670   16.9320   9.5720
H   12.2140   17.1360   8.7100
H   11.2820   15.8920   9.3700
H   12.1900   17.0270   10.4710
C   10.3380   17.8120   9.7330
C   9.4070   17.9080   8.6630
H   9.2760   17.1270   7.9200
C   8.4820   18.9870   8.6270
H   7.7350   19.0310   7.8400
C   8.4710   19.9600   9.6310
H   7.7480   20.7700   9.6540
C   9.3540   19.8350   10.7390
H   9.3650   20.4890   11.6050
C   10.1940   18.7130   10.7970
H   10.9300   18.6810   11.5950
C   12.7180   16.6050   23.0210
H   12.8130   16.8270   21.9510
H   13.7280   16.3210   23.3450
H   12.5000   17.5290   23.5710
C   11.8010   15.4010   23.1530
C   10.6200   15.4240   22.3970
H   10.4520   16.2470   21.7090
C   9.7560   14.2780   22.4410
H   8.8510   14.2660   21.8410
C   10.0090   13.2210   23.3230
H   9.3460   12.3640   23.2430
C   11.1890   13.1930   24.0600
H   11.5060   12.4190   24.7520
C   12.1210   14.2630   23.8890
H   13.0670   14.1720   24.4150
C   18.8420   17.6350   27.7520
H   18.1240   17.0240   28.3120
H   18.2540   18.2490   27.0590
H   19.3830   18.2440   28.4880
C   19.7860   16.8740   26.9420
C   20.9230   17.5130   26.3330
H   21.0460   18.5910   26.2770
C   21.9600   16.7460   25.6900
H   22.7590   17.2130   25.1220
C   21.8200   15.3540   25.7340
H   22.5620   14.8350   25.1340
C   20.7780   14.7860   26.4240
H   20.6730   13.7070   26.4980
C   19.7540   15.4920   26.9560
H   18.9700   15.0490   27.5620
C   25.2430   22.7500   18.9430
H   24.6510   23.3730   19.6240
H   24.6070   22.0920   18.3390
H   25.7690   23.4530   18.2840
C   26.2890   22.0890   19.8050
C   27.6530   22.5380   19.7650
H   27.8930   23.3990   19.1490
C   28.6720   21.9360   20.4790
H   29.6960   22.2960   20.4470
C   28.3120   20.9270   21.3620
H   29.1140   20.5670   22.0000
C   26.9480   20.4890   21.5060
H   26.7050   19.7450   22.2580
C   25.9360   21.0700   20.7010
H   24.8820   20.8350   20.8180
C   8.6660   14.0750   6.3660
H   9.5670   14.3180   5.7890
H   8.3130   15.1000   6.5330
H   8.0120   13.6260   5.6080
C   8.9520   13.1750   7.5700
C   9.2520   13.8780   8.7390
H   9.0790   14.9490   8.7860
C   9.7250   13.1670   9.8870
H   10.1540   13.6370   10.7670
C   9.7320   11.7360   9.9480
H   9.9080   11.1180   10.8230
C   9.4160   11.0830   8.7270
H   9.5500   10.0100   8.6190
C   9.0570   11.7790   7.5340
H   8.9280   11.2640   6.5870
C   8.9500   11.1620   20.3870
H   9.6770   10.3770   20.1430
H   8.1570   10.6850   20.9760
H   9.5010   11.9120   20.9680
C   8.2120   11.8340   19.2710
C   8.5700   13.1620   18.8940
H   9.3950   13.6460   19.4100
C   7.8880   13.7660   17.8650
H   8.0520   14.7920   17.5510
C   6.8730   13.0430   17.1600
H   6.3940   13.5060   16.3020
C   6.6020   11.7170   17.5240
H   5.9300   11.0650   16.9750
C   7.2670   11.0920   18.5130
H   6.9380   10.1170   18.8610
C   26.4570   12.4450   13.5550
H   27.1280   12.9590   14.2540
H   26.8800   12.5280   12.5470
H   26.3480   11.3870   13.8240
C   25.0650   13.0040   13.5080
C   24.3200   13.0670   12.3170
H   24.6950   12.4320   11.5200
C   23.1080   13.7070   12.1810
H   22.5800   13.8270   11.2400
C   22.5170   14.2950   13.4070
H   21.5280   14.7440   13.3850
C   23.1780   14.0720   14.6700
H   22.7680   14.3710   15.6300
C   24.4820   13.4620   14.6840
H   25.0670   13.3620   15.5930
C   17.5710   21.2480   6.8890
H   18.6510   21.3700   6.7390
H   17.1030   22.0750   7.4370
H   17.0720   21.3190   5.9150
C   17.2290   19.8820   7.3990
C   18.1980   19.0800   7.9940
H   19.2050   19.4850   8.0050
C   17.9790   17.8310   8.6610
H   18.7330   17.2870   9.2230
C   16.6260   17.3740   8.6220
H   16.3320   16.4460   9.1030
C   15.6520   18.0670   7.8430
H   14.6170   17.7430   7.7980
C   15.9210   19.3400   7.2650
H   15.0810   19.8910   6.8510
C   21.3760   21.0260   23.7240
H   20.4220   20.4870   23.7730
H   21.7020   21.4030   24.7020
H   22.0140   20.1900   23.4130
C   21.3200   22.2390   22.7430
C   21.4220   21.9180   21.3730
H   21.5590   20.8770   21.0950
C   21.1640   22.8820   20.4680
H   21.2420   22.6310   19.4150
C   20.8980   24.2170   20.9180
H   20.7360   25.0150   20.1990
C   20.8810   24.5300   22.2790
H   20.7390   25.5510   22.6190
C   21.0600   23.5250   23.2330
H   21.0710   23.7440   24.2960
C   13.4980   11.9160   9.8290
H   12.9760   11.0440   9.4180
H   12.8920   12.3220   10.6480
H   14.4620   11.6150   10.2580
C   13.7160   13.0320   8.7680
C   15.0200   13.6160   8.6070
H   15.8970   13.3430   9.1870
C   15.2000   14.6260   7.6390
H   16.2250   14.9300   7.4480
C   14.1260   14.9630   6.7830
H   14.1730   15.7170   6.0030
C   12.8520   14.5840   7.1130
H   12.0640   15.0130   6.5020
C   12.6470   13.5090   8.0450
H   11.7110   12.9710   8.1580
C   19.7440   10.5210   20.4450
H   19.1710   11.4550   20.4980
H   19.2620   9.7620   21.0740
H   19.7140   10.3290   19.3650
C   21.1430   10.7570   21.0140
C   22.2290   10.3180   20.2850
H   22.1500   9.9270   19.2750
C   23.5250   10.5680   20.8390
H   24.4000   10.2310   20.2920
C   23.7170   11.1630   22.0780
H   24.7300   11.2050   22.4680
C   22.5380   11.3930   22.8610
H   22.7390   11.7980   23.8480
C   21.2670   11.2310   22.2990
H   20.3950   11.6100   22.8240
C   29.8070   21.0370   16.6750
H   29.7320   22.0770   16.3350
H   30.3810   20.5460   15.8790
H   30.3680   20.9570   17.6140
C   28.4450   20.3010   16.9690
C   28.2260   19.5640   18.1860
H   29.0220   19.4550   18.9170
C   26.8940   19.1050   18.4470
H   26.6720   18.4880   19.3130
C   25.8510   19.3550   17.6180
H   24.8790   18.9520   17.8890
C   26.0900   20.0720   16.3750
H   25.2500   20.2200   15.7020
C   27.3720   20.5830   16.0780
H   27.4500   21.3560   15.3190
C   18.5500   10.0140   11.4130
H   18.7830   9.7570   12.4530
H   19.3500   9.5800   10.8000
H   17.6150   9.5640   11.0570
C   18.6360   11.5680   11.2050
C   19.5130   12.2330   10.3370
H   20.2410   11.5850   9.8580
C   19.5720   13.6310   10.2560
H   20.3650   14.1740   9.7510
C   18.5680   14.3480   10.9390
H   18.6520   15.4260   10.8390
C   17.6480   13.7120   11.7250
H   17.1040   14.3100   12.4500
C   17.7060   12.3240   11.9490
H   17.2340   11.8230   12.7890
C   22.1020   25.4310   5.5970
H   21.4160   26.2880   5.5930
H   21.7860   24.8510   4.7220
H   23.1330   25.7650   5.4260
C   21.9980   24.6230   6.8970
C   21.0770   23.5600   6.9970
H   20.5490   23.2000   6.1180
C   20.8770   22.8840   8.2000
H   20.2320   22.0110   8.2230
C   21.4880   23.3510   9.3830
H   21.2750   22.8260   10.3090
C   22.4070   24.4640   9.3180
H   22.8440   24.9190   10.2020
C   22.7460   25.0220   8.0470
H   23.4980   25.8030   7.9750
C   19.3944   18.4960   21.4098
H   20.1000   18.4677   22.2309
H   18.8049   19.4039   21.4453
H   19.9918   18.5534   20.5145
C   18.5251   17.2582   21.4209
C   17.1424   17.3113   21.2286
H   16.6453   18.2520   21.1296
C   16.3859   16.1354   21.1456
H   15.3174   16.1828   21.0218
C   17.0105   14.9044   21.2923
H   16.4471   13.9753   21.3289
C   18.3813   14.8544   21.5201
H   18.8886   13.9137   21.6607
C   19.1323   16.0164   21.6177
H   20.1818   15.9569   21.8326
562
Frame 10
C   16.4521   15.4083   16.9776
C   18.5242   16.6185   16.6925
C   16.1025   17.9138   17.5657
C   19.1939   16.0717   17.9381
C   19.4716   16.9197   15.5744
N   17.4863   15.6801   16.2087
N   15.3580   14.9167   16.4451
O   15.4775   18.1376   16.2563
H   14.7963   17.4652   16.2033
H   17.2252   15.8573   15.2377
H   16.5645   15.3823   18.0478
H   17.9969   17.5249   16.9413
H   14.5744   14.6905   17.0233
H   15.1587   15.1396   15.4798
H   16.7865   18.7861   17.7429
H   15.3587   17.9479   18.3706
H   19.9600   16.7919   18.2290
H   18.8678   17.1430   14.7024
H   19.6439   15.1036   17.8013
H   18.4914   16.0337   18.7603
H   20.0233   17.8087   15.8638
H   20.1564   16.0978   15.3604
C   31.0130   13.4690   20.5000
H   31.2490   12.6100   21.1410
H   31.6000   14.3580   20.7590
H   31.3090   13.1730   19.4860
C   29.5240   13.6930   20.5110
C   28.9490   14.9820   20.4600
H   29.6230   15.8190   20.3030
C   27.5460   15.1780   20.4020
H   27.1240   16.1710   20.2790
C   26.7510   14.0910   20.7820
H   25.6720   14.1250   20.8970
C   27.2930   12.7880   20.7300
H   26.5470   12.0120   20.8740
C   28.6890   12.5880   20.6520
H   29.0430   11.5650   20.7440
C   9.2210   14.9750   13.0480
H   9.9180   14.2170   12.6700
H   8.7250   15.4390   12.1860
H   8.5460   14.3880   13.6810
C   9.9500   16.0790   13.9260
C   11.1730   16.6700   13.5290
H   11.6950   16.2330   12.6830
C   11.7790   17.6500   14.3810
H   12.6890   18.1940   14.1470
C   11.0580   18.1190   15.4870
H   11.4490   19.0070   15.9740
C   9.8790   17.5550   15.8260
H   9.3990   17.9040   16.7360
C   9.3470   16.4720   15.1090
H   8.3400   16.1840   15.3940
C   13.1040   20.9490   22.1230
H   12.1100   21.0700   22.5720
H   13.3280   19.8760   22.1570
H   12.9300   21.4440   21.1600
C   14.1720   21.7290   22.9410
C   13.9780   23.0550   23.3640
H   12.9880   23.4780   23.2220
C   14.9570   23.7090   24.0980
H   14.8720   24.7370   24.4370
C   16.0910   23.0190   24.4910
H   16.8240   23.5570   25.0840
C   16.3390   21.7000   24.0260
H   17.2960   21.2060   24.1580
C   15.3480   21.0720   23.2660
H   15.4870   20.1110   22.7800
C   22.3270   16.0930   8.4030
H   22.3260   16.2600   9.4870
H   21.4310   15.6720   7.9300
H   22.4190   17.0690   7.9110
C   23.4930   15.2320   7.9250
C   24.6760   15.8080   7.3600
H   24.7170   16.8840   7.2220
C   25.8340   15.0550   7.0100
H   26.7290   15.6050   6.7360
C   25.7140   13.6410   7.1510
H   26.5440   12.9840   6.9070
C   24.5170   13.0840   7.6510
H   24.4140   12.0140   7.8020
C   23.4280   13.8620   7.9640
H   22.4620   13.4500   8.2420
C   13.3770   8.3710   11.1840
H   13.9280   8.9300   11.9500
H   12.7730   7.5980   11.6750
H   12.7470   9.0620   10.6100
C   14.2950   7.7300   10.0940
C   14.0090   6.4760   9.6240
H   13.0770   6.0180   9.9390
C   14.8900   5.7890   8.7340
H   14.6040   4.8470   8.2740
C   16.0940   6.4030   8.4280
H   16.8170   5.9830   7.7360
C   16.3240   7.7020   8.8800
H   17.2290   8.1990   8.5440
C   15.3900   8.3770   9.6670
H   15.4990   9.4410   9.8550
C   22.3720   27.5750   12.3440
H   22.6740   28.6260   12.2520
H   21.8660   27.2750   11.4180
H   23.3360   27.0640   12.4640
C   21.5860   27.1640   13.5380
C   20.6270   26.1270   13.4710
H   20.5230   25.5770   12.5400
C   19.8190   25.9080   14.6070
H   19.0410   25.1530   14.6740
C   19.8330   26.8130   15.6810
H   19.1800   26.6280   16.5280
C   20.7150   27.8320   15.6880
H   20.6750   28.5050   16.5390
C   21.6510   27.9300   14.6880
H   22.3640   28.7490   14.7160
C   26.3230   15.1720   24.4190
H   27.1730   15.7810   24.7530
H   26.9100   14.3730   23.9500
H   25.8350   14.6810   25.2700
C   25.2980   15.8310   23.5700
C   25.3310   17.2270   23.3880
H   26.0260   17.7850   24.0090
C   24.4240   17.8360   22.4700
H   24.3120   18.9080   22.3350
C   23.4800   16.9710   21.8510
H   22.7300   17.3880   21.1860
C   23.4350   15.6140   22.0990
H   22.6180   15.0160   21.7070
C   24.3990   15.0550   22.9540
H   24.2710   14.0400   23.3190
C   12.5310   21.3930   17.8850
H   13.2140   21.0900   17.0820
H   11.5950   21.6280   17.3640
H   12.3060   20.6590   18.6680
C   13.0320   22.5830   18.7360
C   12.2150   23.1990   19.6560
H   11.1450   23.0160   19.6540
C   12.8150   24.0790   20.5840
H   12.1470   24.6520   21.2210
C   14.2070   24.1490   20.7110
H   14.6570   24.8010   21.4530
C   15.0790   23.3670   19.9600
H   16.1550   23.3650   20.1040
C   14.4560   22.6230   18.9390
H   15.0290   21.9490   18.3100
C   14.8830   6.8570   21.3950
H   14.5830   5.8040   21.4680
H   14.1110   7.5640   21.0690
H   14.9540   7.1620   22.4460
C   16.2700   6.9730   20.7720
C   17.3370   6.4110   21.5060
H   17.0910   5.8820   22.4210
C   18.6390   6.6200   20.9560
H   19.4860   6.2070   21.4970
C   18.8360   7.1840   19.6870
H   19.8020   7.2850   19.2010
C   17.7740   7.7920   19.0310
H   17.9360   8.3530   18.1150
C   16.4720   7.7040   19.5680
H   15.6290   8.1750   19.0710
C   14.8160   10.5740   15.3720
H   14.3440   11.0040   14.4800
H   15.1400   11.3900   16.0290
H   13.9830   10.0440   15.8500
C   15.8760   9.5730   14.9300
C   15.5810   8.3740   14.2260
H   14.5360   8.2410   13.9630
C   16.5460   7.4790   13.7060
H   16.2100   6.6290   13.1200
C   17.8520   7.6230   14.2370
H   18.6540   6.9360   13.9850
C   18.1870   8.7030   14.9950
H   19.2350   8.8200   15.2580
C   17.2460   9.6850   15.4350
H   17.6780   10.4650   16.0550
C   8.0650   7.4040   17.5740
H   8.1270   8.0850   16.7160
H   7.5600   7.9240   18.3970
H   7.4880   6.4980   17.3480
C   9.4790   7.0660   18.0080
C   10.5440   7.9760   17.7650
H   10.3730   8.9450   17.3060
C   11.8290   7.6370   18.2640
H   12.7100   8.2510   18.1010
C   12.0090   6.4900   19.0190
H   13.0130   6.2290   19.3400
C   10.9610   5.6080   19.2070
H   11.1880   4.6980   19.7550
C   9.6610   5.8390   18.6640
H   8.8970   5.0800   18.8040
C   18.2400   9.3350   23.8980
H   18.4220   9.0030   24.9280
H   18.8890   10.1800   23.6390
H   18.3460   8.4310   23.2860
C   16.8430   9.7990   23.8620
C   16.4750   10.9760   23.2580
H   17.2340   11.5320   22.7170
C   15.1310   11.3650   23.2170
H   14.8330   12.3010   22.7540
C   14.1480   10.5800   23.8790
H   13.1240   10.9410   23.8510
C   14.5070   9.3760   24.4910
H   13.6960   8.7620   24.8720
C   15.8380   9.0020   24.5510
H   16.1540   8.1380   25.1280
C   10.9060   11.5230   15.8000
H   10.2660   12.1380   16.4450
H   11.8110   12.1010   15.5760
H   11.3030   10.7560   16.4760
C   10.1450   10.8230   14.6590
C   8.8800   11.1470   14.2680
H   8.3050   11.8430   14.8720
C   8.2310   10.3560   13.3000
H   7.1860   10.6060   13.1480
C   8.9080   9.2900   12.6040
H   8.3580   8.8160   11.7960
C   10.2410   9.0790   12.9680
H   10.7620   8.2900   12.4330
C   10.8540   9.7140   14.0870
H   11.8650   9.4940   14.4180
C   12.4900   20.4970   8.7300
H   11.7150   20.4740   7.9540
H   12.2270   19.9760   9.6590
H   13.3460   20.0150   8.2410
C   12.8650   21.9680   8.9270
C   12.1420   22.7970   9.8120
H   11.2610   22.4200   10.3220
C   12.3840   24.1720   9.8850
H   11.8920   24.7890   10.6310
C   13.4520   24.6990   9.1480
H   13.6750   25.7620   9.1740
C   14.2260   23.9500   8.2820
H   15.0110   24.4020   7.6830
C   13.8970   22.5400   8.1400
H   14.4070   21.9210   7.4080
C   25.2240   23.2580   12.7270
H   25.5120   24.3000   12.9180
H   24.9920   23.1420   11.6620
H   26.0960   22.6100   12.8790
C   24.1020   22.8110   13.7090
C   24.1040   23.2240   14.9730
H   24.9610   23.8230   15.2650
C   23.1140   22.7650   15.8740
H   23.0750   23.1170   16.9010
C   22.0540   21.9550   15.3630
H   21.3500   21.5740   16.0970
C   21.9790   21.6570   14.0120
H   21.2210   20.9940   13.6040
C   22.9780   22.0850   13.1860
H   22.9530   21.7500   12.1530
C   15.9690   24.2190   11.3740
H   16.8540   24.6850   11.8250
H   15.3350   25.1120   11.4330
H   16.1270   23.9390   10.3250
C   15.4160   23.1270   12.1800
C   15.0320   21.8940   11.5900
H   15.1170   21.7510   10.5170
C   14.4730   20.9160   12.4130
H   14.1800   19.9440   12.0280
C   14.3810   21.0610   13.7930
H   14.0500   20.2450   14.4290
C   14.8220   22.2110   14.4320
H   14.6700   22.2620   15.5060
C   15.2630   23.2580   13.6150
H   15.6250   24.2030   14.0110
C   7.9820   23.6640   20.2210
H   7.6700   24.1780   19.3030
H   8.8810   24.2110   20.5300
H   7.2090   23.8760   20.9700
C   8.2150   22.1450   20.0450
C   8.9820   21.3660   20.9660
H   9.4280   21.8310   21.8400
C   9.3410   20.0110   20.7260
H   9.9200   19.4750   21.4720
C   8.8720   19.3730   19.6080
H   9.2540   18.3910   19.3440
C   8.1140   20.1330   18.6130
H   7.8040   19.7260   17.6550
C   7.8120   21.5360   18.8670
H   7.2650   22.1110   18.1260
C   16.6400   17.6150   24.7630
H   16.2880   18.1500   25.6540
H   16.0580   17.8970   23.8770
H   17.6690   17.9180   24.5330
C   16.4320   16.1690   24.9640
C   17.4700   15.2850   24.7630
H   18.3820   15.6110   24.2700
C   17.2870   13.9420   25.1470
H   18.0430   13.2190   24.8550
C   16.0500   13.5080   25.7080
H   15.9690   12.4530   25.9550
C   15.0160   14.4460   25.9100
H   14.0840   14.0850   26.3350
C   15.2290   15.7710   25.5010
H   14.4230   16.4770   25.6750
C   9.8970   25.7470   14.8340
H   9.2600   26.2100   14.0700
H   10.9030   26.1810   14.8020
H   9.4340   25.9280   15.8120
C   10.1050   24.2760   14.5480
C   9.4830   23.4020   15.4380
H   8.7910   23.7840   16.1820
C   9.7180   22.0020   15.3700
H   9.2880   21.4530   16.2030
C   10.5190   21.4980   14.3610
H   10.5880   20.4200   14.2480
C   11.0160   22.3430   13.3520
H   11.7280   21.9650   12.6240
C   10.8610   23.7380   13.4830
H   11.4610   24.3570   12.8230
C   21.4460   7.1060   12.4470
H   20.6860   6.3340   12.6150
H   22.2500   6.4780   12.0440
H   21.0510   7.7230   11.6300
C   21.6030   8.0210   13.6490
C   21.7540   7.6760   14.9780
H   21.7640   6.6430   15.3150
C   21.9350   8.6230   16.0550
H   22.0640   8.3230   17.0910
C   22.1380   9.9860   15.6920
H   22.3350   10.8010   16.3830
C   22.0340   10.3260   14.3310
H   22.1590   11.3300   13.9360
C   21.6750   9.3700   13.3830
H   21.5590   9.7230   12.3630
C   22.9880   17.6800   12.2810
H   22.9180   16.8740   13.0210
H   23.7730   18.3620   12.6300
H   23.2480   17.2650   11.3000
C   21.6550   18.3490   12.1870
C   20.6220   18.0880   13.0570
H   20.7970   17.3350   13.8210
C   19.4340   18.7990   13.0450
H   18.7570   18.7330   13.8920
C   19.1760   19.7760   12.0220
H   18.2920   20.4060   12.0440
C   20.1570   19.9410   11.0580
H   19.9550   20.5700   10.1960
C   21.4170   19.2580   11.1840
H   22.2080   19.5330   10.4920
C   11.5670   16.9320   9.5720
H   12.2140   17.1360   8.7100
H   11.2820   15.8920   9.3700
H   12.1900   17.0270   10.4710
C   10.3380   17.8120   9.7330
C   9.4070   17.9080   8.6630
H   9.2760   17.1270   7.9200
C   8.4820   18.9870   8.6270
H   7.7350   19.0310   7.8400
C   8.4710   19.9600   9.6310
H   7.7480   20.7700   9.6540
C   9.3540   19.8350   10.7390
H   9.3650   20.4890   11.6050
C   10.1940   18.7130   10.7970
H   10.9300   18.6810   11.5950
C   12.7180   16.6050   23.0210
H   12.8130   16.8270   21.9510
H   13.7280   16.3210   23.3450
H   12.5000   17.5290   23.5710
C   11.8010   15.4010   23.1530
C   10.6200   15.4240   22.3970
H   10.4520   16.2470   21.7090
C   9.7560   14.2780   22.4410
H   8.8510   14.2660   21.8410
C   10.0090   13.2210   23.3230
H   9.3460   12.3640   23.2430
C   11.1890   13.1930   24.0600
H   11.5060   12.4190   24.7520
C   12.1210   14.2630   23.8890
H   13.0670   14.1720   24.4150
C   18.8420   17.6350   27.7520
H   18.1240   17.0240   28.3120
H   18.2540   18.2490   27.0590
H   19.3830   18.2440   28.4880
C   19.7860   16.8740   26.9420
C   20.9230   17.5130   26.3330
H   21.0460   18.5910   26.2770
C   21.9600   16.7460   25.6900
H   22.7590   17.2130   25.1220
C   21.8200   15.3540   25.7340
H   22.5620   14.8350   25.1340
C   20.7780   14.7860   26.4240
H   20.6730   13.7070   26.4980
C   19.7540   15.4920   26.9560
H   18.9700   15.0490   27.5620
C   25.2430   22.7500   18.9430
H   24.6510   23.3730   19.6240
H   24.6070   22.0920   18.3390
H   25.7690   23.4530   18.2840
C   26.2890   22.0890   19.8050
C   27.6530   22.5380   19.7650
H   27.8930   23.3990   19.1490
C   28.6720   21.9360   20.4790
H   29.6960   22.2960   20.4470
C   28.3120   20.9270   21.3620
H   29.1140   20.5670   22.0000
C   26.9480   20.4890   21.5060
H   26.7050   19.7450   22.2580
C   25.9360   21.0700   20.7010
H   24.8820   20.8350   20.8180
C   8.6660   14.0750   6.3660
H   9.5670   14.3180   5.7890
H   8.3130   15.1000   6.5330
H   8.0120   13.6260   5.6080
C   8.9520   13.1750   7.5700
C   9.2520   13.8780   8.7390
H   9.0790   14.9490   8.7860
C   9.7250   13.1670   9.8870
H   10.1540   13.6370   10.7670
C   9.7320   11.7360   9.9480
H   9.9080   11.1180   10.8230
C   9.4160   11.0830   8.7270
H   9.5500   10.0100   8.6190
C   9.0570   11.7790   7.5340
H   8.9280   11.2640   6.5870
C   8.9500   11.1620   20.3870
H   9.6770   10.3770   20.1430
H   8.1570   10.6850   20.9760
H   9.5010   11.9120   20.9680
C   8.2120   11.8340   19.2710
C   8.5700   13.1620   18.8940
H   9.3950   13.6460   19.4100
C   7.8880   13.7660   17.8650
H   8.0520   14.7920   17.5510
C   6.8730   13.0430   17.1600
H   6.3940   13.5060   16.3020
C   6.6020   11.7170   17.5240
H   5.9300   11.0650   16.9750
C   7.2670   11.0920   18.5130
H   6.9380   10.1170   18.8610
C   26.4570   12.4450   13.5550
H   27.1280   12.9590   14.2540
H   26.8800   12.5280   12.5470
H   26.3480   11.3870   13.8240
C   25.0650   13.0040   13.5080
C   24.3200   13.0670   12.3170
H   24.6950   12.4320   11.5200
C   23.1080   13.7070   12.1810
H   22.5800   13.8270   11.2400
C   22.5170   14.2950   13.4070
H   21.5280   14.7440   13.3850
C   23.1780   14.0720   14.6700
H   22.7680   14.3710   15.6300
C   24.4820   13.4620   14.6840
H   25.0670   13.3620   15.5930
C   17.5710   21.2480   6.8890
H   18.6510   21.3700   6.7390
H   17.1030   22.0750   7.4370
H   17.0720   21.3190   5.9150
C   17.2290   19.8820   7.3990
C   18.1980   19.0800   7.9940
H   19.2050   19.4850   8.0050
C   17.9790   17.8310   8.6610
H   18.7330   17.2870   9.2230
C   16.6260   17.3740   8.6220
H   16.3320   16.4460   9.1030
C   15.6520   18.0670   7.8430
H   14.6170   17.7430   7.7980
C   15.9210   19.3400   7.2650
H   15.0810   19.8910   6.8510
C   21.3760   21.0260   23.7240
H   20.4220   20.4870   23.7730
H   21.7020   21.4030   24.7020
H   22.0140   20.1900   23.4130
C   21.3200   22.2390   22.7430
C   21.4220   21.9180   21.3730
H   21.5590   20.8770   21.0950
C   21.1640   22.8820   20.4680
H   21.2420   22.6310   19.4150
C   20.8980   24.2170   20.9180
H   20.7360   25.0150   20.1990
C   20.8810   24.5300   22.2790
H   20.7390   25.5510   22.6190
C   21.0600   23.5250   23.2330
H   21.0710   23.7440   24.2960
C   13.4980   11.9160   9.8290
H   12.9760   11.0440   9.4180
H   12.8920   12.3220   10.6480
H   14.4620   11.6150   10.2580
C   13.7160   13.0320   8.7680
C   15.0200   13.6160   8.6070
H   15.8970   13.3430   9.1870
C   15.2000   14.6260   7.6390
H   16.2250   14.9300   7.4480
C   14.1260   14.9630   6.7830
H   14.1730   15.7170   6.0030
C   12.8520   14.5840   7.1130
H   12.0640   15.0130   6.5020
C   12.6470   13.5090   8.0450
H   11.7110   12.9710   8.1580
C   19.7440   10.5210   20.4450
H   19.1710   11.4550   20.4980
H   19.2620   9.7620   21.0740
H   19.7140   10.3290   19.3650
C   21.1430   10.7570   21.0140
C   22.2290   10.3180   20.2850
H   22.1500   9.9270   19.2750
C   23.5250   10.5680   20.8390
H   24.4000   10.2310   20.2920
C   23.7170   11.1630   22.0780
H   24.7300   11.2050   22.4680
C   22.5380   11.3930   22.8610
H   22.7390   11.7980   23.8480
C   21.2670   11.2310   22.2990
H   20.3950   11.6100   22.8240
C   29.8070   21.0370   16.6750
H   29.7320   22.0770   16.3350
H   30.3810   20.5460   15.8790
H   30.3680   20.9570   17.6140
C   28.4450   20.3010   16.9690
C   28.2260   19.5640   18.1860
H   29.0220   19.4550   18.9170
C   26.8940   19.1050   18.4470
H   26.6720   18.4880   19.3130
C   25.8510   19.3550   17.6180
H   24.8790   18.9520   17.8890
C   26.0900   20.0720   16.3750
H   25.2500   20.2200   15.7020
C   27.3720   20.5830   16.0780
H   27.4500   21.3560   15.3190
C   18.5500   10.0140   11.4130
H   18.7830   9.7570   12.4530
H   19.3500   9.5800   10.8000
H   17.6150   9.5640   11.0570
C   18.6360   11.5680   11.2050
C   19.5130   12.2330   10.3370
H   20.2410   11.5850   9.8580
C   19.5720   13.6310   10.2560
H   20.3650   14.1740   9.7510
C   18.5680   14.3480   10.9390
H   18.6520   15.4260   10.8390
C   17.6480   13.7120   11.7250
H   17.1040   14.3100   12.4500
C   17.7060   12.3240   11.9490
H   17.2340   11.8230   12.7890
C   22.1020   25.4310   5.5970
H   21.4160   26.2880   5.5930
H   21.7860   24.8510   4.7220
H   23.1330   25.7650   5.4260
C   21.9980   24.6230   6.8970
C   21.0770   23.5600   6.9970
H   20.5490   23.2000   6.1180
C   20.8770   22.8840   8.2000
H   20.2320   22.0110   8.2230
C   21.4880   23.3510   9.3830
H   21.2750   22.8260   10.3090
C   22.4070   24.4640   9.3180
H   22.8440   24.9190   10.2020
C   22.7460   25.0220   8.0470
H   23.4980   25.8030   7.9750
C   19.3933   18.4983   21.4096
H   20.0962   18.4714   22.2301
H   18.8037   19.4020   21.4517
H   19.9895   18.5510   20.5156
C   18.5240   17.2543   21.4200
C   17.1449   17.3111   21.2280
H   16.6429   18.2545   21.1362
C   16.3881   16.1392   21.1444
H   15.3166   16.1860   21.0176
C   17.0081   14.9085   21.3003
H   16.4511   13.9754   21.3380
C   18.3781   14.8471   21.5179
H   18.8941   13.9113   21.6648
C   19.1315   16.0100   21.6162
H   20.1814   15.9573   21.8309
562
Frame 11
C   16.4620   15.4122   16.9900
C   18.5330   16.6202   16.6985
C   16.0884   17.8869   17.5763
C   19.1970   16.0720   17.9431
C   19.4754   16.9097   15.5718
N   17.5002   15.6816   16.2165
N   15.3655   14.9088   16.4525
O   15.4560   18.1403   16.2507
H   14.7542   17.4913   16.2070
H   17.2501   15.8575   15.2450
H   16.5635   15.4097   18.0474
H   17.9948   17.5252   16.9592
H   14.5645   14.7147   17.0224
H   15.1590   15.1290   15.5059
H   16.7751   18.7671   17.7600
H   15.3151   17.9794   18.3629
H   19.9686   16.7794   18.2343
H   18.8708   17.1193   14.6926
H   19.6416   15.1068   17.7920
H   18.4967   16.0128   18.7656
H   20.0295   17.8000   15.8510
H   20.1631   16.0843   15.3735
C   31.0130   13.4690   20.5000
H   31.2490   12.6100   21.1410
H   31.6000   14.3580   20.7590
H   31.3090   13.1730   19.4860
C   29.5240   13.6930   20.5110
C   28.9490   14.9820   20.4600
H   29.6230   15.8190   20.3030
C   27.5460   15.1780   20.4020
H   27.1240   16.1710   20.2790
C   26.7510   14.0910   20.7820
H   25.6720   14.1250   20.8970
C   27.2930   12.7880   20.7300
H   26.5470   12.0120   20.8740
C   28.6890   12.5880   20.6520
H   29.0430   11.5650   20.7440
C   9.2210   14.9750   13.0480
H   9.9180   14.2170   12.6700
H   8.7250   15.4390   12.1860
H   8.5460   14.3880   13.6810
C   9.9500   16.0790   13.9260
C   11.1730   16.6700   13.5290
H   11.6950   16.2330   12.6830
C   11.7790   17.6500   14.3810
H   12.6890   18.1940   14.1470
C   11.0580   18.1190   15.4870
H   11.4490   19.0070   15.9740
C   9.8790   17.5550   15.8260
H   9.3990   17.9040   16.7360
C   9.3470   16.4720   15.1090
H   8.3400   16.1840   15.3940
C   13.1040   20.9490   22.1230
H   12.1100   21.0700   22.5720
H   13.3280   19.8760   22.1570
H   12.9300   21.4440   21.1600
C   14.1720   21.7290   22.9410
C   13.9780   23.0550   23.3640
H   12.9880   23.4780   23.2220
C   14.9570   23.7090   24.0980
H   14.8720   24.7370   24.4370
C   16.0910   23.0190   24.4910
H   16.8240   23.5570   25.0840
C   16.3390   21.7000   24.0260
H   17.2960   21.2060   24.1580
C   15.3480   21.0720   23.2660
H   15.4870   20.1110   22.7800
C   22.3270   16.0930   8.4030
H   22.3260   16.2600   9.4870
H   21.4310   15.6720   7.9300
H   22.4190   17.0690   7.9110
C   23.4930   15.2320   7.9250
C   24.6760   15.8080   7.3600
H   24.7170   16.8840   7.2220
C   25.8340   15.0550   7.0100
H   26.7290   15.6050   6.7360
C   25.7140   13.6410   7.1510
H   26.5440   12.9840   6.9070
C   24.5170   13.0840   7.6510
H   24.4140   12.0140   7.8020
C   23.4280   13.8620   7.9640
H   22.4620   13.4500   8.2420
C   13.3770   8.3710   11.1840
H   13.9280   8.9300   11.9500
H   12.7730   7.5980   11.6750
H   12.7470   9.0620   10.6100
C   14.2950   7.7300   10.0940
C   14.0090   6.4760   9.6240
H   13.0770   6.0180   9.9390
C   14.8900   5.7890   8.7340
H   14.6040   4.8470   8.2740
C   16.0940   6.4030   8.4280
H   16.8170   5.9830   7.7360
C   16.3240   7.7020   8.8800
H   17.2290   8.1990   8.5440
C   15.3900   8.3770   9.6670
H   15.4990   9.4410   9.8550
C   22.3720   27.5750   12.3440
H   22.6740   28.6260   12.2520
H   21.8660   27.2750   11.4180
H   23.3360   27.0640   12.4640
C   21.5860   27.1640   13.5380
C   20.6270   26.1270   13.4710
H   20.5230   25.5770   12.5400
C   19.8190   25.9080   14.6070
H   19.0410   25.1530   14.6740
C   19.8330   26.8130   15.6810
H   19.1800   26.6280   16.5280
C   20.7150   27.8320   15.6880
H   20.6750   28.5050   16.5390
C   21.6510   27.9300   14.6880
H   22.3640   28.7490   14.7160
C   26.3230   15.1720   24.4190
H   27.1730   15.7810   24.7530
H   26.9100   14.3730   23.9500
H   25.8350   14.6810   25.2700
C   25.2980   15.8310   23.5700
C   25.3310   17.2270   23.3880
H   26.0260   17.7850   24.0090
C   24.4240   17.8360   22.4700
H   24.3120   18.9080   22.3350
C   23.4800   16.9710   21.8510
H   22.7300   17.3880   21.1860
C   23.4350   15.6140   22.0990
H   22.6180   15.0160   21.7070
C   24.3990   15.0550   22.9540
H   24.2710   14.0400   23.3190
C   12.5310   21.3930   17.8850
H   13.2140   21.0900   17.0820
H   11.5950   21.6280   17.3640
H   12.3060   20.6590   18.6680
C   13.0320   22.5830   18.7360
C   12.2150   23.1990   19.6560
H   11.1450   23.0160   19.6540
C   12.8150   24.0790   20.5840
H   12.1470   24.6520   21.2210
C   14.2070   24.1490   20.7110
H   14.6570   24.8010   21.4530
C   15.0790   23.3670   19.9600
H   16.1550   23.3650   20.1040
C   14.4560   22.6230   18.9390
H   15.0290   21.9490   18.3100
C   14.8830   6.8570   21.3950
H   14.5830   5.8040   21.4680
H   14.1110   7.5640   21.0690
H   14.9540   7.1620   22.4460
C   16.2700   6.9730   20.7720
C   17.3370   6.4110   21.5060
H   17.0910   5.8820   22.4210
C   18.6390   6.6200   20.9560
H   19.4860   6.2070   21.4970
C   18.8360   7.1840   19.6870
H   19.8020   7.2850   19.2010
C   17.7740   7.7920   19.0310
H   17.9360   8.3530   18.1150
C   16.4720   7.7040   19.5680
H   15.6290   8.1750   19.0710
C   14.8160   10.5740   15.3720
H   14.3440   11.0040   14.4800
H   15.1400   11.3900   16.0290
H   13.9830   10.0440   15.8500
C   15.8760   9.5730   14.9300
C   15.5810   8.3740   14.2260
H   14.5360   8.2410   13.9630
C   16.5460   7.4790   13.7060
H   16.2100   6.6290   13.1200
C   17.8520   7.6230   14.2370
H   18.6540   6.9360   13.9850
C   18.1870   8.7030   14.9950
H   19.2350   8.8200   15.2580
C   17.2460   9.6850   15.4350
H   17.6780   10.4650   16.0550
C   8.0650   7.4040   17.5740
H   8.1270   8.0850   16.7160
H   7.5600   7.9240   18.3970
H   7.4880   6.4980   17.3480
C   9.4790   7.0660   18.0080
C   10.5440   7.9760   17.7650
H   10.3730   8.9450   17.3060
C   11.8290   7.6370   18.2640
H   12.7100   8.2510   18.1010
C   12.0090   6.4900   19.0190
H   13.0130   6.2290   19.3400
C   10.9610   5.6080   19.2070
H   11.1880   4.6980   19.7550
C   9.6610   5.8390   18.6640
H   8.8970   5.0800   18.8040
C   18.2400   9.3350   23.8980
H   18.4220   9.0030   24.9280
H   18.8890   10.1800   23.6390
H   18.3460   8.4310   23.2860
C   16.8430   9.7990   23.8620
C   16.4750   10.9760   23.2580
H   17.2340   11.5320   22.7170
C   15.1310   11.3650   23.2170
H   14.8330   12.3010   22.7540
C   14.1480   10.5800   23.8790
H   13.1240   10.9410   23.8510
C   14.5070   9.3760   24.4910
H   13.6960   8.7620   24.8720
C   15.8380   9.0020   24.5510
H   16.1540   8.1380   25.1280
C   10.9060   11.5230   15.8000
H   10.2660   12.1380   16.4450
H   11.8110   12.1010   15.5760
H   11.3030   10.7560   16.4760
C   10.1450   10.8230   14.6590
C   8.8800   11.1470   14.2680
H   8.3050   11.8430   14.8720
C   8.2310   10.3560   13.3000
H   7.1860   10.6060   13.1480
C   8.9080   9.2900   12.6040
H   8.3580   8.8160   11.7960
C   10.2410   9.0790   12.9680
H   10.7620   8.2900   12.4330
C   10.8540   9.7140   14.0870
H   11.8650   9.4940   14.4180
C   12.4900   20.4970   8.7300
H   11.7150   20.4740   7.9540
H   12.2270   19.9760   9.6590
H   13.3460   20.0150   8.2410
C   12.8650   21.9680   8.9270
C   12.1420   22.7970   9.8120
H   11.2610   22.4200   10.3220
C   12.3840   24.1720   9.8850
H   11.8920   24.7890   10.6310
C   13.4520   24.6990   9.1480
H   13.6750   25.7620   9.1740
C   14.2260   23.9500   8.2820
H   15.0110   24.4020   7.6830
C   13.8970   22.5400   8.1400
H   14.4070   21.9210   7.4080
C   25.2240   23.2580   12.7270
H   25.5120   24.3000   12.9180
H   24.9920   23.1420   11.6620
H   26.0960   22.6100   12.8790
C   24.1020   22.8110   13.7090
C   24.1040   23.2240   14.9730
H   24.9610   23.8230   15.2650
C   23.1140   22.7650   15.8740
H   23.0750   23.1170   16.9010
C   22.0540   21.9550   15.3630
H   21.3500   21.5740   16.0970
C   21.9790   21.6570   14.0120
H   21.2210   20.9940   13.6040
C   22.9780   22.0850   13.1860
H   22.9530   21.7500   12.1530
C   15.9690   24.2190   11.3740
H   16.8540   24.6850   11.8250
H   15.3350   25.1120   11.4330
H   16.1270   23.9390   10.3250
C   15.4160   23.1270   12.1800
C   15.0320   21.8940   11.5900
H   15.1170   21.7510   10.5170
C   14.4730   20.9160   12.4130
H   14.1800   19.9440   12.0280
C   14.3810   21.0610   13.7930
H   14.0500   20.2450   14.4290
C   14.8220   22.2110   14.4320
H   14.6700   22.2620   15.5060
C   15.2630   23.2580   13.6150
H   15.6250   24.2030   14.0110
C   7.9820   23.6640   20.2210
H   7.6700   24.1780   19.3030
H   8.8810   24.2110   20.5300
H   7.2090   23.8760   20.9700
C   8.2150   22.1450   20.0450
C   8.9820   21.3660   20.9660
H   9.4280   21.8310   21.8400
C   9.3410   20.0110   20.7260
H   9.9200   19.4750   21.4720
C   8.8720   19.3730   19.6080
H   9.2540   18.3910   19.3440
C   8.1140   20.1330   18.6130
H   7.8040   19.7260   17.6550
C   7.8120   21.5360   18.8670
H   7.2650   22.1110   18.1260
C   16.6400   17.6150   24.7630
H   16.2880   18.1500   25.6540
H   16.0580   17.8970   23.8770
H   17.6690   17.9180   24.5330
C   16.4320   16.1690   24.9640
C   17.4700   15.2850   24.7630
H   18.3820   15.6110   24.2700
C   17.2870   13.9420   25.1470
H   18.0430   13.2190   24.8550
C   16.0500   13.5080   25.7080
H   15.9690   12.4530   25.9550
C   15.0160   14.4460   25.9100
H   14.0840   14.0850   26.3350
C   15.2290   15.7710   25.5010
H   14.4230   16.4770   25.6750
C   9.8970   25.7470   14.8340
H   9.2600   26.2100   14.0700
H   10.9030   26.1810   14.8020
H   9.4340   25.9280   15.8120
C   10.1050   24.2760   14.5480
C   9.4830   23.4020   15.4380
H   8.7910   23.7840   16.1820
C   9.7180   22.0020   15.3700
H   9.2880   21.4530   16.2030
C   10.5190   21.4980   14.3610
H   10.5880   20.4200   14.2480
C   11.0160   22.3430   13.3520
H   11.7280   21.9650   12.6240
C   10.8610   23.7380   13.4830
H   11.4610   24.3570   12.8230
C   21.4460   7.1060   12.4470
H   20.6860   6.3340   12.6150
H   22.2500   6.4780   12.0440
H   21.0510   7.7230   11.6300
C   21.6030   8.0210   13.6490
C   21.7540   7.6760   14.9780
H   21.7640   6.6430   15.3150
C   21.9350   8.6230   16.0550
H   22.0640   8.3230   17.0910
C   22.1380   9.9860   15.6920
H   22.3350   10.8010   16.3830
C   22.0340   10.3260   14.3310
H   22.1590   11.3300   13.9360
C   21.6750   9.3700   13.3830
H   21.5590   9.7230   12.3630
C   22.9880   17.6800   12.2810
H   22.9180   16.8740   13.0210
H   23.7730   18.3620   12.6300
H   23.2480   17.2650   11.3000
C   21.6550   18.3490   12.1870
C   20.6220   18.0880   13.0570
H   20.7970   17.3350   13.8210
C   19.4340   18.7990   13.0450
H   18.7570   18.7330   13.8920
C   19.1760   19.7760   12.0220
H   18.2920   20.4060   12.0440
C   20.1570   19.9410   11.0580
H   19.9550   20.5700   10.1960
C   21.4170   19.2580   11.1840
H   22.2080   19.5330   10.4920
C   11.5670   16.9320   9.5720
H   12.2140   17.1360   8.7100
H   11.2820   15.8920   9.3700
H   12.1900   17.0270   10.4710
C   10.3380   17.8120   9.7330
C   9.4070   17.9080   8.6630
H   9.2760   17.1270   7.9200
C   8.4820   18.9870   8.6270
H   7.7350   19.0310   7.8400
C   8.4710   19.9600   9.6310
H   7.7480   20.7700   9.6540
C   9.3540   19.8350   10.7390
H   9.3650   20.4890   11.6050
C   10.1940   18.7130   10.7970
H   10.9300   18.6810   11.5950
C   12.7180   16.6050   23.0210
H   12.8130   16.8270   21.9510
H   13.7280   16.3210   23.3450
H   12.5000   17.5290   23.5710
C   11.8010   15.4010   23.1530
C   10.6200   15.4240   22.3970
H   10.4520   16.2470   21.7090
C   9.7560   14.2780   22.4410
H   8.8510   14.2660   21.8410
C   10.0090   13.2210   23.3230
H   9.3460   12.3640   23.2430
C   11.1890   13.1930   24.0600
H   11.5060   12.4190   24.7520
C   12.1210   14.2630   23.8890
H   13.0670   14.1720   24.4150
C   18.8420   17.6350   27.7520
H   18.1240   17.0240   28.3120
H   18.2540   18.2490   27.0590
H   19.3830   18.2440   28.4880
C   19.7860   16.8740   26.9420
C   20.9230   17.5130   26.3330
H   21.0460   18.5910   26.2770
C   21.9600   16.7460   25.6900
H   22.7590   17.2130   25.1220
C   21.8200   15.3540   25.7340
H   22.5620   14.8350   25.1340
C   20.7780   14.7860   26.4240
H   20.6730   13.7070   26.4980
C   19.7540   15.4920   26.9560
H   18.9700   15.0490   27.5620
C   25.2430   22.7500   18.9430
H   24.6510   23.3730   19.6240
H   24.6070   22.0920   18.3390
H   25.7690   23.4530   18.2840
C   26.2890   22.0890   19.8050
C   27.6530   22.5380   19.7650
H   27.8930   23.3990   19.1490
C   28.6720   21.9360   20.4790
H   29.6960   22.2960   20.4470
C   28.3120   20.9270   21.3620
H   29.1140   20.5670   22.0000
C   26.9480   20.4890   21.5060
H   26.7050   19.7450   22.2580
C   25.9360   21.0700   20.7010
H   24.8820   20.8350   20.8180
C   8.6660   14.0750   6.3660
H   9.5670   14.3180   5.7890
H   8.3130   15.1000   6.5330
H   8.0120   13.6260   5.6080
C   8.9520   13.1750   7.5700
C   9.2520   13.8780   8.7390
H   9.0790   14.9490   8.7860
C   9.7250   13.1670   9.8870
H   10.1540   13.6370   10.7670
C   9.7320   11.7360   9.9480
H   9.9080   11.1180   10.8230
C   9.4160   11.0830   8.7270
H   9.5500   10.0100   8.6190
C   9.0570   11.7790   7.5340
H   8.9280   11.2640   6.5870
C   8.9500   11.1620   20.3870
H   9.6770   10.3770   20.1430
H   8.1570   10.6850   20.9760
H   9.5010   11.9120   20.9680
C   8.2120   11.8340   19.2710
C   8.5700   13.1620   18.8940
H   9.3950   13.6460   19.4100
C   7.8880   13.7660   17.8650
H   8.0520   14.7920   17.5510
C   6.8730   13.0430   17.1600
H   6.3940   13.5060   16.3020
C   6.6020   11.7170   17.5240
H   5.9300   11.0650   16.9750
C   7.2670   11.0920   18.5130
H   6.9380   10.1170   18.8610
C   26.4570   12.4450   13.5550
H   27.1280   12.9590   14.2540
H   26.8800   12.5280   12.5470
H   26.3480   11.3870   13.8240
C   25.0650   13.0040   13.5080
C   24.3200   13.0670   12.3170
H   24.6950   12.4320   11.5200
C   23.1080   13.7070   12.1810
H   22.5800   13.8270   11.2400
C   22.5170   14.2950   13.4070
H   21.5280   14.7440   13.3850
C   23.1780   14.0720   14.6700
H   22.7680   14.3710   15.6300
C   24.4820   13.4620   14.6840
H   25.0670   13.3620   15.5930
C   17.5710   21.2480   6.8890
H   18.6510   21.3700   6.7390
H   17.1030   22.0750   7.4370
H   17.0720   21.3190   5.9150
C   17.2290   19.8820   7.3990
C   18.1980   19.0800   7.9940
H   19.2050   19.4850   8.0050
C   17.9790   17.8310   8.6610
H   18.7330   17.2870   9.2230
C   16.6260   17.3740   8.6220
H   16.3320   16.4460   9.1030
C   15.6520   18.0670   7.8430
H   14.6170   17.7430   7.7980
C   15.9210   19.3400   7.2650
H   15.0810   19.8910   6.8510
C   21.3760   21.0260   23.7240
H   20.4220   20.4870   23.7730
H   21.7020   21.4030   24.7020
H   22.0140   20.1900   23.4130
C   21.3200   22.2390   22.7430
C   21.4220   21.9180   21.3730
H   21.5590   20.8770   21.0950
C   21.1640   22.8820   20.4680
H   21.2420   22.6310   19.4150
C   20.8980   24.2170   20.9180
H   20.7360   25.0150   20.1990
C   20.8810   24.5300   22.2790
H   20.7390   25.5510   22.6190
C   21.0600   23.5250   23.2330
H   21.0710   23.7440   24.2960
C   13.4980   11.9160   9.8290
H   12.9760   11.0440   9.4180
H   12.8920   12.3220   10.6480
H   14.4620   11.6150   10.2580
C   13.7160   13.0320   8.7680
C   15.0200   13.6160   8.6070
H   15.8970   13.3430   9.1870
C   15.2000   14.6260   7.6390
H   16.2250   14.9300   7.4480
C   14.1260   14.9630   6.7830
H   14.1730   15.7170   6.0030
C   12.8520   14.5840   7.1130
H   12.0640   15.0130   6.5020
C   12.6470   13.5090   8.0450
H   11.7110   12.9710   8.1580
C   19.7440   10.5210   20.4450
H   19.1710   11.4550   20.4980
H   19.2620   9.7620   21.0740
H   19.7140   10.3290   19.3650
C   21.1430   10.7570   21.0140
C   22.2290   10.3180   20.2850
H   22.1500   9.9270   19.2750
C   23.5250   10.5680   20.8390
H   24.4000   10.2310   20.2920
C   23.7170   11.1630   22.0780
H   24.7300   11.2050   22.4680
C   22.5380   11.3930   22.8610
H   22.7390   11.7980   23.8480
C   21.2670   11.2310   22.2990
H   20.3950   11.6100   22.8240
C   29.8070   21.0370   16.6750
H   29.7320   22.0770   16.3350
H   30.3810   20.5460   15.8790
H   30.3680   20.9570   17.6140
C   28.4450   20.3010   16.9690
C   28.2260   19.5640   18.1860
H   29.0220   19.4550   18.9170
C   26.8940   19.1050   18.4470
H   26.6720   18.4880   19.3130
C   25.8510   19.3550   17.6180
H   24.8790   18.9520   17.8890
C   26.0900   20.0720   16.3750
H   25.2500   20.2200   15.7020
C   27.3720   20.5830   16.0780
H   27.4500   21.3560   15.3190
C   18.5500   10.0140   11.4130
H   18.7830   9.7570   12.4530
H   19.3500   9.5800   10.8000
H   17.6150   9.5640   11.0570
C   18.6360   11.5680   11.2050
C   19.5130   12.2330   10.3370
H   20.2410   11.5850   9.8580
C   19.5720   13.6310   10.2560
H   20.3650   14.1740   9.7510
C   18.5680   14.3480   10.9390
H   18.6520   15.4260   10.8390
C   17.6480   13.7120   11.7250
H   17.1040   14.3100   12.4500
C   17.7060   12.3240   11.9490
H   17.2340   11.8230   12.7890
C   22.1020   25.4310   5.5970
H   21.4160   26.2880   5.5930
H   21.7860   24.8510   4.7220
H   23.1330   25.7650   5.4260
C   21.9980   24.6230   6.8970
C   21.0770   23.5600   6.9970
H   20.5490   23.2000   6.1180
C   20.8770   22.8840   8.2000
H   20.2320   22.0110   8.2230
C   21.4880   23.3510   9.3830
H   21.2750   22.8260   10.3090
C   22.4070   24.4640   9.3180
H   22.8440   24.9190   10.2020
C   22.7460   25.0220   8.0470
H   23.4980   25.8030   7.9750
C   19.3888   18.4983   21.4114
H   20.0879   18.4800   22.2297
H   18.8022   19.3994   21.4659
H   19.9862   18.5466   20.5140
C   18.5230   17.2503   21.4194
C   17.1426   17.3111   21.2230
H   16.6413   18.2616   21.1494
C   16.3881   16.1394   21.1444
H   15.3189   16.1952   21.0078
C   17.0081   14.9097   21.3156
H   16.4541   13.9773   21.3553
C   18.3782   14.8344   21.5197
H   18.9005   13.9033   21.6712
C   19.1306   16.0051   21.6096
H   20.1807   15.9567   21.8276
562
Frame 12
C   16.4683   15.4137   16.9885
C   18.5320   16.6227   16.7018
C   16.0763   17.8886   17.5783
C   19.1991   16.0706   17.9446
C   19.4751   16.9048   15.5739
N   17.5037   15.6820   16.2229
N   15.3718   14.9054   16.4591
O   15.4507   18.1395   16.2522
H   14.7337   17.5039   16.2099
H   17.2606   15.8560   15.2498
H   16.5638   15.4209   18.0511
H   17.9979   17.5215   16.9641
H   14.5593   14.7246   17.0279
H   15.1600   15.1257   15.5092
H   16.7682   18.7541   17.7667
H   15.2948   17.9913   18.3617
H   19.9735   16.7747   18.2384
H   18.8746   17.1075   14.6898
H   19.6413   15.1070   17.7874
H   18.4998   16.0038   18.7676
H   20.0326   17.7952   15.8433
H   20.1647   16.0802   15.3796
C   31.0130   13.4690   20.5000
H   31.2490   12.6100   21.1410
H   31.6000   14.3580   20.7590
H   31.3090   13.1730   19.4860
C   29.5240   13.6930   20.5110
C   28.9490   14.9820   20.4600
H   29.6230   15.8190   20.3030
C   27.5460   15.1780   20.4020
H   27.1240   16.1710   20.2790
C   26.7510   14.0910   20.7820
H   25.6720   14.1250   20.8970
C   27.2930   12.7880   20.7300
H   26.5470   12.0120   20.8740
C   28.6890   12.5880   20.6520
H   29.0430   11.5650   20.7440
C   9.2210   14.9750   13.0480
H   9.9180   14.2170   12.6700
H   8.7250   15.4390   12.1860
H   8.5460   14.3880   13.6810
C   9.9500   16.0790   13.9260
C   11.1730   16.6700   13.5290
H   11.6950   16.2330   12.6830
C   11.7790   17.6500   14.3810
H   12.6890   18.1940   14.1470
C   11.0580   18.1190   15.4870
H   11.4490   19.0070   15.9740
C   9.8790   17.5550   15.8260
H   9.3990   17.9040   16.7360
C   9.3470   16.4720   15.1090
H   8.3400   16.1840   15.3940
C   13.1040   20.9490   22.1230
H   12.1100   21.0700   22.5720
H   13.3280   19.8760   22.1570
H   12.9300   21.4440   21.1600
C   14.1720   21.7290   22.9410
C   13.9780   23.0550   23.3640
H   12.9880   23.4780   23.2220
C   14.9570   23.7090   24.0980
H   14.8720   24.7370   24.4370
C   16.0910   23.0190   24.4910
H   16.8240   23.5570   25.0840
C   16.3390   21.7000   24.0260
H   17.2960   21.2060   24.1580
C   15.3480   21.0720   23.2660
H   15.4870   20.1110   22.7800
C   22.3270   16.0930   8.4030
H   22.3260   16.2600   9.4870
H   21.4310   15.6720   7.9300
H   22.4190   17.0690   7.9110
C   23.4930   15.2320   7.9250
C   24.6760   15.8080   7.3600
H   24.7170   16.8840   7.2220
C   25.8340   15.0550   7.0100
H   26.7290   15.6050   6.7360
C   25.7140   13.6410   7.1510
H   26.5440   12.9840   6.9070
C   24.5170   13.0840   7.6510
H   24.4140   12.0140   7.8020
C   23.4280   13.8620   7.9640
H   22.4620   13.4500   8.2420
C   13.3770   8.3710   11.1840
H   13.9280   8.9300   11.9500
H   12.7730   7.5980   11.6750
H   12.7470   9.0620   10.6100
C   14.2950   7.7300   10.0940
C   14.0090   6.4760   9.6240
H   13.0770   6.0180   9.9390
C   14.8900   5.7890   8.7340
H   14.6040   4.8470   8.2740
C   16.0940   6.4030   8.4280
H   16.8170   5.9830   7.7360
C   16.3240   7.7020   8.8800
H   17.2290   8.1990   8.5440
C   15.3900   8.3770   9.6670
H   15.4990   9.4410   9.8550
C   22.3720   27.5750   12.3440
H   22.6740   28.6260   12.2520
H   21.8660   27.2750   11.4180
H   23.3360   27.0640   12.4640
C   21.5860   27.1640   13.5380
C   20.6270   26.1270   13.4710
H   20.5230   25.5770   12.5400
C   19.8190   25.9080   14.6070
H   19.0410   25.1530   14.6740
C   19.8330   26.8130   15.6810
H   19.1800   26.6280   16.5280
C   20.7150   27.8320   15.6880
H   20.6750   28.5050   16.5390
C   21.6510   27.9300   14.6880
H   22.3640   28.7490   14.7160
C   26.3230   15.1720   24.4190
H   27.1730   15.7810   24.7530
H   26.9100   14.3730   23.9500
H   25.8350   14.6810   25.2700
C   25.2980   15.8310   23.5700
C   25.3310   17.2270   23.3880
H   26.0260   17.7850   24.0090
C   24.4240   17.8360   22.4700
H   24.3120   18.9080   22.3350
C   23.4800   16.9710   21.8510
H   22.7300   17.3880   21.1860
C   23.4350   15.6140   22.0990
H   22.6180   15.0160   21.7070
C   24.3990   15.0550   22.9540
H   24.2710   14.0400   23.3190
C   12.5310   21.3930   17.8850
H   13.2140   21.0900   17.0820
H   11.5950   21.6280   17.3640
H   12.3060   20.6590   18.6680
C   13.0320   22.5830   18.7360
C   12.2150   23.1990   19.6560
H   11.1450   23.0160   19.6540
C   12.8150   24.0790   20.5840
H   12.1470   24.6520   21.2210
C   14.2070   24.1490   20.7110
H   14.6570   24.8010   21.4530
C   15.0790   23.3670   19.9600
H   16.1550   23.3650   20.1040
C   14.4560   22.6230   18.9390
H   15.0290   21.9490   18.3100
C   14.8830   6.8570   21.3950
H   14.5830   5.8040   21.4680
H   14.1110   7.5640   21.0690
H   14.9540   7.1620   22.4460
C   16.2700   6.9730   20.7720
C   17.3370   6.4110   21.5060
H   17.0910   5.8820   22.4210
C   18.6390   6.6200   20.9560
H   19.4860   6.2070   21.4970
C   18.8360   7.1840   19.6870
H   19.8020   7.2850   19.2010
C   17.7740   7.7920   19.0310
H   17.9360   8.3530   18.1150
C   16.4720   7.7040   19.5680
H   15.6290   8.1750   19.0710
C   14.8160   10.5740   15.3720
H   14.3440   11.0040   14.4800
H   15.1400   11.3900   16.0290
H   13.9830   10.0440   15.8500
C   15.8760   9.5730   14.9300
C   15.5810   8.3740   14.2260
H   14.5360   8.2410   13.9630
C   16.5460   7.4790   13.7060
H   16.2100   6.6290   13.1200
C   17.8520   7.6230   14.2370
H   18.6540   6.9360   13.9850
C   18.1870   8.7030   14.9950
H   19.2350   8.8200   15.2580
C   17.2460   9.6850   15.4350
H   17.6780   10.4650   16.0550
C   8.0650   7.4040   17.5740
H   8.1270   8.0850   16.7160
H   7.5600   7.9240   18.3970
H   7.4880   6.4980   17.3480
C   9.4790   7.0660   18.0080
C   10.5440   7.9760   17.7650
H   10.3730   8.9450   17.3060
C   11.8290   7.6370   18.2640
H   12.7100   8.2510   18.1010
C   12.0090   6.4900   19.0190
H   13.0130   6.2290   19.3400
C   10.9610   5.6080   19.2070
H   11.1880   4.6980   19.7550
C   9.6610   5.8390   18.6640
H   8.8970   5.0800   18.8040
C   18.2400   9.3350   23.8980
H   18.4220   9.0030   24.9280
H   18.8890   10.1800   23.6390
H   18.3460   8.4310   23.2860
C   16.8430   9.7990   23.8620
C   16.4750   10.9760   23.2580
H   17.2340   11.5320   22.7170
C   15.1310   11.3650   23.2170
H   14.8330   12.3010   22.7540
C   14.1480   10.5800   23.8790
H   13.1240   10.9410   23.8510
C   14.5070   9.3760   24.4910
H   13.6960   8.7620   24.8720
C   15.8380   9.0020   24.5510
H   16.1540   8.1380   25.1280
C   10.9060   11.5230   15.8000
H   10.2660   12.1380   16.4450
H   11.8110   12.1010   15.5760
H   11.3030   10.7560   16.4760
C   10.1450   10.8230   14.6590
C   8.8800   11.1470   14.2680
H   8.3050   11.8430   14.8720
C   8.2310   10.3560   13.3000
H   7.1860   10.6060   13.1480
C   8.9080   9.2900   12.6040
H   8.3580   8.8160   11.7960
C   10.2410   9.0790   12.9680
H   10.7620   8.2900   12.4330
C   10.8540   9.7140   14.0870
H   11.8650   9.4940   14.4180
C   12.4900   20.4970   8.7300
H   11.7150   20.4740   7.9540
H   12.2270   19.9760   9.6590
H   13.3460   20.0150   8.2410
C   12.8650   21.9680   8.9270
C   12.1420   22.7970   9.8120
H   11.2610   22.4200   10.3220
C   12.3840   24.1720   9.8850
H   11.8920   24.7890   10.6310
C   13.4520   24.6990   9.1480
H   13.6750   25.7620   9.1740
C   14.2260   23.9500   8.2820
H   15.0110   24.4020   7.6830
C   13.8970   22.5400   8.1400
H   14.4070   21.9210   7.4080
C   25.2240   23.2580   12.7270
H   25.5120   24.3000   12.9180
H   24.9920   23.1420   11.6620
H   26.0960   22.6100   12.8790
C   24.1020   22.8110   13.7090
C   24.1040   23.2240   14.9730
H   24.9610   23.8230   15.2650
C   23.1140   22.7650   15.8740
H   23.0750   23.1170   16.9010
C   22.0540   21.9550   15.3630
H   21.3500   21.5740   16.0970
C   21.9790   21.6570   14.0120
H   21.2210   20.9940   13.6040
C   22.9780   22.0850   13.1860
H   22.9530   21.7500   12.1530
C   15.9690   24.2190   11.3740
H   16.8540   24.6850   11.8250
H   15.3350   25.1120   11.4330
H   16.1270   23.9390   10.3250
C   15.4160   23.1270   12.1800
C   15.0320   21.8940   11.5900
H   15.1170   21.7510   10.5170
C   14.4730   20.9160   12.4130
H   14.1800   19.9440   12.0280
C   14.3810   21.0610   13.7930
H   14.0500   20.2450   14.4290
C   14.8220   22.2110   14.4320
H   14.6700   22.2620   15.5060
C   15.2630   23.2580   13.6150
H   15.6250   24.2030   14.0110
C   7.9820   23.6640   20.2210
H   7.6700   24.1780   19.3030
H   8.8810   24.2110   20.5300
H   7.2090   23.8760   20.9700
C   8.2150   22.1450   20.0450
C   8.9820   21.3660   20.9660
H   9.4280   21.8310   21.8400
C   9.3410   20.0110   20.7260
H   9.9200   19.4750   21.4720
C   8.8720   19.3730   19.6080
H   9.2540   18.3910   19.3440
C   8.1140   20.1330   18.6130
H   7.8040   19.7260   17.6550
C   7.8120   21.5360   18.8670
H   7.2650   22.1110   18.1260
C   16.6400   17.6150   24.7630
H   16.2880   18.1500   25.6540
H   16.0580   17.8970   23.8770
H   17.6690   17.9180   24.5330
C   16.4320   16.1690   24.9640
C   17.4700   15.2850   24.7630
H   18.3820   15.6110   24.2700
C   17.2870   13.9420   25.1470
H   18.0430   13.2190   24.8550
C   16.0500   13.5080   25.7080
H   15.9690   12.4530   25.9550
C   15.0160   14.4460   25.9100
H   14.0840   14.0850   26.3350
C   15.2290   15.7710   25.5010
H   14.4230   16.4770   25.6750
C   9.8970   25.7470   14.8340
H   9.2600   26.2100   14.0700
H   10.9030   26.1810   14.8020
H   9.4340   25.9280   15.8120
C   10.1050   24.2760   14.5480
C   9.4830   23.4020   15.4380
H   8.7910   23.7840   16.1820
C   9.7180   22.0020   15.3700
H   9.2880   21.4530   16.2030
C   10.5190   21.4980   14.3610
H   10.5880   20.4200   14.2480
C   11.0160   22.3430   13.3520
H   11.7280   21.9650   12.6240
C   10.8610   23.7380   13.4830
H   11.4610   24.3570   12.8230
C   21.4460   7.1060   12.4470
H   20.6860   6.3340   12.6150
H   22.2500   6.4780   12.0440
H   21.0510   7.7230   11.6300
C   21.6030   8.0210   13.6490
C   21.7540   7.6760   14.9780
H   21.7640   6.6430   15.3150
C   21.9350   8.6230   16.0550
H   22.0640   8.3230   17.0910
C   22.1380   9.9860   15.6920
H   22.3350   10.8010   16.3830
C   22.0340   10.3260   14.3310
H   22.1590   11.3300   13.9360
C   21.6750   9.3700   13.3830
H   21.5590   9.7230   12.3630
C   22.9880   17.6800   12.2810
H   22.9180   16.8740   13.0210
H   23.7730   18.3620   12.6300
H   23.2480   17.2650   11.3000
C   21.6550   18.3490   12.1870
C   20.6220   18.0880   13.0570
H   20.7970   17.3350   13.8210
C   19.4340   18.7990   13.0450
H   18.7570   18.7330   13.8920
C   19.1760   19.7760   12.0220
H   18.2920   20.4060   12.0440
C   20.1570   19.9410   11.0580
H   19.9550   20.5700   10.1960
C   21.4170   19.2580   11.1840
H   22.2080   19.5330   10.4920
C   11.5670   16.9320   9.5720
H   12.2140   17.1360   8.7100
H   11.2820   15.8920   9.3700
H   12.1900   17.0270   10.4710
C   10.3380   17.8120   9.7330
C   9.4070   17.9080   8.6630
H   9.2760   17.1270   7.9200
C   8.4820   18.9870   8.6270
H   7.7350   19.0310   7.8400
C   8.4710   19.9600   9.6310
H   7.7480   20.7700   9.6540
C   9.3540   19.8350   10.7390
H   9.3650   20.4890   11.6050
C   10.1940   18.7130   10.7970
H   10.9300   18.6810   11.5950
C   12.7180   16.6050   23.0210
H   12.8130   16.8270   21.9510
H   13.7280   16.3210   23.3450
H   12.5000   17.5290   23.5710
C   11.8010   15.4010   23.1530
C   10.6200   15.4240   22.3970
H   10.4520   16.2470   21.7090
C   9.7560   14.2780   22.4410
H   8.8510   14.2660   21.8410
C   10.0090   13.2210   23.3230
H   9.3460   12.3640   23.2430
C   11.1890   13.1930   24.0600
H   11.5060   12.4190   24.7520
C   12.1210   14.2630   23.8890
H   13.0670   14.1720   24.4150
C   18.8420   17.6350   27.7520
H   18.1240   17.0240   28.3120
H   18.2540   18.2490   27.0590
H   19.3830   18.2440   28.4880
C   19.7860   16.8740   26.9420
C   20.9230   17.5130   26.3330
H   21.0460   18.5910   26.2770
C   21.9600   16.7460   25.6900
H   22.7590   17.2130   25.1220
C   21.8200   15.3540   25.7340
H   22.5620   14.8350   25.1340
C   20.7780   14.7860   26.4240
H   20.6730   13.7070   26.4980
C   19.7540   15.4920   26.9560
H   18.9700   15.0490   27.5620
C   25.2430   22.7500   18.9430
H   24.6510   23.3730   19.6240
H   24.6070   22.0920   18.3390
H   25.7690   23.4530   18.2840
C   26.2890   22.0890   19.8050
C   27.6530   22.5380   19.7650
H   27.8930   23.3990   19.1490
C   28.6720   21.9360   20.4790
H   29.6960   22.2960   20.4470
C   28.3120   20.9270   21.3620
H   29.1140   20.5670   22.0000
C   26.9480   20.4890   21.5060
H   26.7050   19.7450   22.2580
C   25.9360   21.0700   20.7010
H   24.8820   20.8350   20.8180
C   8.6660   14.0750   6.3660
H   9.5670   14.3180   5.7890
H   8.3130   15.1000   6.5330
H   8.0120   13.6260   5.6080
C   8.9520   13.1750   7.5700
C   9.2520   13.8780   8.7390
H   9.0790   14.9490   8.7860
C   9.7250   13.1670   9.8870
H   10.1540   13.6370   10.7670
C   9.7320   11.7360   9.9480
H   9.9080   11.1180   10.8230
C   9.4160   11.0830   8.7270
H   9.5500   10.0100   8.6190
C   9.0570   11.7790   7.5340
H   8.9280   11.2640   6.5870
C   8.9500   11.1620   20.3870
H   9.6770   10.3770   20.1430
H   8.1570   10.6850   20.9760
H   9.5010   11.9120   20.9680
C   8.2120   11.8340   19.2710
C   8.5700   13.1620   18.8940
H   9.3950   13.6460   19.4100
C   7.8880   13.7660   17.8650
H   8.0520   14.7920   17.5510
C   6.8730   13.0430   17.1600
H   6.3940   13.5060   16.3020
C   6.6020   11.7170   17.5240
H   5.9300   11.0650   16.9750
C   7.2670   11.0920   18.5130
H   6.9380   10.1170   18.8610
C   26.4570   12.4450   13.5550
H   27.1280   12.9590   14.2540
H   26.8800   12.5280   12.5470
H   26.3480   11.3870   13.8240
C   25.0650   13.0040   13.5080
C   24.3200   13.0670   12.3170
H   24.6950   12.4320   11.5200
C   23.1080   13.7070   12.1810
H   22.5800   13.8270   11.2400
C   22.5170   14.2950   13.4070
H   21.5280   14.7440   13.3850
C   23.1780   14.0720   14.6700
H   22.7680   14.3710   15.6300
C   24.4820   13.4620   14.6840
H   25.0670   13.3620   15.5930
C   17.5710   21.2480   6.8890
H   18.6510   21.3700   6.7390
H   17.1030   22.0750   7.4370
H   17.0720   21.3190   5.9150
C   17.2290   19.8820   7.3990
C   18.1980   19.0800   7.9940
H   19.2050   19.4850   8.0050
C   17.9790   17.8310   8.6610
H   18.7330   17.2870   9.2230
C   16.6260   17.3740   8.6220
H   16.3320   16.4460   9.1030
C   15.6520   18.0670   7.8430
H   14.6170   17.7430   7.7980
C   15.9210   19.3400   7.2650
H   15.0810   19.8910   6.8510
C   21.3760   21.0260   23.7240
H   20.4220   20.4870   23.7730
H   21.7020   21.4030   24.7020
H   22.0140   20.1900   23.4130
C   21.3200   22.2390   22.7430
C   21.4220   21.9180   21.3730
H   21.5590   20.8770   21.0950
C   21.1640   22.8820   20.4680
H   21.2420   22.6310   19.4150
C   20.8980   24.2170   20.9180
H   20.7360   25.0150   20.1990
C   20.8810   24.5300   22.2790
H   20.7390   25.5510   22.6190
C   21.0600   23.5250   23.2330
H   21.0710   23.7440   24.2960
C   13.4980   11.9160   9.8290
H   12.9760   11.0440   9.4180
H   12.8920   12.3220   10.6480
H   14.4620   11.6150   10.2580
C   13.7160   13.0320   8.7680
C   15.0200   13.6160   8.6070
H   15.8970   13.3430   9.1870
C   15.2000   14.6260   7.6390
H   16.2250   14.9300   7.4480
C   14.1260   14.9630   6.7830
H   14.1730   15.7170   6.0030
C   12.8520   14.5840   7.1130
H   12.0640   15.0130   6.5020
C   12.6470   13.5090   8.0450
H   11.7110   12.9710   8.1580
C   19.7440   10.5210   20.4450
H   19.1710   11.4550   20.4980
H   19.2620   9.7620   21.0740
H   19.7140   10.3290   19.3650
C   21.1430   10.7570   21.0140
C   22.2290   10.3180   20.2850
H   22.1500   9.9270   19.2750
C   23.5250   10.5680   20.8390
H   24.4000   10.2310   20.2920
C   23.7170   11.1630   22.0780
H   24.7300   11.2050   22.4680
C   22.5380   11.3930   22.8610
H   22.7390   11.7980   23.8480
C   21.2670   11.2310   22.2990
H   20.3950   11.6100   22.8240
C   29.8070   21.0370   16.6750
H   29.7320   22.0770   16.3350
H   30.3810   20.5460   15.8790
H   30.3680   20.9570   17.6140
C   28.4450   20.3010   16.9690
C   28.2260   19.5640   18.1860
H   29.0220   19.4550   18.9170
C   26.8940   19.1050   18.4470
H   26.6720   18.4880   19.3130
C   25.8510   19.3550   17.6180
H   24.8790   18.9520   17.8890
C   26.0900   20.0720   16.3750
H   25.2500   20.2200   15.7020
C   27.3720   20.5830   16.0780
H   27.4500   21.3560   15.3190
C   18.5500   10.0140   11.4130
H   18.7830   9.7570   12.4530
H   19.3500   9.5800   10.8000
H   17.6150   9.5640   11.0570
C   18.6360   11.5680   11.2050
C   19.5130   12.2330   10.3370
H   20.2410   11.5850   9.8580
C   19.5720   13.6310   10.2560
H   20.3650   14.1740   9.7510
C   18.5680   14.3480   10.9390
H   18.6520   15.4260   10.8390
C   17.6480   13.7120   11.7250
H   17.1040   14.3100   12.4500
C   17.7060   12.3240   11.9490
H   17.2340   11.8230   12.7890
C   22.1020   25.4310   5.5970
H   21.4160   26.2880   5.5930
H   21.7860   24.8510   4.7220
H   23.1330   25.7650   5.4260
C   21.9980   24.6230   6.8970
C   21.0770   23.5600   6.9970
H   20.5490   23.2000   6.1180
C   20.8770   22.8840   8.2000
H   20.2320   22.0110   8.2230
C   21.4880   23.3510   9.3830
H   21.2750   22.8260   10.3090
C   22.4070   24.4640   9.3180
H   22.8440   24.9190   10.2020
C   22.7460   25.0220   8.0470
H   23.4980   25.8030   7.9750
C   19.3846   18.4962   21.4103
H   20.0868   18.4831   22.2324
H   18.8010   19.3980   21.4715
H   19.9847   18.5455   20.5129
C   18.5207   17.2494   21.4197
C   17.1406   17.3094   21.2207
H   16.6421   18.2653   21.1552
C   16.3888   16.1360   21.1459
H   15.3207   16.2004   21.0025
C   17.0098   14.9064   21.3207
H   16.4522   13.9785   21.3635
C   18.3812   14.8345   21.5234
H   18.9007   13.8990   21.6734
C   19.1302   16.0076   21.6053
H   20.1808   15.9547   21.8261
562
Frame 13
C   16.4736   15.4222   16.9943
C   18.5339   16.6224   16.7106
C   16.0540   17.8868   17.5831
C   19.2012   16.0696   17.9464
C   19.4728   16.8968   15.5780
N   17.5128   15.6846   16.2304
N   15.3750   14.9025   16.4726
O   15.4429   18.1390   16.2558
H   14.6953   17.5284   16.2170
H   17.2802   15.8512   15.2594
H   16.5651   15.4388   18.0572
H   17.9994   17.5161   16.9737
H   14.5548   14.7410   17.0384
H   15.1635   15.1173   15.5122
H   16.7546   18.7314   17.7777
H   15.2601   18.0113   18.3574
H   19.9840   16.7672   18.2472
H   18.8841   17.0857   14.6848
H   19.6416   15.1054   17.7779
H   18.5046   15.9879   18.7718
H   20.0394   17.7859   15.8276
H   20.1670   16.0738   15.3908
C   31.0130   13.4690   20.5000
H   31.2490   12.6100   21.1410
H   31.6000   14.3580   20.7590
H   31.3090   13.1730   19.4860
C   29.5240   13.6930   20.5110
C   28.9490   14.9820   20.4600
H   29.6230   15.8190   20.3030
C   27.5460   15.1780   20.4020
H   27.1240   16.1710   20.2790
C   26.7510   14.0910   20.7820
H   25.6720   14.1250   20.8970
C   27.2930   12.7880   20.7300
H   26.5470   12.0120   20.8740
C   28.6890   12.5880   20.6520
H   29.0430   11.5650   20.7440
C   9.2210   14.9750   13.0480
H   9.9180   14.2170   12.6700
H   8.7250   15.4390   12.1860
H   8.5460   14.3880   13.6810
C   9.9500   16.0790   13.9260
C   11.1730   16.6700   13.5290
H   11.6950   16.2330   12.6830
C   11.7790   17.6500   14.3810
H   12.6890   18.1940   14.1470
C   11.0580   18.1190   15.4870
H   11.4490   19.0070   15.9740
C   9.8790   17.5550   15.8260
H   9.3990   17.9040   16.7360
C   9.3470   16.4720   15.1090
H   8.3400   16.1840   15.3940
C   13.1040   20.9490   22.1230
H   12.1100   21.0700   22.5720
H   13.3280   19.8760   22.1570
H   12.9300   21.4440   21.1600
C   14.1720   21.7290   22.9410
C   13.9780   23.0550   23.3640
H   12.9880   23.4780   23.2220
C   14.9570   23.7090   24.0980
H   14.8720   24.7370   24.4370
C   16.0910   23.0190   24.4910
H   16.8240   23.5570   25.0840
C   16.3390   21.7000   24.0260
H   17.2960   21.2060   24.1580
C   15.3480   21.0720   23.2660
H   15.4870   20.1110   22.7800
C   22.3270   16.0930   8.4030
H   22.3260   16.2600   9.4870
H   21.4310   15.6720   7.9300
H   22.4190   17.0690   7.9110
C   23.4930   15.2320   7.9250
C   24.6760   15.8080   7.3600
H   24.7170   16.8840   7.2220
C   25.8340   15.0550   7.0100
H   26.7290   15.6050   6.7360
C   25.7140   13.6410   7.1510
H   26.5440   12.9840   6.9070
C   24.5170   13.0840   7.6510
H   24.4140   12.0140   7.8020
C   23.4280   13.8620   7.9640
H   22.4620   13.4500   8.2420
C   13.3770   8.3710   11.1840
H   13.9280   8.9300   11.9500
H   12.7730   7.5980   11.6750
H   12.7470   9.0620   10.6100
C   14.2950   7.7300   10.0940
C   14.0090   6.4760   9.6240
H   13.0770   6.0180   9.9390
C   14.8900   5.7890   8.7340
H   14.6040   4.8470   8.2740
C   16.0940   6.4030   8.4280
H   16.8170   5.9830   7.7360
C   16.3240   7.7020   8.8800
H   17.2290   8.1990   8.5440
C   15.3900   8.3770   9.6670
H   15.4990   9.4410   9.8550
C   22.3720   27.5750   12.3440
H   22.6740   28.6260   12.2520
H   21.8660   27.2750   11.4180
H   23.3360   27.0640   12.4640
C   21.5860   27.1640   13.5380
C   20.6270   26.1270   13.4710
H   20.5230   25.5770   12.5400
C   19.8190   25.9080   14.6070
H   19.0410   25.1530   14.6740
C   19.8330   26.8130   15.6810
H   19.1800   26.6280   16.5280
C   20.7150   27.8320   15.6880
H   20.6750   28.5050   16.5390
C   21.6510   27.9300   14.6880
H   22.3640   28.7490   14.7160
C   26.3230   15.1720   24.4190
H   27.1730   15.7810   24.7530
H   26.9100   14.3730   23.9500
H   25.8350   14.6810   25.2700
C   25.2980   15.8310   23.5700
C   25.3310   17.2270   23.3880
H   26.0260   17.7850   24.0090
C   24.4240   17.8360   22.4700
H   24.3120   18.9080   22.3350
C   23.4800   16.9710   21.8510
H   22.7300   17.3880   21.1860
C   23.4350   15.6140   22.0990
H   22.6180   15.0160   21.7070
C   24.3990   15.0550   22.9540
H   24.2710   14.0400   23.3190
C   12.5310   21.3930   17.8850
H   13.2140   21.0900   17.0820
H   11.5950   21.6280   17.3640
H   12.3060   20.6590   18.6680
C   13.0320   22.5830   18.7360
C   12.2150   23.1990   19.6560
H   11.1450   23.0160   19.6540
C   12.8150   24.0790   20.5840
H   12.1470   24.6520   21.2210
C   14.2070   24.1490   20.7110
H   14.6570   24.8010   21.4530
C   15.0790   23.3670   19.9600
H   16.1550   23.3650   20.1040
C   14.4560   22.6230   18.9390
H   15.0290   21.9490   18.3100
C   14.8830   6.8570   21.3950
H   14.5830   5.8040   21.4680
H   14.1110   7.5640   21.0690
H   14.9540   7.1620   22.4460
C   16.2700   6.9730   20.7720
C   17.3370   6.4110   21.5060
H   17.0910   5.8820   22.4210
C   18.6390   6.6200   20.9560
H   19.4860   6.2070   21.4970
C   18.8360   7.1840   19.6870
H   19.8020   7.2850   19.2010
C   17.7740   7.7920   19.0310
H   17.9360   8.3530   18.1150
C   16.4720   7.7040   19.5680
H   15.6290   8.1750   19.0710
C   14.8160   10.5740   15.3720
H   14.3440   11.0040   14.4800
H   15.1400   11.3900   16.0290
H   13.9830   10.0440   15.8500
C   15.8760   9.5730   14.9300
C   15.5810   8.3740   14.2260
H   14.5360   8.2410   13.9630
C   16.5460   7.4790   13.7060
H   16.2100   6.6290   13.1200
C   17.8520   7.6230   14.2370
H   18.6540   6.9360   13.9850
C   18.1870   8.7030   14.9950
H   19.2350   8.8200   15.2580
C   17.2460   9.6850   15.4350
H   17.6780   10.4650   16.0550
C   8.0650   7.4040   17.5740
H   8.1270   8.0850   16.7160
H   7.5600   7.9240   18.3970
H   7.4880   6.4980   17.3480
C   9.4790   7.0660   18.0080
C   10.5440   7.9760   17.7650
H   10.3730   8.9450   17.3060
C   11.8290   7.6370   18.2640
H   12.7100   8.2510   18.1010
C   12.0090   6.4900   19.0190
H   13.0130   6.2290   19.3400
C   10.9610   5.6080   19.2070
H   11.1880   4.6980   19.7550
C   9.6610   5.8390   18.6640
H   8.8970   5.0800   18.8040
C   18.2400   9.3350   23.8980
H   18.4220   9.0030   24.9280
H   18.8890   10.1800   23.6390
H   18.3460   8.4310   23.2860
C   16.8430   9.7990   23.8620
C   16.4750   10.9760   23.2580
H   17.2340   11.5320   22.7170
C   15.1310   11.3650   23.2170
H   14.8330   12.3010   22.7540
C   14.1480   10.5800   23.8790
H   13.1240   10.9410   23.8510
C   14.5070   9.3760   24.4910
H   13.6960   8.7620   24.8720
C   15.8380   9.0020   24.5510
H   16.1540   8.1380   25.1280
C   10.9060   11.5230   15.8000
H   10.2660   12.1380   16.4450
H   11.8110   12.1010   15.5760
H   11.3030   10.7560   16.4760
C   10.1450   10.8230   14.6590
C   8.8800   11.1470   14.2680
H   8.3050   11.8430   14.8720
C   8.2310   10.3560   13.3000
H   7.1860   10.6060   13.1480
C   8.9080   9.2900   12.6040
H   8.3580   8.8160   11.7960
C   10.2410   9.0790   12.9680
H   10.7620   8.2900   12.4330
C   10.8540   9.7140   14.0870
H   11.8650   9.4940   14.4180
C   12.4900   20.4970   8.7300
H   11.7150   20.4740   7.9540
H   12.2270   19.9760   9.6590
H   13.3460   20.0150   8.2410
C   12.8650   21.9680   8.9270
C   12.1420   22.7970   9.8120
H   11.2610   22.4200   10.3220
C   12.3840   24.1720   9.8850
H   11.8920   24.7890   10.6310
C   13.4520   24.6990   9.1480
H   13.6750   25.7620   9.1740
C   14.2260   23.9500   8.2820
H   15.0110   24.4020   7.6830
C   13.8970   22.5400   8.1400
H   14.4070   21.9210   7.4080
C   25.2240   23.2580   12.7270
H   25.5120   24.3000   12.9180
H   24.9920   23.1420   11.6620
H   26.0960   22.6100   12.8790
C   24.1020   22.8110   13.7090
C   24.1040   23.2240   14.9730
H   24.9610   23.8230   15.2650
C   23.1140   22.7650   15.8740
H   23.0750   23.1170   16.9010
C   22.0540   21.9550   15.3630
H   21.3500   21.5740   16.0970
C   21.9790   21.6570   14.0120
H   21.2210   20.9940   13.6040
C   22.9780   22.0850   13.1860
H   22.9530   21.7500   12.1530
C   15.9690   24.2190   11.3740
H   16.8540   24.6850   11.8250
H   15.3350   25.1120   11.4330
H   16.1270   23.9390   10.3250
C   15.4160   23.1270   12.1800
C   15.0320   21.8940   11.5900
H   15.1170   21.7510   10.5170
C   14.4730   20.9160   12.4130
H   14.1800   19.9440   12.0280
C   14.3810   21.0610   13.7930
H   14.0500   20.2450   14.4290
C   14.8220   22.2110   14.4320
H   14.6700   22.2620   15.5060
C   15.2630   23.2580   13.6150
H   15.6250   24.2030   14.0110
C   7.9820   23.6640   20.2210
H   7.6700   24.1780   19.3030
H   8.8810   24.2110   20.5300
H   7.2090   23.8760   20.9700
C   8.2150   22.1450   20.0450
C   8.9820   21.3660   20.9660
H   9.4280   21.8310   21.8400
C   9.3410   20.0110   20.7260
H   9.9200   19.4750   21.4720
C   8.8720   19.3730   19.6080
H   9.2540   18.3910   19.3440
C   8.1140   20.1330   18.6130
H   7.8040   19.7260   17.6550
C   7.8120   21.5360   18.8670
H   7.2650   22.1110   18.1260
C   16.6400   17.6150   24.7630
H   16.2880   18.1500   25.6540
H   16.0580   17.8970   23.8770
H   17.6690   17.9180   24.5330
C   16.4320   16.1690   24.9640
C   17.4700   15.2850   24.7630
H   18.3820   15.6110   24.2700
C   17.2870   13.9420   25.1470
H   18.0430   13.2190   24.8550
C   16.0500   13.5080   25.7080
H   15.9690   12.4530   25.9550
C   15.0160   14.4460   25.9100
H   14.0840   14.0850   26.3350
C   15.2290   15.7710   25.5010
H   14.4230   16.4770   25.6750
C   9.8970   25.7470   14.8340
H   9.2600   26.2100   14.0700
H   10.9030   26.1810   14.8020
H   9.4340   25.9280   15.8120
C   10.1050   24.2760   14.5480
C   9.4830   23.4020   15.4380
H   8.7910   23.7840   16.1820
C   9.7180   22.0020   15.3700
H   9.2880   21.4530   16.2030
C   10.5190   21.4980   14.3610
H   10.5880   20.4200   14.2480
C   11.0160   22.3430   13.3520
H   11.7280   21.9650   12.6240
C   10.8610   23.7380   13.4830
H   11.4610   24.3570   12.8230
C   21.4460   7.1060   12.4470
H   20.6860   6.3340   12.6150
H   22.2500   6.4780   12.0440
H   21.0510   7.7230   11.6300
C   21.6030   8.0210   13.6490
C   21.7540   7.6760   14.9780
H   21.7640   6.6430   15.3150
C   21.9350   8.6230   16.0550
H   22.0640   8.3230   17.0910
C   22.1380   9.9860   15.6920
H   22.3350   10.8010   16.3830
C   22.0340   10.3260   14.3310
H   22.1590   11.3300   13.9360
C   21.6750   9.3700   13.3830
H   21.5590   9.7230   12.3630
C   22.9880   17.6800   12.2810
H   22.9180   16.8740   13.0210
H   23.7730   18.3620   12.6300
H   23.2480   17.2650   11.3000
C   21.6550   18.3490   12.1870
C   20.6220   18.0880   13.0570
H   20.7970   17.3350   13.8210
C   19.4340   18.7990   13.0450
H   18.7570   18.7330   13.8920
C   19.1760   19.7760   12.0220
H   18.2920   20.4060   12.0440
C   20.1570   19.9410   11.0580
H   19.9550   20.5700   10.1960
C   21.4170   19.2580   11.1840
H   22.2080   19.5330   10.4920
C   11.5670   16.9320   9.5720
H   12.2140   17.1360   8.7100
H   11.2820   15.8920   9.3700
H   12.1900   17.0270   10.4710
C   10.3380   17.8120   9.7330
C   9.4070   17.9080   8.6630
H   9.2760   17.1270   7.9200
C   8.4820   18.9870   8.6270
H   7.7350   19.0310   7.8400
C   8.4710   19.9600   9.6310
H   7.7480   20.7700   9.6540
C   9.3540   19.8350   10.7390
H   9.3650   20.4890   11.6050
C   10.1940   18.7130   10.7970
H   10.9300   18.6810   11.5950
C   12.7180   16.6050   23.0210
H   12.8130   16.8270   21.9510
H   13.7280   16.3210   23.3450
H   12.5000   17.5290   23.5710
C   11.8010   15.4010   23.1530
C   10.6200   15.4240   22.3970
H   10.4520   16.2470   21.7090
C   9.7560   14.2780   22.4410
H   8.8510   14.2660   21.8410
C   10.0090   13.2210   23.3230
H   9.3460   12.3640   23.2430
C   11.1890   13.1930   24.0600
H   11.5060   12.4190   24.7520
C   12.1210   14.2630   23.8890
H   13.0670   14.1720   24.4150
C   18.8420   17.6350   27.7520
H   18.1240   17.0240   28.3120
H   18.2540   18.2490   27.0590
H   19.3830   18.2440   28.4880
C   19.7860   16.8740   26.9420
C   20.9230   17.5130   26.3330
H   21.0460   18.5910   26.2770
C   21.9600   16.7460   25.6900
H   22.7590   17.2130   25.1220
C   21.8200   15.3540   25.7340
H   22.5620   14.8350   25.1340
C   20.7780   14.7860   26.4240
H   20.6730   13.7070   26.4980
C   19.7540   15.4920   26.9560
H   18.9700   15.0490   27.5620
C   25.2430   22.7500   18.9430
H   24.6510   23.3730   19.6240
H   24.6070   22.0920   18.3390
H   25.7690   23.4530   18.2840
C   26.2890   22.0890   19.8050
C   27.6530   22.5380   19.7650
H   27.8930   23.3990   19.1490
C   28.6720   21.9360   20.4790
H   29.6960   22.2960   20.4470
C   28.3120   20.9270   21.3620
H   29.1140   20.5670   22.0000
C   26.9480   20.4890   21.5060
H   26.7050   19.7450   22.2580
C   25.9360   21.0700   20.7010
H   24.8820   20.8350   20.8180
C   8.6660   14.0750   6.3660
H   9.5670   14.3180   5.7890
H   8.3130   15.1000   6.5330
H   8.0120   13.6260   5.6080
C   8.9520   13.1750   7.5700
C   9.2520   13.8780   8.7390
H   9.0790   14.9490   8.7860
C   9.7250   13.1670   9.8870
H   10.1540   13.6370   10.7670
C   9.7320   11.7360   9.9480
H   9.9080   11.1180   10.8230
C   9.4160   11.0830   8.7270
H   9.5500   10.0100   8.6190
C   9.0570   11.7790   7.5340
H   8.9280   11.2640   6.5870
C   8.9500   11.1620   20.3870
H   9.6770   10.3770   20.1430
H   8.1570   10.6850   20.9760
H   9.5010   11.9120   20.9680
C   8.2120   11.8340   19.2710
C   8.5700   13.1620   18.8940
H   9.3950   13.6460   19.4100
C   7.8880   13.7660   17.8650
H   8.0520   14.7920   17.5510
C   6.8730   13.0430   17.1600
H   6.3940   13.5060   16.3020
C   6.6020   11.7170   17.5240
H   5.9300   11.0650   16.9750
C   7.2670   11.0920   18.5130
H   6.9380   10.1170   18.8610
C   26.4570   12.4450   13.5550
H   27.1280   12.9590   14.2540
H   26.8800   12.5280   12.5470
H   26.3480   11.3870   13.8240
C   25.0650   13.0040   13.5080
C   24.3200   13.0670   12.3170
H   24.6950   12.4320   11.5200
C   23.1080   13.7070   12.1810
H   22.5800   13.8270   11.2400
C   22.5170   14.2950   13.4070
H   21.5280   14.7440   13.3850
C   23.1780   14.0720   14.6700
H   22.7680   14.3710   15.6300
C   24.4820   13.4620   14.6840
H   25.0670   13.3620   15.5930
C   17.5710   21.2480   6.8890
H   18.6510   21.3700   6.7390
H   17.1030   22.0750   7.4370
H   17.0720   21.3190   5.9150
C   17.2290   19.8820   7.3990
C   18.1980   19.0800   7.9940
H   19.2050   19.4850   8.0050
C   17.9790   17.8310   8.6610
H   18.7330   17.2870   9.2230
C   16.6260   17.3740   8.6220
H   16.3320   16.4460   9.1030
C   15.6520   18.0670   7.8430
H   14.6170   17.7430   7.7980
C   15.9210   19.3400   7.2650
H   15.0810   19.8910   6.8510
C   21.3760   21.0260   23.7240
H   20.4220   20.4870   23.7730
H   21.7020   21.4030   24.7020
H   22.0140   20.1900   23.4130
C   21.3200   22.2390   22.7430
C   21.4220   21.9180   21.3730
H   21.5590   20.8770   21.0950
C   21.1640   22.8820   20.4680
H   21.2420   22.6310   19.4150
C   20.8980   24.2170   20.9180
H   20.7360   25.0150   20.1990
C   20.8810   24.5300   22.2790
H   20.7390   25.5510   22.6190
C   21.0600   23.5250   23.2330
H   21.0710   23.7440   24.2960
C   13.4980   11.9160   9.8290
H   12.9760   11.0440   9.4180
H   12.8920   12.3220   10.6480
H   14.4620   11.6150   10.2580
C   13.7160   13.0320   8.7680
C   15.0200   13.6160   8.6070
H   15.8970   13.3430   9.1870
C   15.2000   14.6260   7.6390
H   16.2250   14.9300   7.4480
C   14.1260   14.9630   6.7830
H   14.1730   15.7170   6.0030
C   12.8520   14.5840   7.1130
H   12.0640   15.0130   6.5020
C   12.6470   13.5090   8.0450
H   11.7110   12.9710   8.1580
C   19.7440   10.5210   20.4450
H   19.1710   11.4550   20.4980
H   19.2620   9.7620   21.0740
H   19.7140   10.3290   19.3650
C   21.1430   10.7570   21.0140
C   22.2290   10.3180   20.2850
H   22.1500   9.9270   19.2750
C   23.5250   10.5680   20.8390
H   24.4000   10.2310   20.2920
C   23.7170   11.1630   22.0780
H   24.7300   11.2050   22.4680
C   22.5380   11.3930   22.8610
H   22.7390   11.7980   23.8480
C   21.2670   11.2310   22.2990
H   20.3950   11.6100   22.8240
C   29.8070   21.0370   16.6750
H   29.7320   22.0770   16.3350
H   30.3810   20.5460   15.8790
H   30.3680   20.9570   17.6140
C   28.4450   20.3010   16.9690
C   28.2260   19.5640   18.1860
H   29.0220   19.4550   18.9170
C   26.8940   19.1050   18.4470
H   26.6720   18.4880   19.3130
C   25.8510   19.3550   17.6180
H   24.8790   18.9520   17.8890
C   26.0900   20.0720   16.3750
H   25.2500   20.2200   15.7020
C   27.3720   20.5830   16.0780
H   27.4500   21.3560   15.3190
C   18.5500   10.0140   11.4130
H   18.7830   9.7570   12.4530
H   19.3500   9.5800   10.8000
H   17.6150   9.5640   11.0570
C   18.6360   11.5680   11.2050
C   19.5130   12.2330   10.3370
H   20.2410   11.5850   9.8580
C   19.5720   13.6310   10.2560
H   20.3650   14.1740   9.7510
C   18.5680   14.3480   10.9390
H   18.6520   15.4260   10.8390
C   17.6480   13.7120   11.7250
H   17.1040   14.3100   12.4500
C   17.7060   12.3240   11.9490
H   17.2340   11.8230   12.7890
C   22.1020   25.4310   5.5970
H   21.4160   26.2880   5.5930
H   21.7860   24.8510   4.7220
H   23.1330   25.7650   5.4260
C   21.9980   24.6230   6.8970
C   21.0770   23.5600   6.9970
H   20.5490   23.2000   6.1180
C   20.8770   22.8840   8.2000
H   20.2320   22.0110   8.2230
C   21.4880   23.3510   9.3830
H   21.2750   22.8260   10.3090
C   22.4070   24.4640   9.3180
H   22.8440   24.9190   10.2020
C   22.7460   25.0220   8.0470
H   23.4980   25.8030   7.9750
C   19.3786   18.4920   21.4087
H   20.0833   18.4892   22.2372
H   18.7996   19.3972   21.4824
H   19.9809   18.5437   20.5108
C   18.5151   17.2496   21.4192
C   17.1366   17.3063   21.2162
H   16.6447   18.2714   21.1651
C   16.3902   16.1297   21.1492
H   15.3252   16.2094   20.9919
C   17.0145   14.8988   21.3305
H   16.4462   13.9803   21.3771
C   18.3878   14.8355   21.5323
H   18.8992   13.8900   21.6766
C   19.1310   16.0107   21.5977
H   20.1804   15.9523   21.8228
562
Frame 14
C   16.4725   15.4407   17.0038
C   18.5381   16.6221   16.7216
C   16.0180   17.8810   17.5918
C   19.2067   16.0667   17.9519
C   19.4667   16.8964   15.5861
N   17.5204   15.6839   16.2453
N   15.3755   14.9050   16.4852
O   15.4312   18.1343   16.2600
H   14.6475   17.5669   16.2289
H   17.3055   15.8430   15.2683
H   16.5684   15.4601   18.0691
H   17.9994   17.5113   16.9861
H   14.5531   14.7620   17.0569
H   15.1719   15.1028   15.5167
H   16.7360   18.7024   17.7912
H   15.2170   18.0346   18.3497
H   19.9978   16.7570   18.2602
H   18.8988   17.0555   14.6788
H   19.6429   15.1019   17.7642
H   18.5108   15.9680   18.7769
H   20.0485   17.7711   15.8038
H   20.1733   16.0603   15.4047
C   31.0130   13.4690   20.5000
H   31.2490   12.6100   21.1410
H   31.6000   14.3580   20.7590
H   31.3090   13.1730   19.4860
C   29.5240   13.6930   20.5110
C   28.9490   14.9820   20.4600
H   29.6230   15.8190   20.3030
C   27.5460   15.1780   20.4020
H   27.1240   16.1710   20.2790
C   26.7510   14.0910   20.7820
H   25.6720   14.1250   20.8970
C   27.2930   12.7880   20.7300
H   26.5470   12.0120   20.8740
C   28.6890   12.5880   20.6520
H   29.0430   11.5650   20.7440
C   9.2210   14.9750   13.0480
H   9.9180   14.2170   12.6700
H   8.7250   15.4390   12.1860
H   8.5460   14.3880   13.6810
C   9.9500   16.0790   13.9260
C   11.1730   16.6700   13.5290
H   11.6950   16.2330   12.6830
C   11.7790   17.6500   14.3810
H   12.6890   18.1940   14.1470
C   11.0580   18.1190   15.4870
H   11.4490   19.0070   15.9740
C   9.8790   17.5550   15.8260
H   9.3990   17.9040   16.7360
C   9.3470   16.4720   15.1090
H   8.3400   16.1840   15.3940
C   13.1040   20.9490   22.1230
H   12.1100   21.0700   22.5720
H   13.3280   19.8760   22.1570
H   12.9300   21.4440   21.1600
C   14.1720   21.7290   22.9410
C   13.9780   23.0550   23.3640
H   12.9880   23.4780   23.2220
C   14.9570   23.7090   24.0980
H   14.8720   24.7370   24.4370
C   16.0910   23.0190   24.4910
H   16.8240   23.5570   25.0840
C   16.3390   21.7000   24.0260
H   17.2960   21.2060   24.1580
C   15.3480   21.0720   23.2660
H   15.4870   20.1110   22.7800
C   22.3270   16.0930   8.4030
H   22.3260   16.2600   9.4870
H   21.4310   15.6720   7.9300
H   22.4190   17.0690   7.9110
C   23.4930   15.2320   7.9250
C   24.6760   15.8080   7.3600
H   24.7170   16.8840   7.2220
C   25.8340   15.0550   7.0100
H   26.7290   15.6050   6.7360
C   25.7140   13.6410   7.1510
H   26.5440   12.9840   6.9070
C   24.5170   13.0840   7.6510
H   24.4140   12.0140   7.8020
C   23.4280   13.8620   7.9640
H   22.4620   13.4500   8.2420
C   13.3770   8.3710   11.1840
H   13.9280   8.9300   11.9500
H   12.7730   7.5980   11.6750
H   12.7470   9.0620   10.6100
C   14.2950   7.7300   10.0940
C   14.0090   6.4760   9.6240
H   13.0770   6.0180   9.9390
C   14.8900   5.7890   8.7340
H   14.6040   4.8470   8.2740
C   16.0940   6.4030   8.4280
H   16.8170   5.9830   7.7360
C   16.3240   7.7020   8.8800
H   17.2290   8.1990   8.5440
C   15.3900   8.3770   9.6670
H   15.4990   9.4410   9.8550
C   22.3720   27.5750   12.3440
H   22.6740   28.6260   12.2520
H   21.8660   27.2750   11.4180
H   23.3360   27.0640   12.4640
C   21.5860   27.1640   13.5380
C   20.6270   26.1270   13.4710
H   20.5230   25.5770   12.5400
C   19.8190   25.9080   14.6070
H   19.0410   25.1530   14.6740
C   19.8330   26.8130   15.6810
H   19.1800   26.6280   16.5280
C   20.7150   27.8320   15.6880
H   20.6750   28.5050   16.5390
C   21.6510   27.9300   14.6880
H   22.3640   28.7490   14.7160
C   26.3230   15.1720   24.4190
H   27.1730   15.7810   24.7530
H   26.9100   14.3730   23.9500
H   25.8350   14.6810   25.2700
C   25.2980   15.8310   23.5700
C   25.3310   17.2270   23.3880
H   26.0260   17.7850   24.0090
C   24.4240   17.8360   22.4700
H   24.3120   18.9080   22.3350
C   23.4800   16.9710   21.8510
H   22.7300   17.3880   21.1860
C   23.4350   15.6140   22.0990
H   22.6180   15.0160   21.7070
C   24.3990   15.0550   22.9540
H   24.2710   14.0400   23.3190
C   12.5310   21.3930   17.8850
H   13.2140   21.0900   17.0820
H   11.5950   21.6280   17.3640
H   12.3060   20.6590   18.6680
C   13.0320   22.5830   18.7360
C   12.2150   23.1990   19.6560
H   11.1450   23.0160   19.6540
C   12.8150   24.0790   20.5840
H   12.1470   24.6520   21.2210
C   14.2070   24.1490   20.7110
H   14.6570   24.8010   21.4530
C   15.0790   23.3670   19.9600
H   16.1550   23.3650   20.1040
C   14.4560   22.6230   18.9390
H   15.0290   21.9490   18.3100
C   14.8830   6.8570   21.3950
H   14.5830   5.8040   21.4680
H   14.1110   7.5640   21.0690
H   14.9540   7.1620   22.4460
C   16.2700   6.9730   20.7720
C   17.3370   6.4110   21.5060
H   17.0910   5.8820   22.4210
C   18.6390   6.6200   20.9560
H   19.4860   6.2070   21.4970
C   18.8360   7.1840   19.6870
H   19.8020   7.2850   19.2010
C   17.7740   7.7920   19.0310
H   17.9360   8.3530   18.1150
C   16.4720   7.7040   19.5680
H   15.6290   8.1750   19.0710
C   14.8160   10.5740   15.3720
H   14.3440   11.0040   14.4800
H   15.1400   11.3900   16.0290
H   13.9830   10.0440   15.8500
C   15.8760   9.5730   14.9300
C   15.5810   8.3740   14.2260
H   14.5360   8.2410   13.9630
C   16.5460   7.4790   13.7060
H   16.2100   6.6290   13.1200
C   17.8520   7.6230   14.2370
H   18.6540   6.9360   13.9850
C   18.1870   8.7030   14.9950
H   19.2350   8.8200   15.2580
C   17.2460   9.6850   15.4350
H   17.6780   10.4650   16.0550
C   8.0650   7.4040   17.5740
H   8.1270   8.0850   16.7160
H   7.5600   7.9240   18.3970
H   7.4880   6.4980   17.3480
C   9.4790   7.0660   18.0080
C   10.5440   7.9760   17.7650
H   10.3730   8.9450   17.3060
C   11.8290   7.6370   18.2640
H   12.7100   8.2510   18.1010
C   12.0090   6.4900   19.0190
H   13.0130   6.2290   19.3400
C   10.9610   5.6080   19.2070
H   11.1880   4.6980   19.7550
C   9.6610   5.8390   18.6640
H   8.8970   5.0800   18.8040
C   18.2400   9.3350   23.8980
H   18.4220   9.0030   24.9280
H   18.8890   10.1800   23.6390
H   18.3460   8.4310   23.2860
C   16.8430   9.7990   23.8620
C   16.4750   10.9760   23.2580
H   17.2340   11.5320   22.7170
C   15.1310   11.3650   23.2170
H   14.8330   12.3010   22.7540
C   14.1480   10.5800   23.8790
H   13.1240   10.9410   23.8510
C   14.5070   9.3760   24.4910
H   13.6960   8.7620   24.8720
C   15.8380   9.0020   24.5510
H   16.1540   8.1380   25.1280
C   10.9060   11.5230   15.8000
H   10.2660   12.1380   16.4450
H   11.8110   12.1010   15.5760
H   11.3030   10.7560   16.4760
C   10.1450   10.8230   14.6590
C   8.8800   11.1470   14.2680
H   8.3050   11.8430   14.8720
C   8.2310   10.3560   13.3000
H   7.1860   10.6060   13.1480
C   8.9080   9.2900   12.6040
H   8.3580   8.8160   11.7960
C   10.2410   9.0790   12.9680
H   10.7620   8.2900   12.4330
C   10.8540   9.7140   14.0870
H   11.8650   9.4940   14.4180
C   12.4900   20.4970   8.7300
H   11.7150   20.4740   7.9540
H   12.2270   19.9760   9.6590
H   13.3460   20.0150   8.2410
C   12.8650   21.9680   8.9270
C   12.1420   22.7970   9.8120
H   11.2610   22.4200   10.3220
C   12.3840   24.1720   9.8850
H   11.8920   24.7890   10.6310
C   13.4520   24.6990   9.1480
H   13.6750   25.7620   9.1740
C   14.2260   23.9500   8.2820
H   15.0110   24.4020   7.6830
C   13.8970   22.5400   8.1400
H   14.4070   21.9210   7.4080
C   25.2240   23.2580   12.7270
H   25.5120   24.3000   12.9180
H   24.9920   23.1420   11.6620
H   26.0960   22.6100   12.8790
C   24.1020   22.8110   13.7090
C   24.1040   23.2240   14.9730
H   24.9610   23.8230   15.2650
C   23.1140   22.7650   15.8740
H   23.0750   23.1170   16.9010
C   22.0540   21.9550   15.3630
H   21.3500   21.5740   16.0970
C   21.9790   21.6570   14.0120
H   21.2210   20.9940   13.6040
C   22.9780   22.0850   13.1860
H   22.9530   21.7500   12.1530
C   15.9690   24.2190   11.3740
H   16.8540   24.6850   11.8250
H   15.3350   25.1120   11.4330
H   16.1270   23.9390   10.3250
C   15.4160   23.1270   12.1800
C   15.0320   21.8940   11.5900
H   15.1170   21.7510   10.5170
C   14.4730   20.9160   12.4130
H   14.1800   19.9440   12.0280
C   14.3810   21.0610   13.7930
H   14.0500   20.2450   14.4290
C   14.8220   22.2110   14.4320
H   14.6700   22.2620   15.5060
C   15.2630   23.2580   13.6150
H   15.6250   24.2030   14.0110
C   7.9820   23.6640   20.2210
H   7.6700   24.1780   19.3030
H   8.8810   24.2110   20.5300
H   7.2090   23.8760   20.9700
C   8.2150   22.1450   20.0450
C   8.9820   21.3660   20.9660
H   9.4280   21.8310   21.8400
C   9.3410   20.0110   20.7260
H   9.9200   19.4750   21.4720
C   8.8720   19.3730   19.6080
H   9.2540   18.3910   19.3440
C   8.1140   20.1330   18.6130
H   7.8040   19.7260   17.6550
C   7.8120   21.5360   18.8670
H   7.2650   22.1110   18.1260
C   16.6400   17.6150   24.7630
H   16.2880   18.1500   25.6540
H   16.0580   17.8970   23.8770
H   17.6690   17.9180   24.5330
C   16.4320   16.1690   24.9640
C   17.4700   15.2850   24.7630
H   18.3820   15.6110   24.2700
C   17.2870   13.9420   25.1470
H   18.0430   13.2190   24.8550
C   16.0500   13.5080   25.7080
H   15.9690   12.4530   25.9550
C   15.0160   14.4460   25.9100
H   14.0840   14.0850   26.3350
C   15.2290   15.7710   25.5010
H   14.4230   16.4770   25.6750
C   9.8970   25.7470   14.8340
H   9.2600   26.2100   14.0700
H   10.9030   26.1810   14.8020
H   9.4340   25.9280   15.8120
C   10.1050   24.2760   14.5480
C   9.4830   23.4020   15.4380
H   8.7910   23.7840   16.1820
C   9.7180   22.0020   15.3700
H   9.2880   21.4530   16.2030
C   10.5190   21.4980   14.3610
H   10.5880   20.4200   14.2480
C   11.0160   22.3430   13.3520
H   11.7280   21.9650   12.6240
C   10.8610   23.7380   13.4830
H   11.4610   24.3570   12.8230
C   21.4460   7.1060   12.4470
H   20.6860   6.3340   12.6150
H   22.2500   6.4780   12.0440
H   21.0510   7.7230   11.6300
C   21.6030   8.0210   13.6490
C   21.7540   7.6760   14.9780
H   21.7640   6.6430   15.3150
C   21.9350   8.6230   16.0550
H   22.0640   8.3230   17.0910
C   22.1380   9.9860   15.6920
H   22.3350   10.8010   16.3830
C   22.0340   10.3260   14.3310
H   22.1590   11.3300   13.9360
C   21.6750   9.3700   13.3830
H   21.5590   9.7230   12.3630
C   22.9880   17.6800   12.2810
H   22.9180   16.8740   13.0210
H   23.7730   18.3620   12.6300
H   23.2480   17.2650   11.3000
C   21.6550   18.3490   12.1870
C   20.6220   18.0880   13.0570
H   20.7970   17.3350   13.8210
C   19.4340   18.7990   13.0450
H   18.7570   18.7330   13.8920
C   19.1760   19.7760   12.0220
H   18.2920   20.4060   12.0440
C   20.1570   19.9410   11.0580
H   19.9550   20.5700   10.1960
C   21.4170   19.2580   11.1840
H   22.2080   19.5330   10.4920
C   11.5670   16.9320   9.5720
H   12.2140   17.1360   8.7100
H   11.2820   15.8920   9.3700
H   12.1900   17.0270   10.4710
C   10.3380   17.8120   9.7330
C   9.4070   17.9080   8.6630
H   9.2760   17.1270   7.9200
C   8.4820   18.9870   8.6270
H   7.7350   19.0310   7.8400
C   8.4710   19.9600   9.6310
H   7.7480   20.7700   9.6540
C   9.3540   19.8350   10.7390
H   9.3650   20.4890   11.6050
C   10.1940   18.7130   10.7970
H   10.9300   18.6810   11.5950
C   12.7180   16.6050   23.0210
H   12.8130   16.8270   21.9510
H   13.7280   16.3210   23.3450
H   12.5000   17.5290   23.5710
C   11.8010   15.4010   23.1530
C   10.6200   15.4240   22.3970
H   10.4520   16.2470   21.7090
C   9.7560   14.2780   22.4410
H   8.8510   14.2660   21.8410
C   10.0090   13.2210   23.3230
H   9.3460   12.3640   23.2430
C   11.1890   13.1930   24.0600
H   11.5060   12.4190   24.7520
C   12.1210   14.2630   23.8890
H   13.0670   14.1720   24.4150
C   18.8420   17.6350   27.7520
H   18.1240   17.0240   28.3120
H   18.2540   18.2490   27.0590
H   19.3830   18.2440   28.4880
C   19.7860   16.8740   26.9420
C   20.9230   17.5130   26.3330
H   21.0460   18.5910   26.2770
C   21.9600   16.7460   25.6900
H   22.7590   17.2130   25.1220
C   21.8200   15.3540   25.7340
H   22.5620   14.8350   25.1340
C   20.7780   14.7860   26.4240
H   20.6730   13.7070   26.4980
C   19.7540   15.4920   26.9560
H   18.9700   15.0490   27.5620
C   25.2430   22.7500   18.9430
H   24.6510   23.3730   19.6240
H   24.6070   22.0920   18.3390
H   25.7690   23.4530   18.2840
C   26.2890   22.0890   19.8050
C   27.6530   22.5380   19.7650
H   27.8930   23.3990   19.1490
C   28.6720   21.9360   20.4790
H   29.6960   22.2960   20.4470
C   28.3120   20.9270   21.3620
H   29.1140   20.5670   22.0000
C   26.9480   20.4890   21.5060
H   26.7050   19.7450   22.2580
C   25.9360   21.0700   20.7010
H   24.8820   20.8350   20.8180
C   8.6660   14.0750   6.3660
H   9.5670   14.3180   5.7890
H   8.3130   15.1000   6.5330
H   8.0120   13.6260   5.6080
C   8.9520   13.1750   7.5700
C   9.2520   13.8780   8.7390
H   9.0790   14.9490   8.7860
C   9.7250   13.1670   9.8870
H   10.1540   13.6370   10.7670
C   9.7320   11.7360   9.9480
H   9.9080   11.1180   10.8230
C   9.4160   11.0830   8.7270
H   9.5500   10.0100   8.6190
C   9.0570   11.7790   7.5340
H   8.9280   11.2640   6.5870
C   8.9500   11.1620   20.3870
H   9.6770   10.3770   20.1430
H   8.1570   10.6850   20.9760
H   9.5010   11.9120   20.9680
C   8.2120   11.8340   19.2710
C   8.5700   13.1620   18.8940
H   9.3950   13.6460   19.4100
C   7.8880   13.7660   17.8650
H   8.0520   14.7920   17.5510
C   6.8730   13.0430   17.1600
H   6.3940   13.5060   16.3020
C   6.6020   11.7170   17.5240
H   5.9300   11.0650   16.9750
C   7.2670   11.0920   18.5130
H   6.9380   10.1170   18.8610
C   26.4570   12.4450   13.5550
H   27.1280   12.9590   14.2540
H   26.8800   12.5280   12.5470
H   26.3480   11.3870   13.8240
C   25.0650   13.0040   13.5080
C   24.3200   13.0670   12.3170
H   24.6950   12.4320   11.5200
C   23.1080   13.7070   12.1810
H   22.5800   13.8270   11.2400
C   22.5170   14.2950   13.4070
H   21.5280   14.7440   13.3850
C   23.1780   14.0720   14.6700
H   22.7680   14.3710   15.6300
C   24.4820   13.4620   14.6840
H   25.0670   13.3620   15.5930
C   17.5710   21.2480   6.8890
H   18.6510   21.3700   6.7390
H   17.1030   22.0750   7.4370
H   17.0720   21.3190   5.9150
C   17.2290   19.8820   7.3990
C   18.1980   19.0800   7.9940
H   19.2050   19.4850   8.0050
C   17.9790   17.8310   8.6610
H   18.7330   17.2870   9.2230
C   16.6260   17.3740   8.6220
H   16.3320   16.4460   9.1030
C   15.6520   18.0670   7.8430
H   14.6170   17.7430   7.7980
C   15.9210   19.3400   7.2650
H   15.0810   19.8910   6.8510
C   21.3760   21.0260   23.7240
H   20.4220   20.4870   23.7730
H   21.7020   21.4030   24.7020
H   22.0140   20.1900   23.4130
C   21.3200   22.2390   22.7430
C   21.4220   21.9180   21.3730
H   21.5590   20.8770   21.0950
C   21.1640   22.8820   20.4680
H   21.2420   22.6310   19.4150
C   20.8980   24.2170   20.9180
H   20.7360   25.0150   20.1990
C   20.8810   24.5300   22.2790
H   20.7390   25.5510   22.6190
C   21.0600   23.5250   23.2330
H   21.0710   23.7440   24.2960
C   13.4980   11.9160   9.8290
H   12.9760   11.0440   9.4180
H   12.8920   12.3220   10.6480
H   14.4620   11.6150   10.2580
C   13.7160   13.0320   8.7680
C   15.0200   13.6160   8.6070
H   15.8970   13.3430   9.1870
C   15.2000   14.6260   7.6390
H   16.2250   14.9300   7.4480
C   14.1260   14.9630   6.7830
H   14.1730   15.7170   6.0030
C   12.8520   14.5840   7.1130
H   12.0640   15.0130   6.5020
C   12.6470   13.5090   8.0450
H   11.7110   12.9710   8.1580
C   19.7440   10.5210   20.4450
H   19.1710   11.4550   20.4980
H   19.2620   9.7620   21.0740
H   19.7140   10.3290   19.3650
C   21.1430   10.7570   21.0140
C   22.2290   10.3180   20.2850
H   22.1500   9.9270   19.2750
C   23.5250   10.5680   20.8390
H   24.4000   10.2310   20.2920
C   23.7170   11.1630   22.0780
H   24.7300   11.2050   22.4680
C   22.5380   11.3930   22.8610
H   22.7390   11.7980   23.8480
C   21.2670   11.2310   22.2990
H   20.3950   11.6100   22.8240
C   29.8070   21.0370   16.6750
H   29.7320   22.0770   16.3350
H   30.3810   20.5460   15.8790
H   30.3680   20.9570   17.6140
C   28.4450   20.3010   16.9690
C   28.2260   19.5640   18.1860
H   29.0220   19.4550   18.9170
C   26.8940   19.1050   18.4470
H   26.6720   18.4880   19.3130
C   25.8510   19.3550   17.6180
H   24.8790   18.9520   17.8890
C   26.0900   20.0720   16.3750
H   25.2500   20.2200   15.7020
C   27.3720   20.5830   16.0780
H   27.4500   21.3560   15.3190
C   18.5500   10.0140   11.4130
H   18.7830   9.7570   12.4530
H   19.3500   9.5800   10.8000
H   17.6150   9.5640   11.0570
C   18.6360   11.5680   11.2050
C   19.5130   12.2330   10.3370
H   20.2410   11.5850   9.8580
C   19.5720   13.6310   10.2560
H   20.3650   14.1740   9.7510
C   18.5680   14.3480   10.9390
H   18.6520   15.4260   10.8390
C   17.6480   13.7120   11.7250
H   17.1040   14.3100   12.4500
C   17.7060   12.3240   11.9490
H   17.2340   11.8230   12.7890
C   22.1020   25.4310   5.5970
H   21.4160   26.2880   5.5930
H   21.7860   24.8510   4.7220
H   23.1330   25.7650   5.4260
C   21.9980   24.6230   6.8970
C   21.0770   23.5600   6.9970
H   20.5490   23.2000   6.1180
C   20.8770   22.8840   8.2000
H   20.2320   22.0110   8.2230
C   21.4880   23.3510   9.3830
H   21.2750   22.8260   10.3090
C   22.4070   24.4640   9.3180
H   22.8440   24.9190   10.2020
C   22.7460   25.0220   8.0470
H   23.4980   25.8030   7.9750
C   19.3787   18.4805   21.4062
H   20.0774   18.4964   22.2433
H   18.7937   19.4024   21.4972
H   19.9731   18.5422   20.5095
C   18.5059   17.2526   21.4171
C   17.1330   17.3023   21.2126
H   16.6485   18.2764   21.1763
C   16.3968   16.1221   21.1539
H   15.3294   16.2193   20.9774
C   17.0192   14.8896   21.3435
H   16.4359   13.9809   21.3949
C   18.3943   14.8350   21.5453
H   18.8954   13.8803   21.6803
C   19.1351   16.0149   21.5897
H   20.1804   15.9509   21.8172
562
Frame 15
C   16.4594   15.4538   17.0133
C   18.5416   16.6215   16.7295
C   15.9872   17.8795   17.5973
C   19.2142   16.0628   17.9576
C   19.4696   16.8881   15.5887
N   17.5222   15.6808   16.2541
N   15.3750   14.9133   16.4923
O   15.4219   18.1262   16.2620
H   14.6230   17.5977   16.2394
H   17.3196   15.8346   15.2719
H   16.5714   15.4703   18.0789
H   17.9981   17.5127   16.9934
H   14.5579   14.7751   17.0711
H   15.1803   15.0906   15.5189
H   16.7250   18.6856   17.7989
H   15.1911   18.0450   18.3464
H   20.0050   16.7499   18.2695
H   18.9069   17.0373   14.6749
H   19.6449   15.0983   17.7554
H   18.5151   15.9569   18.7794
H   20.0570   17.7666   15.7887
H   20.1730   16.0553   15.4153
C   31.0130   13.4690   20.5000
H   31.2490   12.6100   21.1410
H   31.6000   14.3580   20.7590
H   31.3090   13.1730   19.4860
C   29.5240   13.6930   20.5110
C   28.9490   14.9820   20.4600
H   29.6230   15.8190   20.3030
C   27.5460   15.1780   20.4020
H   27.1240   16.1710   20.2790
C   26.7510   14.0910   20.7820
H   25.6720   14.1250   20.8970
C   27.2930   12.7880   20.7300
H   26.5470   12.0120   20.8740
C   28.6890   12.5880   20.6520
H   29.0430   11.5650   20.7440
C   9.2210   14.9750   13.0480
H   9.9180   14.2170   12.6700
H   8.7250   15.4390   12.1860
H   8.5460   14.3880   13.6810
C   9.9500   16.0790   13.9260
C   11.1730   16.6700   13.5290
H   11.6950   16.2330   12.6830
C   11.7790   17.6500   14.3810
H   12.6890   18.1940   14.1470
C   11.0580   18.1190   15.4870
H   11.4490   19.0070   15.9740
C   9.8790   17.5550   15.8260
H   9.3990   17.9040   16.7360
C   9.3470   16.4720   15.1090
H   8.3400   16.1840   15.3940
C   13.1040   20.9490   22.1230
H   12.1100   21.0700   22.5720
H   13.3280   19.8760   22.1570
H   12.9300   21.4440   21.1600
C   14.1720   21.7290   22.9410
C   13.9780   23.0550   23.3640
H   12.9880   23.4780   23.2220
C   14.9570   23.7090   24.0980
H   14.8720   24.7370   24.4370
C   16.0910   23.0190   24.4910
H   16.8240   23.5570   25.0840
C   16.3390   21.7000   24.0260
H   17.2960   21.2060   24.1580
C   15.3480   21.0720   23.2660
H   15.4870   20.1110   22.7800
C   22.3270   16.0930   8.4030
H   22.3260   16.2600   9.4870
H   21.4310   15.6720   7.9300
H   22.4190   17.0690   7.9110
C   23.4930   15.2320   7.9250
C   24.6760   15.8080   7.3600
H   24.7170   16.8840   7.2220
C   25.8340   15.0550   7.0100
H   26.7290   15.6050   6.7360
C   25.7140   13.6410   7.1510
H   26.5440   12.9840   6.9070
C   24.5170   13.0840   7.6510
H   24.4140   12.0140   7.8020
C   23.4280   13.8620   7.9640
H   22.4620   13.4500   8.2420
C   13.3770   8.3710   11.1840
H   13.9280   8.9300   11.9500
H   12.7730   7.5980   11.6750
H   12.7470   9.0620   10.6100
C   14.2950   7.7300   10.0940
C   14.0090   6.4760   9.6240
H   13.0770   6.0180   9.9390
C   14.8900   5.7890   8.7340
H   14.6040   4.8470   8.2740
C   16.0940   6.4030   8.4280
H   16.8170   5.9830   7.7360
C   16.3240   7.7020   8.8800
H   17.2290   8.1990   8.5440
C   15.3900   8.3770   9.6670
H   15.4990   9.4410   9.8550
C   22.3720   27.5750   12.3440
H   22.6740   28.6260   12.2520
H   21.8660   27.2750   11.4180
H   23.3360   27.0640   12.4640
C   21.5860   27.1640   13.5380
C   20.6270   26.1270   13.4710
H   20.5230   25.5770   12.5400
C   19.8190   25.9080   14.6070
H   19.0410   25.1530   14.6740
C   19.8330   26.8130   15.6810
H   19.1800   26.6280   16.5280
C   20.7150   27.8320   15.6880
H   20.6750   28.5050   16.5390
C   21.6510   27.9300   14.6880
H   22.3640   28.7490   14.7160
C   26.3230   15.1720   24.4190
H   27.1730   15.7810   24.7530
H   26.9100   14.3730   23.9500
H   25.8350   14.6810   25.2700
C   25.2980   15.8310   23.5700
C   25.3310   17.2270   23.3880
H   26.0260   17.7850   24.0090
C   24.4240   17.8360   22.4700
H   24.3120   18.9080   22.3350
C   23.4800   16.9710   21.8510
H   22.7300   17.3880   21.1860
C   23.4350   15.6140   22.0990
H   22.6180   15.0160   21.7070
C   24.3990   15.0550   22.9540
H   24.2710   14.0400   23.3190
C   12.5310   21.3930   17.8850
H   13.2140   21.0900   17.0820
H   11.5950   21.6280   17.3640
H   12.3060   20.6590   18.6680
C   13.0320   22.5830   18.7360
C   12.2150   23.1990   19.6560
H   11.1450   23.0160   19.6540
C   12.8150   24.0790   20.5840
H   12.1470   24.6520   21.2210
C   14.2070   24.1490   20.7110
H   14.6570   24.8010   21.4530
C   15.0790   23.3670   19.9600
H   16.1550   23.3650   20.1040
C   14.4560   22.6230   18.9390
H   15.0290   21.9490   18.3100
C   14.8830   6.8570   21.3950
H   14.5830   5.8040   21.4680
H   14.1110   7.5640   21.0690
H   14.9540   7.1620   22.4460
C   16.2700   6.9730   20.7720
C   17.3370   6.4110   21.5060
H   17.0910   5.8820   22.4210
C   18.6390   6.6200   20.9560
H   19.4860   6.2070   21.4970
C   18.8360   7.1840   19.6870
H   19.8020   7.2850   19.2010
C   17.7740   7.7920   19.0310
H   17.9360   8.3530   18.1150
C   16.4720   7.7040   19.5680
H   15.6290   8.1750   19.0710
C   14.8160   10.5740   15.3720
H   14.3440   11.0040   14.4800
H   15.1400   11.3900   16.0290
H   13.9830   10.0440   15.8500
C   15.8760   9.5730   14.9300
C   15.5810   8.3740   14.2260
H   14.5360   8.2410   13.9630
C   16.5460   7.4790   13.7060
H   16.2100   6.6290   13.1200
C   17.8520   7.6230   14.2370
H   18.6540   6.9360   13.9850
C   18.1870   8.7030   14.9950
H   19.2350   8.8200   15.2580
C   17.2460   9.6850   15.4350
H   17.6780   10.4650   16.0550
C   8.0650   7.4040   17.5740
H   8.1270   8.0850   16.7160
H   7.5600   7.9240   18.3970
H   7.4880   6.4980   17.3480
C   9.4790   7.0660   18.0080
C   10.5440   7.9760   17.7650
H   10.3730   8.9450   17.3060
C   11.8290   7.6370   18.2640
H   12.7100   8.2510   18.1010
C   12.0090   6.4900   19.0190
H   13.0130   6.2290   19.3400
C   10.9610   5.6080   19.2070
H   11.1880   4.6980   19.7550
C   9.6610   5.8390   18.6640
H   8.8970   5.0800   18.8040
C   18.2400   9.3350   23.8980
H   18.4220   9.0030   24.9280
H   18.8890   10.1800   23.6390
H   18.3460   8.4310   23.2860
C   16.8430   9.7990   23.8620
C   16.4750   10.9760   23.2580
H   17.2340   11.5320   22.7170
C   15.1310   11.3650   23.2170
H   14.8330   12.3010   22.7540
C   14.1480   10.5800   23.8790
H   13.1240   10.9410   23.8510
C   14.5070   9.3760   24.4910
H   13.6960   8.7620   24.8720
C   15.8380   9.0020   24.5510
H   16.1540   8.1380   25.1280
C   10.9060   11.5230   15.8000
H   10.2660   12.1380   16.4450
H   11.8110   12.1010   15.5760
H   11.3030   10.7560   16.4760
C   10.1450   10.8230   14.6590
C   8.8800   11.1470   14.2680
H   8.3050   11.8430   14.8720
C   8.2310   10.3560   13.3000
H   7.1860   10.6060   13.1480
C   8.9080   9.2900   12.6040
H   8.3580   8.8160   11.7960
C   10.2410   9.0790   12.9680
H   10.7620   8.2900   12.4330
C   10.8540   9.7140   14.0870
H   11.8650   9.4940   14.4180
C   12.4900   20.4970   8.7300
H   11.7150   20.4740   7.9540
H   12.2270   19.9760   9.6590
H   13.3460   20.0150   8.2410
C   12.8650   21.9680   8.9270
C   12.1420   22.7970   9.8120
H   11.2610   22.4200   10.3220
C   12.3840   24.1720   9.8850
H   11.8920   24.7890   10.6310
C   13.4520   24.6990   9.1480
H   13.6750   25.7620   9.1740
C   14.2260   23.9500   8.2820
H   15.0110   24.4020   7.6830
C   13.8970   22.5400   8.1400
H   14.4070   21.9210   7.4080
C   25.2240   23.2580   12.7270
H   25.5120   24.3000   12.9180
H   24.9920   23.1420   11.6620
H   26.0960   22.6100   12.8790
C   24.1020   22.8110   13.7090
C   24.1040   23.2240   14.9730
H   24.9610   23.8230   15.2650
C   23.1140   22.7650   15.8740
H   23.0750   23.1170   16.9010
C   22.0540   21.9550   15.3630
H   21.3500   21.5740   16.0970
C   21.9790   21.6570   14.0120
H   21.2210   20.9940   13.6040
C   22.9780   22.0850   13.1860
H   22.9530   21.7500   12.1530
C   15.9690   24.2190   11.3740
H   16.8540   24.6850   11.8250
H   15.3350   25.1120   11.4330
H   16.1270   23.9390   10.3250
C   15.4160   23.1270   12.1800
C   15.0320   21.8940   11.5900
H   15.1170   21.7510   10.5170
C   14.4730   20.9160   12.4130
H   14.1800   19.9440   12.0280
C   14.3810   21.0610   13.7930
H   14.0500   20.2450   14.4290
C   14.8220   22.2110   14.4320
H   14.6700   22.2620   15.5060
C   15.2630   23.2580   13.6150
H   15.6250   24.2030   14.0110
C   7.9820   23.6640   20.2210
H   7.6700   24.1780   19.3030
H   8.8810   24.2110   20.5300
H   7.2090   23.8760   20.9700
C   8.2150   22.1450   20.0450
C   8.9820   21.3660   20.9660
H   9.4280   21.8310   21.8400
C   9.3410   20.0110   20.7260
H   9.9200   19.4750   21.4720
C   8.8720   19.3730   19.6080
H   9.2540   18.3910   19.3440
C   8.1140   20.1330   18.6130
H   7.8040   19.7260   17.6550
C   7.8120   21.5360   18.8670
H   7.2650   22.1110   18.1260
C   16.6400   17.6150   24.7630
H   16.2880   18.1500   25.6540
H   16.0580   17.8970   23.8770
H   17.6690   17.9180   24.5330
C   16.4320   16.1690   24.9640
C   17.4700   15.2850   24.7630
H   18.3820   15.6110   24.2700
C   17.2870   13.9420   25.1470
H   18.0430   13.2190   24.8550
C   16.0500   13.5080   25.7080
H   15.9690   12.4530   25.9550
C   15.0160   14.4460   25.9100
H   14.0840   14.0850   26.3350
C   15.2290   15.7710   25.5010
H   14.4230   16.4770   25.6750
C   9.8970   25.7470   14.8340
H   9.2600   26.2100   14.0700
H   10.9030   26.1810   14.8020
H   9.4340   25.9280   15.8120
C   10.1050   24.2760   14.5480
C   9.4830   23.4020   15.4380
H   8.7910   23.7840   16.1820
C   9.7180   22.0020   15.3700
H   9.2880   21.4530   16.2030
C   10.5190   21.4980   14.3610
H   10.5880   20.4200   14.2480
C   11.0160   22.3430   13.3520
H   11.7280   21.9650   12.6240
C   10.8610   23.7380   13.4830
H   11.4610   24.3570   12.8230
C   21.4460   7.1060   12.4470
H   20.6860   6.3340   12.6150
H   22.2500   6.4780   12.0440
H   21.0510   7.7230   11.6300
C   21.6030   8.0210   13.6490
C   21.7540   7.6760   14.9780
H   21.7640   6.6430   15.3150
C   21.9350   8.6230   16.0550
H   22.0640   8.3230   17.0910
C   22.1380   9.9860   15.6920
H   22.3350   10.8010   16.3830
C   22.0340   10.3260   14.3310
H   22.1590   11.3300   13.9360
C   21.6750   9.3700   13.3830
H   21.5590   9.7230   12.3630
C   22.9880   17.6800   12.2810
H   22.9180   16.8740   13.0210
H   23.7730   18.3620   12.6300
H   23.2480   17.2650   11.3000
C   21.6550   18.3490   12.1870
C   20.6220   18.0880   13.0570
H   20.7970   17.3350   13.8210
C   19.4340   18.7990   13.0450
H   18.7570   18.7330   13.8920
C   19.1760   19.7760   12.0220
H   18.2920   20.4060   12.0440
C   20.1570   19.9410   11.0580
H   19.9550   20.5700   10.1960
C   21.4170   19.2580   11.1840
H   22.2080   19.5330   10.4920
C   11.5670   16.9320   9.5720
H   12.2140   17.1360   8.7100
H   11.2820   15.8920   9.3700
H   12.1900   17.0270   10.4710
C   10.3380   17.8120   9.7330
C   9.4070   17.9080   8.6630
H   9.2760   17.1270   7.9200
C   8.4820   18.9870   8.6270
H   7.7350   19.0310   7.8400
C   8.4710   19.9600   9.6310
H   7.7480   20.7700   9.6540
C   9.3540   19.8350   10.7390
H   9.3650   20.4890   11.6050
C   10.1940   18.7130   10.7970
H   10.9300   18.6810   11.5950
C   12.7180   16.6050   23.0210
H   12.8130   16.8270   21.9510
H   13.7280   16.3210   23.3450
H   12.5000   17.5290   23.5710
C   11.8010   15.4010   23.1530
C   10.6200   15.4240   22.3970
H   10.4520   16.2470   21.7090
C   9.7560   14.2780   22.4410
H   8.8510   14.2660   21.8410
C   10.0090   13.2210   23.3230
H   9.3460   12.3640   23.2430
C   11.1890   13.1930   24.0600
H   11.5060   12.4190   24.7520
C   12.1210   14.2630   23.8890
H   13.0670   14.1720   24.4150
C   18.8420   17.6350   27.7520
H   18.1240   17.0240   28.3120
H   18.2540   18.2490   27.0590
H   19.3830   18.2440   28.4880
C   19.7860   16.8740   26.9420
C   20.9230   17.5130   26.3330
H   21.0460   18.5910   26.2770
C   21.9600   16.7460   25.6900
H   22.7590   17.2130   25.1220
C   21.8200   15.3540   25.7340
H   22.5620   14.8350   25.1340
C   20.7780   14.7860   26.4240
H   20.6730   13.7070   26.4980
C   19.7540   15.4920   26.9560
H   18.9700   15.0490   27.5620
C   25.2430   22.7500   18.9430
H   24.6510   23.3730   19.6240
H   24.6070   22.0920   18.3390
H   25.7690   23.4530   18.2840
C   26.2890   22.0890   19.8050
C   27.6530   22.5380   19.7650
H   27.8930   23.3990   19.1490
C   28.6720   21.9360   20.4790
H   29.6960   22.2960   20.4470
C   28.3120   20.9270   21.3620
H   29.1140   20.5670   22.0000
C   26.9480   20.4890   21.5060
H   26.7050   19.7450   22.2580
C   25.9360   21.0700   20.7010
H   24.8820   20.8350   20.8180
C   8.6660   14.0750   6.3660
H   9.5670   14.3180   5.7890
H   8.3130   15.1000   6.5330
H   8.0120   13.6260   5.6080
C   8.9520   13.1750   7.5700
C   9.2520   13.8780   8.7390
H   9.0790   14.9490   8.7860
C   9.7250   13.1670   9.8870
H   10.1540   13.6370   10.7670
C   9.7320   11.7360   9.9480
H   9.9080   11.1180   10.8230
C   9.4160   11.0830   8.7270
H   9.5500   10.0100   8.6190
C   9.0570   11.7790   7.5340
H   8.9280   11.2640   6.5870
C   8.9500   11.1620   20.3870
H   9.6770   10.3770   20.1430
H   8.1570   10.6850   20.9760
H   9.5010   11.9120   20.9680
C   8.2120   11.8340   19.2710
C   8.5700   13.1620   18.8940
H   9.3950   13.6460   19.4100
C   7.8880   13.7660   17.8650
H   8.0520   14.7920   17.5510
C   6.8730   13.0430   17.1600
H   6.3940   13.5060   16.3020
C   6.6020   11.7170   17.5240
H   5.9300   11.0650   16.9750
C   7.2670   11.0920   18.5130
H   6.9380   10.1170   18.8610
C   26.4570   12.4450   13.5550
H   27.1280   12.9590   14.2540
H   26.8800   12.5280   12.5470
H   26.3480   11.3870   13.8240
C   25.0650   13.0040   13.5080
C   24.3200   13.0670   12.3170
H   24.6950   12.4320   11.5200
C   23.1080   13.7070   12.1810
H   22.5800   13.8270   11.2400
C   22.5170   14.2950   13.4070
H   21.5280   14.7440   13.3850
C   23.1780   14.0720   14.6700
H   22.7680   14.3710   15.6300
C   24.4820   13.4620   14.6840
H   25.0670   13.3620   15.5930
C   17.5710   21.2480   6.8890
H   18.6510   21.3700   6.7390
H   17.1030   22.0750   7.4370
H   17.0720   21.3190   5.9150
C   17.2290   19.8820   7.3990
C   18.1980   19.0800   7.9940
H   19.2050   19.4850   8.0050
C   17.9790   17.8310   8.6610
H   18.7330   17.2870   9.2230
C   16.6260   17.3740   8.6220
H   16.3320   16.4460   9.1030
C   15.6520   18.0670   7.8430
H   14.6170   17.7430   7.7980
C   15.9210   19.3400   7.2650
H   15.0810   19.8910   6.8510
C   21.3760   21.0260   23.7240
H   20.4220   20.4870   23.7730
H   21.7020   21.4030   24.7020
H   22.0140   20.1900   23.4130
C   21.3200   22.2390   22.7430
C   21.4220   21.9180   21.3730
H   21.5590   20.8770   21.0950
C   21.1640   22.8820   20.4680
H   21.2420   22.6310   19.4150
C   20.8980   24.2170   20.9180
H   20.7360   25.0150   20.1990
C   20.8810   24.5300   22.2790
H   20.7390   25.5510   22.6190
C   21.0600   23.5250   23.2330
H   21.0710   23.7440   24.2960
C   13.4980   11.9160   9.8290
H   12.9760   11.0440   9.4180
H   12.8920   12.3220   10.6480
H   14.4620   11.6150   10.2580
C   13.7160   13.0320   8.7680
C   15.0200   13.6160   8.6070
H   15.8970   13.3430   9.1870
C   15.2000   14.6260   7.6390
H   16.2250   14.9300   7.4480
C   14.1260   14.9630   6.7830
H   14.1730   15.7170   6.0030
C   12.8520   14.5840   7.1130
H   12.0640   15.0130   6.5020
C   12.6470   13.5090   8.0450
H   11.7110   12.9710   8.1580
C   19.7440   10.5210   20.4450
H   19.1710   11.4550   20.4980
H   19.2620   9.7620   21.0740
H   19.7140   10.3290   19.3650
C   21.1430   10.7570   21.0140
C   22.2290   10.3180   20.2850
H   22.1500   9.9270   19.2750
C   23.5250   10.5680   20.8390
H   24.4000   10.2310   20.2920
C   23.7170   11.1630   22.0780
H   24.7300   11.2050   22.4680
C   22.5380   11.3930   22.8610
H   22.7390   11.7980   23.8480
C   21.2670   11.2310   22.2990
H   20.3950   11.6100   22.8240
C   29.8070   21.0370   16.6750
H   29.7320   22.0770   16.3350
H   30.3810   20.5460   15.8790
H   30.3680   20.9570   17.6140
C   28.4450   20.3010   16.9690
C   28.2260   19.5640   18.1860
H   29.0220   19.4550   18.9170
C   26.8940   19.1050   18.4470
H   26.6720   18.4880   19.3130
C   25.8510   19.3550   17.6180
H   24.8790   18.9520   17.8890
C   26.0900   20.0720   16.3750
H   25.2500   20.2200   15.7020
C   27.3720   20.5830   16.0780
H   27.4500   21.3560   15.3190
C   18.5500   10.0140   11.4130
H   18.7830   9.7570   12.4530
H   19.3500   9.5800   10.8000
H   17.6150   9.5640   11.0570
C   18.6360   11.5680   11.2050
C   19.5130   12.2330   10.3370
H   20.2410   11.5850   9.8580
C   19.5720   13.6310   10.2560
H   20.3650   14.1740   9.7510
C   18.5680   14.3480   10.9390
H   18.6520   15.4260   10.8390
C   17.6480   13.7120   11.7250
H   17.1040   14.3100   12.4500
C   17.7060   12.3240   11.9490
H   17.2340   11.8230   12.7890
C   22.1020   25.4310   5.5970
H   21.4160   26.2880   5.5930
H   21.7860   24.8510   4.7220
H   23.1330   25.7650   5.4260
C   21.9980   24.6230   6.8970
C   21.0770   23.5600   6.9970
H   20.5490   23.2000   6.1180
C   20.8770   22.8840   8.2000
H   20.2320   22.0110   8.2230
C   21.4880   23.3510   9.3830
H   21.2750   22.8260   10.3090
C   22.4070   24.4640   9.3180
H   22.8440   24.9190   10.2020
C   22.7460   25.0220   8.0470
H   23.4980   25.8030   7.9750
C   19.3780   18.4845   21.4102
H   20.0724   18.4980   22.2454
H   18.7925   19.4018   21.5042
H   19.9676   18.5423   20.5077
C   18.5079   17.2513   21.4151
C   17.1300   17.3047   21.2143
H   16.6505   18.2729   21.1802
C   16.3991   16.1199   21.1551
H   15.3347   16.2210   20.9688
C   17.0174   14.8854   21.3516
H   16.4291   13.9801   21.4057
C   18.3959   14.8344   21.5530
H   18.8922   13.8779   21.6826
C   19.1360   16.0127   21.5886
H   20.1819   15.9532   21.8124
562
Frame 16
C   16.4431   15.4890   17.0326
C   18.5482   16.6212   16.7464
C   15.9262   17.8710   17.6096
C   19.2294   16.0589   17.9704
C   19.4790   16.8711   15.5919
N   17.5193   15.6727   16.2750
N   15.3681   14.9299   16.5103
O   15.4086   18.1143   16.2637
H   14.5641   17.6592   16.2623
H   17.3480   15.8147   15.2805
H   16.5752   15.4916   18.0993
H   17.9971   17.5171   17.0091
H   14.5688   14.8042   17.0991
H   15.1985   15.0640   15.5240
H   16.7007   18.6500   17.8149
H   15.1312   18.0668   18.3431
H   20.0185   16.7330   18.2894
H   18.9220   16.9991   14.6670
H   19.6511   15.0874   17.7367
H   18.5254   15.9336   18.7843
H   20.0752   17.7578   15.7574
H   20.1733   16.0424   15.4387
C   31.0130   13.4690   20.5000
H   31.2490   12.6100   21.1410
H   31.6000   14.3580   20.7590
H   31.3090   13.1730   19.4860
C   29.5240   13.6930   20.5110
C   28.9490   14.9820   20.4600
H   29.6230   15.8190   20.3030
C   27.5460   15.1780   20.4020
H   27.1240   16.1710   20.2790
C   26.7510   14.0910   20.7820
H   25.6720   14.1250   20.8970
C   27.2930   12.7880   20.7300
H   26.5470   12.0120   20.8740
C   28.6890   12.5880   20.6520
H   29.0430   11.5650   20.7440
C   9.2210   14.9750   13.0480
H   9.9180   14.2170   12.6700
H   8.7250   15.4390   12.1860
H   8.5460   14.3880   13.6810
C   9.9500   16.0790   13.9260
C   11.1730   16.6700   13.5290
H   11.6950   16.2330   12.6830
C   11.7790   17.6500   14.3810
H   12.6890   18.1940   14.1470
C   11.0580   18.1190   15.4870
H   11.4490   19.0070   15.9740
C   9.8790   17.5550   15.8260
H   9.3990   17.9040   16.7360
C   9.3470   16.4720   15.1090
H   8.3400   16.1840   15.3940
C   13.1040   20.9490   22.1230
H   12.1100   21.0700   22.5720
H   13.3280   19.8760   22.1570
H   12.9300   21.4440   21.1600
C   14.1720   21.7290   22.9410
C   13.9780   23.0550   23.3640
H   12.9880   23.4780   23.2220
C   14.9570   23.7090   24.0980
H   14.8720   24.7370   24.4370
C   16.0910   23.0190   24.4910
H   16.8240   23.5570   25.0840
C   16.3390   21.7000   24.0260
H   17.2960   21.2060   24.1580
C   15.3480   21.0720   23.2660
H   15.4870   20.1110   22.7800
C   22.3270   16.0930   8.4030
H   22.3260   16.2600   9.4870
H   21.4310   15.6720   7.9300
H   22.4190   17.0690   7.9110
C   23.4930   15.2320   7.9250
C   24.6760   15.8080   7.3600
H   24.7170   16.8840   7.2220
C   25.8340   15.0550   7.0100
H   26.7290   15.6050   6.7360
C   25.7140   13.6410   7.1510
H   26.5440   12.9840   6.9070
C   24.5170   13.0840   7.6510
H   24.4140   12.0140   7.8020
C   23.4280   13.8620   7.9640
H   22.4620   13.4500   8.2420
C   13.3770   8.3710   11.1840
H   13.9280   8.9300   11.9500
H   12.7730   7.5980   11.6750
H   12.7470   9.0620   10.6100
C   14.2950   7.7300   10.0940
C   14.0090   6.4760   9.6240
H   13.0770   6.0180   9.9390
C   14.8900   5.7890   8.7340
H   14.6040   4.8470   8.2740
C   16.0940   6.4030   8.4280
H   16.8170   5.9830   7.7360
C   16.3240   7.7020   8.8800
H   17.2290   8.1990   8.5440
C   15.3900   8.3770   9.6670
H   15.4990   9.4410   9.8550
C   22.3720   27.5750   12.3440
H   22.6740   28.6260   12.2520
H   21.8660   27.2750   11.4180
H   23.3360   27.0640   12.4640
C   21.5860   27.1640   13.5380
C   20.6270   26.1270   13.4710
H   20.5230   25.5770   12.5400
C   19.8190   25.9080   14.6070
H   19.0410   25.1530   14.6740
C   19.8330   26.8130   15.6810
H   19.1800   26.6280   16.5280
C   20.7150   27.8320   15.6880
H   20.6750   28.5050   16.5390
C   21.6510   27.9300   14.6880
H   22.3640   28.7490   14.7160
C   26.3230   15.1720   24.4190
H   27.1730   15.7810   24.7530
H   26.9100   14.3730   23.9500
H   25.8350   14.6810   25.2700
C   25.2980   15.8310   23.5700
C   25.3310   17.2270   23.3880
H   26.0260   17.7850   24.0090
C   24.4240   17.8360   22.4700
H   24.3120   18.9080   22.3350
C   23.4800   16.9710   21.8510
H   22.7300   17.3880   21.1860
C   23.4350   15.6140   22.0990
H   22.6180   15.0160   21.7070
C   24.3990   15.0550   22.9540
H   24.2710   14.0400   23.3190
C   12.5310   21.3930   17.8850
H   13.2140   21.0900   17.0820
H   11.5950   21.6280   17.3640
H   12.3060   20.6590   18.6680
C   13.0320   22.5830   18.7360
C   12.2150   23.1990   19.6560
H   11.1450   23.0160   19.6540
C   12.8150   24.0790   20.5840
H   12.1470   24.6520   21.2210
C   14.2070   24.1490   20.7110
H   14.6570   24.8010   21.4530
C   15.0790   23.3670   19.9600
H   16.1550   23.3650   20.1040
C   14.4560   22.6230   18.9390
H   15.0290   21.9490   18.3100
C   14.8830   6.8570   21.3950
H   14.5830   5.8040   21.4680
H   14.1110   7.5640   21.0690
H   14.9540   7.1620   22.4460
C   16.2700   6.9730   20.7720
C   17.3370   6.4110   21.5060
H   17.0910   5.8820   22.4210
C   18.6390   6.6200   20.9560
H   19.4860   6.2070   21.4970
C   18.8360   7.1840   19.6870
H   19.8020   7.2850   19.2010
C   17.7740   7.7920   19.0310
H   17.9360   8.3530   18.1150
C   16.4720   7.7040   19.5680
H   15.6290   8.1750   19.0710
C   14.8160   10.5740   15.3720
H   14.3440   11.0040   14.4800
H   15.1400   11.3900   16.0290
H   13.9830   10.0440   15.8500
C   15.8760   9.5730   14.9300
C   15.5810   8.3740   14.2260
H   14.5360   8.2410   13.9630
C   16.5460   7.4790   13.7060
H   16.2100   6.6290   13.1200
C   17.8520   7.6230   14.2370
H   18.6540   6.9360   13.9850
C   18.1870   8.7030   14.9950
H   19.2350   8.8200   15.2580
C   17.2460   9.6850   15.4350
H   17.6780   10.4650   16.0550
C   8.0650   7.4040   17.5740
H   8.1270   8.0850   16.7160
H   7.5600   7.9240   18.3970
H   7.4880   6.4980   17.3480
C   9.4790   7.0660   18.0080
C   10.5440   7.9760   17.7650
H   10.3730   8.9450   17.3060
C   11.8290   7.6370   18.2640
H   12.7100   8.2510   18.1010
C   12.0090   6.4900   19.0190
H   13.0130   6.2290   19.3400
C   10.9610   5.6080   19.2070
H   11.1880   4.6980   19.7550
C   9.6610   5.8390   18.6640
H   8.8970   5.0800   18.8040
C   18.2400   9.3350   23.8980
H   18.4220   9.0030   24.9280
H   18.8890   10.1800   23.6390
H   18.3460   8.4310   23.2860
C   16.8430   9.7990   23.8620
C   16.4750   10.9760   23.2580
H   17.2340   11.5320   22.7170
C   15.1310   11.3650   23.2170
H   14.8330   12.3010   22.7540
C   14.1480   10.5800   23.8790
H   13.1240   10.9410   23.8510
C   14.5070   9.3760   24.4910
H   13.6960   8.7620   24.8720
C   15.8380   9.0020   24.5510
H   16.1540   8.1380   25.1280
C   10.9060   11.5230   15.8000
H   10.2660   12.1380   16.4450
H   11.8110   12.1010   15.5760
H   11.3030   10.7560   16.4760
C   10.1450   10.8230   14.6590
C   8.8800   11.1470   14.2680
H   8.3050   11.8430   14.8720
C   8.2310   10.3560   13.3000
H   7.1860   10.6060   13.1480
C   8.9080   9.2900   12.6040
H   8.3580   8.8160   11.7960
C   10.2410   9.0790   12.9680
H   10.7620   8.2900   12.4330
C   10.8540   9.7140   14.0870
H   11.8650   9.4940   14.4180
C   12.4900   20.4970   8.7300
H   11.7150   20.4740   7.9540
H   12.2270   19.9760   9.6590
H   13.3460   20.0150   8.2410
C   12.8650   21.9680   8.9270
C   12.1420   22.7970   9.8120
H   11.2610   22.4200   10.3220
C   12.3840   24.1720   9.8850
H   11.8920   24.7890   10.6310
C   13.4520   24.6990   9.1480
H   13.6750   25.7620   9.1740
C   14.2260   23.9500   8.2820
H   15.0110   24.4020   7.6830
C   13.8970   22.5400   8.1400
H   14.4070   21.9210   7.4080
C   25.2240   23.2580   12.7270
H   25.5120   24.3000   12.9180
H   24.9920   23.1420   11.6620
H   26.0960   22.6100   12.8790
C   24.1020   22.8110   13.7090
C   24.1040   23.2240   14.9730
H   24.9610   23.8230   15.2650
C   23.1140   22.7650   15.8740
H   23.0750   23.1170   16.9010
C   22.0540   21.9550   15.3630
H   21.3500   21.5740   16.0970
C   21.9790   21.6570   14.0120
H   21.2210   20.9940   13.6040
C   22.9780   22.0850   13.1860
H   22.9530   21.7500   12.1530
C   15.9690   24.2190   11.3740
H   16.8540   24.6850   11.8250
H   15.3350   25.1120   11.4330
H   16.1270   23.9390   10.3250
C   15.4160   23.1270   12.1800
C   15.0320   21.8940   11.5900
H   15.1170   21.7510   10.5170
C   14.4730   20.9160   12.4130
H   14.1800   19.9440   12.0280
C   14.3810   21.0610   13.7930
H   14.0500   20.2450   14.4290
C   14.8220   22.2110   14.4320
H   14.6700   22.2620   15.5060
C   15.2630   23.2580   13.6150
H   15.6250   24.2030   14.0110
C   7.9820   23.6640   20.2210
H   7.6700   24.1780   19.3030
H   8.8810   24.2110   20.5300
H   7.2090   23.8760   20.9700
C   8.2150   22.1450   20.0450
C   8.9820   21.3660   20.9660
H   9.4280   21.8310   21.8400
C   9.3410   20.0110   20.7260
H   9.9200   19.4750   21.4720
C   8.8720   19.3730   19.6080
H   9.2540   18.3910   19.3440
C   8.1140   20.1330   18.6130
H   7.8040   19.7260   17.6550
C   7.8120   21.5360   18.8670
H   7.2650   22.1110   18.1260
C   16.6400   17.6150   24.7630
H   16.2880   18.1500   25.6540
H   16.0580   17.8970   23.8770
H   17.6690   17.9180   24.5330
C   16.4320   16.1690   24.9640
C   17.4700   15.2850   24.7630
H   18.3820   15.6110   24.2700
C   17.2870   13.9420   25.1470
H   18.0430   13.2190   24.8550
C   16.0500   13.5080   25.7080
H   15.9690   12.4530   25.9550
C   15.0160   14.4460   25.9100
H   14.0840   14.0850   26.3350
C   15.2290   15.7710   25.5010
H   14.4230   16.4770   25.6750
C   9.8970   25.7470   14.8340
H   9.2600   26.2100   14.0700
H   10.9030   26.1810   14.8020
H   9.4340   25.9280   15.8120
C   10.1050   24.2760   14.5480
C   9.4830   23.4020   15.4380
H   8.7910   23.7840   16.1820
C   9.7180   22.0020   15.3700
H   9.2880   21.4530   16.2030
C   10.5190   21.4980   14.3610
H   10.5880   20.4200   14.2480
C   11.0160   22.3430   13.3520
H   11.7280   21.9650   12.6240
C   10.8610   23.7380   13.4830
H   11.4610   24.3570   12.8230
C   21.4460   7.1060   12.4470
H   20.6860   6.3340   12.6150
H   22.2500   6.4780   12.0440
H   21.0510   7.7230   11.6300
C   21.6030   8.0210   13.6490
C   21.7540   7.6760   14.9780
H   21.7640   6.6430   15.3150
C   21.9350   8.6230   16.0550
H   22.0640   8.3230   17.0910
C   22.1380   9.9860   15.6920
H   22.3350   10.8010   16.3830
C   22.0340   10.3260   14.3310
H   22.1590   11.3300   13.9360
C   21.6750   9.3700   13.3830
H   21.5590   9.7230   12.3630
C   22.9880   17.6800   12.2810
H   22.9180   16.8740   13.0210
H   23.7730   18.3620   12.6300
H   23.2480   17.2650   11.3000
C   21.6550   18.3490   12.1870
C   20.6220   18.0880   13.0570
H   20.7970   17.3350   13.8210
C   19.4340   18.7990   13.0450
H   18.7570   18.7330   13.8920
C   19.1760   19.7760   12.0220
H   18.2920   20.4060   12.0440
C   20.1570   19.9410   11.0580
H   19.9550   20.5700   10.1960
C   21.4170   19.2580   11.1840
H   22.2080   19.5330   10.4920
C   11.5670   16.9320   9.5720
H   12.2140   17.1360   8.7100
H   11.2820   15.8920   9.3700
H   12.1900   17.0270   10.4710
C   10.3380   17.8120   9.7330
C   9.4070   17.9080   8.6630
H   9.2760   17.1270   7.9200
C   8.4820   18.9870   8.6270
H   7.7350   19.0310   7.8400
C   8.4710   19.9600   9.6310
H   7.7480   20.7700   9.6540
C   9.3540   19.8350   10.7390
H   9.3650   20.4890   11.6050
C   10.1940   18.7130   10.7970
H   10.9300   18.6810   11.5950
C   12.7180   16.6050   23.0210
H   12.8130   16.8270   21.9510
H   13.7280   16.3210   23.3450
H   12.5000   17.5290   23.5710
C   11.8010   15.4010   23.1530
C   10.6200   15.4240   22.3970
H   10.4520   16.2470   21.7090
C   9.7560   14.2780   22.4410
H   8.8510   14.2660   21.8410
C   10.0090   13.2210   23.3230
H   9.3460   12.3640   23.2430
C   11.1890   13.1930   24.0600
H   11.5060   12.4190   24.7520
C   12.1210   14.2630   23.8890
H   13.0670   14.1720   24.4150
C   18.8420   17.6350   27.7520
H   18.1240   17.0240   28.3120
H   18.2540   18.2490   27.0590
H   19.3830   18.2440   28.4880
C   19.7860   16.8740   26.9420
C   20.9230   17.5130   26.3330
H   21.0460   18.5910   26.2770
C   21.9600   16.7460   25.6900
H   22.7590   17.2130   25.1220
C   21.8200   15.3540   25.7340
H   22.5620   14.8350   25.1340
C   20.7780   14.7860   26.4240
H   20.6730   13.7070   26.4980
C   19.7540   15.4920   26.9560
H   18.9700   15.0490   27.5620
C   25.2430   22.7500   18.9430
H   24.6510   23.3730   19.6240
H   24.6070   22.0920   18.3390
H   25.7690   23.4530   18.2840
C   26.2890   22.0890   19.8050
C   27.6530   22.5380   19.7650
H   27.8930   23.3990   19.1490
C   28.6720   21.9360   20.4790
H   29.6960   22.2960   20.4470
C   28.3120   20.9270   21.3620
H   29.1140   20.5670   22.0000
C   26.9480   20.4890   21.5060
H   26.7050   19.7450   22.2580
C   25.9360   21.0700   20.7010
H   24.8820   20.8350   20.8180
C   8.6660   14.0750   6.3660
H   9.5670   14.3180   5.7890
H   8.3130   15.1000   6.5330
H   8.0120   13.6260   5.6080
C   8.9520   13.1750   7.5700
C   9.2520   13.8780   8.7390
H   9.0790   14.9490   8.7860
C   9.7250   13.1670   9.8870
H   10.1540   13.6370   10.7670
C   9.7320   11.7360   9.9480
H   9.9080   11.1180   10.8230
C   9.4160   11.0830   8.7270
H   9.5500   10.0100   8.6190
C   9.0570   11.7790   7.5340
H   8.9280   11.2640   6.5870
C   8.9500   11.1620   20.3870
H   9.6770   10.3770   20.1430
H   8.1570   10.6850   20.9760
H   9.5010   11.9120   20.9680
C   8.2120   11.8340   19.2710
C   8.5700   13.1620   18.8940
H   9.3950   13.6460   19.4100
C   7.8880   13.7660   17.8650
H   8.0520   14.7920   17.5510
C   6.8730   13.0430   17.1600
H   6.3940   13.5060   16.3020
C   6.6020   11.7170   17.5240
H   5.9300   11.0650   16.9750
C   7.2670   11.0920   18.5130
H   6.9380   10.1170   18.8610
C   26.4570   12.4450   13.5550
H   27.1280   12.9590   14.2540
H   26.8800   12.5280   12.5470
H   26.3480   11.3870   13.8240
C   25.0650   13.0040   13.5080
C   24.3200   13.0670   12.3170
H   24.6950   12.4320   11.5200
C   23.1080   13.7070   12.1810
H   22.5800   13.8270   11.2400
C   22.5170   14.2950   13.4070
H   21.5280   14.7440   13.3850
C   23.1780   14.0720   14.6700
H   22.7680   14.3710   15.6300
C   24.4820   13.4620   14.6840
H   25.0670   13.3620   15.5930
C   17.5710   21.2480   6.8890
H   18.6510   21.3700   6.7390
H   17.1030   22.0750   7.4370
H   17.0720   21.3190   5.9150
C   17.2290   19.8820   7.3990
C   18.1980   19.0800   7.9940
H   19.2050   19.4850   8.0050
C   17.9790   17.8310   8.6610
H   18.7330   17.2870   9.2230
C   16.6260   17.3740   8.6220
H   16.3320   16.4460   9.1030
C   15.6520   18.0670   7.8430
H   14.6170   17.7430   7.7980
C   15.9210   19.3400   7.2650
H   15.0810   19.8910   6.8510
C   21.3760   21.0260   23.7240
H   20.4220   20.4870   23.7730
H   21.7020   21.4030   24.7020
H   22.0140   20.1900   23.4130
C   21.3200   22.2390   22.7430
C   21.4220   21.9180   21.3730
H   21.5590   20.8770   21.0950
C   21.1640   22.8820   20.4680
H   21.2420   22.6310   19.4150
C   20.8980   24.2170   20.9180
H   20.7360   25.0150   20.1990
C   20.8810   24.5300   22.2790
H   20.7390   25.5510   22.6190
C   21.0600   23.5250   23.2330
H   21.0710   23.7440   24.2960
C   13.4980   11.9160   9.8290
H   12.9760   11.0440   9.4180
H   12.8920   12.3220   10.6480
H   14.4620   11.6150   10.2580
C   13.7160   13.0320   8.7680
C   15.0200   13.6160   8.6070
H   15.8970   13.3430   9.1870
C   15.2000   14.6260   7.6390
H   16.2250   14.9300   7.4480
C   14.1260   14.9630   6.7830
H   14.1730   15.7170   6.0030
C   12.8520   14.5840   7.1130
H   12.0640   15.0130   6.5020
C   12.6470   13.5090   8.0450
H   11.7110   12.9710   8.1580
C   19.7440   10.5210   20.4450
H   19.1710   11.4550   20.4980
H   19.2620   9.7620   21.0740
H   19.7140   10.3290   19.3650
C   21.1430   10.7570   21.0140
C   22.2290   10.3180   20.2850
H   22.1500   9.9270   19.2750
C   23.5250   10.5680   20.8390
H   24.4000   10.2310   20.2920
C   23.7170   11.1630   22.0780
H   24.7300   11.2050   22.4680
C   22.5380   11.3930   22.8610
H   22.7390   11.7980   23.8480
C   21.2670   11.2310   22.2990
H   20.3950   11.6100   22.8240
C   29.8070   21.0370   16.6750
H   29.7320   22.0770   16.3350
H   30.3810   20.5460   15.8790
H   30.3680   20.9570   17.6140
C   28.4450   20.3010   16.9690
C   28.2260   19.5640   18.1860
H   29.0220   19.4550   18.9170
C   26.8940   19.1050   18.4470
H   26.6720   18.4880   19.3130
C   25.8510   19.3550   17.6180
H   24.8790   18.9520   17.8890
C   26.0900   20.0720   16.3750
H   25.2500   20.2200   15.7020
C   27.3720   20.5830   16.0780
H   27.4500   21.3560   15.3190
C   18.5500   10.0140   11.4130
H   18.7830   9.7570   12.4530
H   19.3500   9.5800   10.8000
H   17.6150   9.5640   11.0570
C   18.6360   11.5680   11.2050
C   19.5130   12.2330   10.3370
H   20.2410   11.5850   9.8580
C   19.5720   13.6310   10.2560
H   20.3650   14.1740   9.7510
C   18.5680   14.3480   10.9390
H   18.6520   15.4260   10.8390
C   17.6480   13.7120   11.7250
H   17.1040   14.3100   12.4500
C   17.7060   12.3240   11.9490
H   17.2340   11.8230   12.7890
C   22.1020   25.4310   5.5970
H   21.4160   26.2880   5.5930
H   21.7860   24.8510   4.7220
H   23.1330   25.7650   5.4260
C   21.9980   24.6230   6.8970
C   21.0770   23.5600   6.9970
H   20.5490   23.2000   6.1180
C   20.8770   22.8840   8.2000
H   20.2320   22.0110   8.2230
C   21.4880   23.3510   9.3830
H   21.2750   22.8260   10.3090
C   22.4070   24.4640   9.3180
H   22.8440   24.9190   10.2020
C   22.7460   25.0220   8.0470
H   23.4980   25.8030   7.9750
C   19.3752   18.4949   21.4177
H   20.0633   18.4997   22.2502
H   18.7899   19.3999   21.5179
H   19.9551   18.5436   20.5055
C   18.5103   17.2461   21.4112
C   17.1353   17.3055   21.2208
H   16.6514   18.2668   21.1868
C   16.4029   16.1156   21.1563
H   15.3454   16.2216   20.9512
C   17.0152   14.8850   21.3701
H   16.4166   13.9776   21.4288
C   18.3886   14.8290   21.5661
H   18.8876   13.8745   21.6889
C   19.1372   16.0096   21.5883
H   20.1863   15.9595   21.8014
562
Frame 17
C   16.4215   15.5489   17.0650
C   18.5572   16.6240   16.7632
C   15.8489   17.8499   17.6303
C   19.2491   16.0466   17.9859
C   19.4903   16.8527   15.5980
N   17.5196   15.6694   16.3014
N   15.3627   14.9567   16.5329
O   15.3874   18.0979   16.2602
H   14.4798   17.7470   16.2945
H   17.3848   15.7814   15.2981
H   16.5764   15.5218   18.1266
H   18.0013   17.5229   17.0296
H   14.5754   14.8468   17.1416
H   15.2243   15.0246   15.5350
H   16.6630   18.5959   17.8367
H   15.0408   18.0949   18.3427
H   20.0381   16.7097   18.3202
H   18.9404   16.9445   14.6574
H   19.6598   15.0745   17.7130
H   18.5436   15.9015   18.7906
H   20.1002   17.7443   15.7141
H   20.1782   16.0176   15.4730
C   31.0130   13.4690   20.5000
H   31.2490   12.6100   21.1410
H   31.6000   14.3580   20.7590
H   31.3090   13.1730   19.4860
C   29.5240   13.6930   20.5110
C   28.9490   14.9820   20.4600
H   29.6230   15.8190   20.3030
C   27.5460   15.1780   20.4020
H   27.1240   16.1710   20.2790
C   26.7510   14.0910   20.7820
H   25.6720   14.1250   20.8970
C   27.2930   12.7880   20.7300
H   26.5470   12.0120   20.8740
C   28.6890   12.5880   20.6520
H   29.0430   11.5650   20.7440
C   9.2210   14.9750   13.0480
H   9.9180   14.2170   12.6700
H   8.7250   15.4390   12.1860
H   8.5460   14.3880   13.6810
C   9.9500   16.0790   13.9260
C   11.1730   16.6700   13.5290
H   11.6950   16.2330   12.6830
C   11.7790   17.6500   14.3810
H   12.6890   18.1940   14.1470
C   11.0580   18.1190   15.4870
H   11.4490   19.0070   15.9740
C   9.8790   17.5550   15.8260
H   9.3990   17.9040   16.7360
C   9.3470   16.4720   15.1090
H   8.3400   16.1840   15.3940
C   13.1040   20.9490   22.1230
H   12.1100   21.0700   22.5720
H   13.3280   19.8760   22.1570
H   12.9300   21.4440   21.1600
C   14.1720   21.7290   22.9410
C   13.9780   23.0550   23.3640
H   12.9880   23.4780   23.2220
C   14.9570   23.7090   24.0980
H   14.8720   24.7370   24.4370
C   16.0910   23.0190   24.4910
H   16.8240   23.5570   25.0840
C   16.3390   21.7000   24.0260
H   17.2960   21.2060   24.1580
C   15.3480   21.0720   23.2660
H   15.4870   20.1110   22.7800
C   22.3270   16.0930   8.4030
H   22.3260   16.2600   9.4870
H   21.4310   15.6720   7.9300
H   22.4190   17.0690   7.9110
C   23.4930   15.2320   7.9250
C   24.6760   15.8080   7.3600
H   24.7170   16.8840   7.2220
C   25.8340   15.0550   7.0100
H   26.7290   15.6050   6.7360
C   25.7140   13.6410   7.1510
H   26.5440   12.9840   6.9070
C   24.5170   13.0840   7.6510
H   24.4140   12.0140   7.8020
C   23.4280   13.8620   7.9640
H   22.4620   13.4500   8.2420
C   13.3770   8.3710   11.1840
H   13.9280   8.9300   11.9500
H   12.7730   7.5980   11.6750
H   12.7470   9.0620   10.6100
C   14.2950   7.7300   10.0940
C   14.0090   6.4760   9.6240
H   13.0770   6.0180   9.9390
C   14.8900   5.7890   8.7340
H   14.6040   4.8470   8.2740
C   16.0940   6.4030   8.4280
H   16.8170   5.9830   7.7360
C   16.3240   7.7020   8.8800
H   17.2290   8.1990   8.5440
C   15.3900   8.3770   9.6670
H   15.4990   9.4410   9.8550
C   22.3720   27.5750   12.3440
H   22.6740   28.6260   12.2520
H   21.8660   27.2750   11.4180
H   23.3360   27.0640   12.4640
C   21.5860   27.1640   13.5380
C   20.6270   26.1270   13.4710
H   20.5230   25.5770   12.5400
C   19.8190   25.9080   14.6070
H   19.0410   25.1530   14.6740
C   19.8330   26.8130   15.6810
H   19.1800   26.6280   16.5280
C   20.7150   27.8320   15.6880
H   20.6750   28.5050   16.5390
C   21.6510   27.9300   14.6880
H   22.3640   28.7490   14.7160
C   26.3230   15.1720   24.4190
H   27.1730   15.7810   24.7530
H   26.9100   14.3730   23.9500
H   25.8350   14.6810   25.2700
C   25.2980   15.8310   23.5700
C   25.3310   17.2270   23.3880
H   26.0260   17.7850   24.0090
C   24.4240   17.8360   22.4700
H   24.3120   18.9080   22.3350
C   23.4800   16.9710   21.8510
H   22.7300   17.3880   21.1860
C   23.4350   15.6140   22.0990
H   22.6180   15.0160   21.7070
C   24.3990   15.0550   22.9540
H   24.2710   14.0400   23.3190
C   12.5310   21.3930   17.8850
H   13.2140   21.0900   17.0820
H   11.5950   21.6280   17.3640
H   12.3060   20.6590   18.6680
C   13.0320   22.5830   18.7360
C   12.2150   23.1990   19.6560
H   11.1450   23.0160   19.6540
C   12.8150   24.0790   20.5840
H   12.1470   24.6520   21.2210
C   14.2070   24.1490   20.7110
H   14.6570   24.8010   21.4530
C   15.0790   23.3670   19.9600
H   16.1550   23.3650   20.1040
C   14.4560   22.6230   18.9390
H   15.0290   21.9490   18.3100
C   14.8830   6.8570   21.3950
H   14.5830   5.8040   21.4680
H   14.1110   7.5640   21.0690
H   14.9540   7.1620   22.4460
C   16.2700   6.9730   20.7720
C   17.3370   6.4110   21.5060
H   17.0910   5.8820   22.4210
C   18.6390   6.6200   20.9560
H   19.4860   6.2070   21.4970
C   18.8360   7.1840   19.6870
H   19.8020   7.2850   19.2010
C   17.7740   7.7920   19.0310
H   17.9360   8.3530   18.1150
C   16.4720   7.7040   19.5680
H   15.6290   8.1750   19.0710
C   14.8160   10.5740   15.3720
H   14.3440   11.0040   14.4800
H   15.1400   11.3900   16.0290
H   13.9830   10.0440   15.8500
C   15.8760   9.5730   14.9300
C   15.5810   8.3740   14.2260
H   14.5360   8.2410   13.9630
C   16.5460   7.4790   13.7060
H   16.2100   6.6290   13.1200
C   17.8520   7.6230   14.2370
H   18.6540   6.9360   13.9850
C   18.1870   8.7030   14.9950
H   19.2350   8.8200   15.2580
C   17.2460   9.6850   15.4350
H   17.6780   10.4650   16.0550
C   8.0650   7.4040   17.5740
H   8.1270   8.0850   16.7160
H   7.5600   7.9240   18.3970
H   7.4880   6.4980   17.3480
C   9.4790   7.0660   18.0080
C   10.5440   7.9760   17.7650
H   10.3730   8.9450   17.3060
C   11.8290   7.6370   18.2640
H   12.7100   8.2510   18.1010
C   12.0090   6.4900   19.0190
H   13.0130   6.2290   19.3400
C   10.9610   5.6080   19.2070
H   11.1880   4.6980   19.7550
C   9.6610   5.8390   18.6640
H   8.8970   5.0800   18.8040
C   18.2400   9.3350   23.8980
H   18.4220   9.0030   24.9280
H   18.8890   10.1800   23.6390
H   18.3460   8.4310   23.2860
C   16.8430   9.7990   23.8620
C   16.4750   10.9760   23.2580
H   17.2340   11.5320   22.7170
C   15.1310   11.3650   23.2170
H   14.8330   12.3010   22.7540
C   14.1480   10.5800   23.8790
H   13.1240   10.9410   23.8510
C   14.5070   9.3760   24.4910
H   13.6960   8.7620   24.8720
C   15.8380   9.0020   24.5510
H   16.1540   8.1380   25.1280
C   10.9060   11.5230   15.8000
H   10.2660   12.1380   16.4450
H   11.8110   12.1010   15.5760
H   11.3030   10.7560   16.4760
C   10.1450   10.8230   14.6590
C   8.8800   11.1470   14.2680
H   8.3050   11.8430   14.8720
C   8.2310   10.3560   13.3000
H   7.1860   10.6060   13.1480
C   8.9080   9.2900   12.6040
H   8.3580   8.8160   11.7960
C   10.2410   9.0790   12.9680
H   10.7620   8.2900   12.4330
C   10.8540   9.7140   14.0870
H   11.8650   9.4940   14.4180
C   12.4900   20.4970   8.7300
H   11.7150   20.4740   7.9540
H   12.2270   19.9760   9.6590
H   13.3460   20.0150   8.2410
C   12.8650   21.9680   8.9270
C   12.1420   22.7970   9.8120
H   11.2610   22.4200   10.3220
C   12.3840   24.1720   9.8850
H   11.8920   24.7890   10.6310
C   13.4520   24.6990   9.1480
H   13.6750   25.7620   9.1740
C   14.2260   23.9500   8.2820
H   15.0110   24.4020   7.6830
C   13.8970   22.5400   8.1400
H   14.4070   21.9210   7.4080
C   25.2240   23.2580   12.7270
H   25.5120   24.3000   12.9180
H   24.9920   23.1420   11.6620
H   26.0960   22.6100   12.8790
C   24.1020   22.8110   13.7090
C   24.1040   23.2240   14.9730
H   24.9610   23.8230   15.2650
C   23.1140   22.7650   15.8740
H   23.0750   23.1170   16.9010
C   22.0540   21.9550   15.3630
H   21.3500   21.5740   16.0970
C   21.9790   21.6570   14.0120
H   21.2210   20.9940   13.6040
C   22.9780   22.0850   13.1860
H   22.9530   21.7500   12.1530
C   15.9690   24.2190   11.3740
H   16.8540   24.6850   11.8250
H   15.3350   25.1120   11.4330
H   16.1270   23.9390   10.3250
C   15.4160   23.1270   12.1800
C   15.0320   21.8940   11.5900
H   15.1170   21.7510   10.5170
C   14.4730   20.9160   12.4130
H   14.1800   19.9440   12.0280
C   14.3810   21.0610   13.7930
H   14.0500   20.2450   14.4290
C   14.8220   22.2110   14.4320
H   14.6700   22.2620   15.5060
C   15.2630   23.2580   13.6150
H   15.6250   24.2030   14.0110
C   7.9820   23.6640   20.2210
H   7.6700   24.1780   19.3030
H   8.8810   24.2110   20.5300
H   7.2090   23.8760   20.9700
C   8.2150   22.1450   20.0450
C   8.9820   21.3660   20.9660
H   9.4280   21.8310   21.8400
C   9.3410   20.0110   20.7260
H   9.9200   19.4750   21.4720
C   8.8720   19.3730   19.6080
H   9.2540   18.3910   19.3440
C   8.1140   20.1330   18.6130
H   7.8040   19.7260   17.6550
C   7.8120   21.5360   18.8670
H   7.2650   22.1110   18.1260
C   16.6400   17.6150   24.7630
H   16.2880   18.1500   25.6540
H   16.0580   17.8970   23.8770
H   17.6690   17.9180   24.5330
C   16.4320   16.1690   24.9640
C   17.4700   15.2850   24.7630
H   18.3820   15.6110   24.2700
C   17.2870   13.9420   25.1470
H   18.0430   13.2190   24.8550
C   16.0500   13.5080   25.7080
H   15.9690   12.4530   25.9550
C   15.0160   14.4460   25.9100
H   14.0840   14.0850   26.3350
C   15.2290   15.7710   25.5010
H   14.4230   16.4770   25.6750
C   9.8970   25.7470   14.8340
H   9.2600   26.2100   14.0700
H   10.9030   26.1810   14.8020
H   9.4340   25.9280   15.8120
C   10.1050   24.2760   14.5480
C   9.4830   23.4020   15.4380
H   8.7910   23.7840   16.1820
C   9.7180   22.0020   15.3700
H   9.2880   21.4530   16.2030
C   10.5190   21.4980   14.3610
H   10.5880   20.4200   14.2480
C   11.0160   22.3430   13.3520
H   11.7280   21.9650   12.6240
C   10.8610   23.7380   13.4830
H   11.4610   24.3570   12.8230
C   21.4460   7.1060   12.4470
H   20.6860   6.3340   12.6150
H   22.2500   6.4780   12.0440
H   21.0510   7.7230   11.6300
C   21.6030   8.0210   13.6490
C   21.7540   7.6760   14.9780
H   21.7640   6.6430   15.3150
C   21.9350   8.6230   16.0550
H   22.0640   8.3230   17.0910
C   22.1380   9.9860   15.6920
H   22.3350   10.8010   16.3830
C   22.0340   10.3260   14.3310
H   22.1590   11.3300   13.9360
C   21.6750   9.3700   13.3830
H   21.5590   9.7230   12.3630
C   22.9880   17.6800   12.2810
H   22.9180   16.8740   13.0210
H   23.7730   18.3620   12.6300
H   23.2480   17.2650   11.3000
C   21.6550   18.3490   12.1870
C   20.6220   18.0880   13.0570
H   20.7970   17.3350   13.8210
C   19.4340   18.7990   13.0450
H   18.7570   18.7330   13.8920
C   19.1760   19.7760   12.0220
H   18.2920   20.4060   12.0440
C   20.1570   19.9410   11.0580
H   19.9550   20.5700   10.1960
C   21.4170   19.2580   11.1840
H   22.2080   19.5330   10.4920
C   11.5670   16.9320   9.5720
H   12.2140   17.1360   8.7100
H   11.2820   15.8920   9.3700
H   12.1900   17.0270   10.4710
C   10.3380   17.8120   9.7330
C   9.4070   17.9080   8.6630
H   9.2760   17.1270   7.9200
C   8.4820   18.9870   8.6270
H   7.7350   19.0310   7.8400
C   8.4710   19.9600   9.6310
H   7.7480   20.7700   9.6540
C   9.3540   19.8350   10.7390
H   9.3650   20.4890   11.6050
C   10.1940   18.7130   10.7970
H   10.9300   18.6810   11.5950
C   12.7180   16.6050   23.0210
H   12.8130   16.8270   21.9510
H   13.7280   16.3210   23.3450
H   12.5000   17.5290   23.5710
C   11.8010   15.4010   23.1530
C   10.6200   15.4240   22.3970
H   10.4520   16.2470   21.7090
C   9.7560   14.2780   22.4410
H   8.8510   14.2660   21.8410
C   10.0090   13.2210   23.3230
H   9.3460   12.3640   23.2430
C   11.1890   13.1930   24.0600
H   11.5060   12.4190   24.7520
C   12.1210   14.2630   23.8890
H   13.0670   14.1720   24.4150
C   18.8420   17.6350   27.7520
H   18.1240   17.0240   28.3120
H   18.2540   18.2490   27.0590
H   19.3830   18.2440   28.4880
C   19.7860   16.8740   26.9420
C   20.9230   17.5130   26.3330
H   21.0460   18.5910   26.2770
C   21.9600   16.7460   25.6900
H   22.7590   17.2130   25.1220
C   21.8200   15.3540   25.7340
H   22.5620   14.8350   25.1340
C   20.7780   14.7860   26.4240
H   20.6730   13.7070   26.4980
C   19.7540   15.4920   26.9560
H   18.9700   15.0490   27.5620
C   25.2430   22.7500   18.9430
H   24.6510   23.3730   19.6240
H   24.6070   22.0920   18.3390
H   25.7690   23.4530   18.2840
C   26.2890   22.0890   19.8050
C   27.6530   22.5380   19.7650
H   27.8930   23.3990   19.1490
C   28.6720   21.9360   20.4790
H   29.6960   22.2960   20.4470
C   28.3120   20.9270   21.3620
H   29.1140   20.5670   22.0000
C   26.9480   20.4890   21.5060
H   26.7050   19.7450   22.2580
C   25.9360   21.0700   20.7010
H   24.8820   20.8350   20.8180
C   8.6660   14.0750   6.3660
H   9.5670   14.3180   5.7890
H   8.3130   15.1000   6.5330
H   8.0120   13.6260   5.6080
C   8.9520   13.1750   7.5700
C   9.2520   13.8780   8.7390
H   9.0790   14.9490   8.7860
C   9.7250   13.1670   9.8870
H   10.1540   13.6370   10.7670
C   9.7320   11.7360   9.9480
H   9.9080   11.1180   10.8230
C   9.4160   11.0830   8.7270
H   9.5500   10.0100   8.6190
C   9.0570   11.7790   7.5340
H   8.9280   11.2640   6.5870
C   8.9500   11.1620   20.3870
H   9.6770   10.3770   20.1430
H   8.1570   10.6850   20.9760
H   9.5010   11.9120   20.9680
C   8.2120   11.8340   19.2710
C   8.5700   13.1620   18.8940
H   9.3950   13.6460   19.4100
C   7.8880   13.7660   17.8650
H   8.0520   14.7920   17.5510
C   6.8730   13.0430   17.1600
H   6.3940   13.5060   16.3020
C   6.6020   11.7170   17.5240
H   5.9300   11.0650   16.9750
C   7.2670   11.0920   18.5130
H   6.9380   10.1170   18.8610
C   26.4570   12.4450   13.5550
H   27.1280   12.9590   14.2540
H   26.8800   12.5280   12.5470
H   26.3480   11.3870   13.8240
C   25.0650   13.0040   13.5080
C   24.3200   13.0670   12.3170
H   24.6950   12.4320   11.5200
C   23.1080   13.7070   12.1810
H   22.5800   13.8270   11.2400
C   22.5170   14.2950   13.4070
H   21.5280   14.7440   13.3850
C   23.1780   14.0720   14.6700
H   22.7680   14.3710   15.6300
C   24.4820   13.4620   14.6840
H   25.0670   13.3620   15.5930
C   17.5710   21.2480   6.8890
H   18.6510   21.3700   6.7390
H   17.1030   22.0750   7.4370
H   17.0720   21.3190   5.9150
C   17.2290   19.8820   7.3990
C   18.1980   19.0800   7.9940
H   19.2050   19.4850   8.0050
C   17.9790   17.8310   8.6610
H   18.7330   17.2870   9.2230
C   16.6260   17.3740   8.6220
H   16.3320   16.4460   9.1030
C   15.6520   18.0670   7.8430
H   14.6170   17.7430   7.7980
C   15.9210   19.3400   7.2650
H   15.0810   19.8910   6.8510
C   21.3760   21.0260   23.7240
H   20.4220   20.4870   23.7730
H   21.7020   21.4030   24.7020
H   22.0140   20.1900   23.4130
C   21.3200   22.2390   22.7430
C   21.4220   21.9180   21.3730
H   21.5590   20.8770   21.0950
C   21.1640   22.8820   20.4680
H   21.2420   22.6310   19.4150
C   20.8980   24.2170   20.9180
H   20.7360   25.0150   20.1990
C   20.8810   24.5300   22.2790
H   20.7390   25.5510   22.6190
C   21.0600   23.5250   23.2330
H   21.0710   23.7440   24.2960
C   13.4980   11.9160   9.8290
H   12.9760   11.0440   9.4180
H   12.8920   12.3220   10.6480
H   14.4620   11.6150   10.2580
C   13.7160   13.0320   8.7680
C   15.0200   13.6160   8.6070
H   15.8970   13.3430   9.1870
C   15.2000   14.6260   7.6390
H   16.2250   14.9300   7.4480
C   14.1260   14.9630   6.7830
H   14.1730   15.7170   6.0030
C   12.8520   14.5840   7.1130
H   12.0640   15.0130   6.5020
C   12.6470   13.5090   8.0450
H   11.7110   12.9710   8.1580
C   19.7440   10.5210   20.4450
H   19.1710   11.4550   20.4980
H   19.2620   9.7620   21.0740
H   19.7140   10.3290   19.3650
C   21.1430   10.7570   21.0140
C   22.2290   10.3180   20.2850
H   22.1500   9.9270   19.2750
C   23.5250   10.5680   20.8390
H   24.4000   10.2310   20.2920
C   23.7170   11.1630   22.0780
H   24.7300   11.2050   22.4680
C   22.5380   11.3930   22.8610
H   22.7390   11.7980   23.8480
C   21.2670   11.2310   22.2990
H   20.3950   11.6100   22.8240
C   29.8070   21.0370   16.6750
H   29.7320   22.0770   16.3350
H   30.3810   20.5460   15.8790
H   30.3680   20.9570   17.6140
C   28.4450   20.3010   16.9690
C   28.2260   19.5640   18.1860
H   29.0220   19.4550   18.9170
C   26.8940   19.1050   18.4470
H   26.6720   18.4880   19.3130
C   25.8510   19.3550   17.6180
H   24.8790   18.9520   17.8890
C   26.0900   20.0720   16.3750
H   25.2500   20.2200   15.7020
C   27.3720   20.5830   16.0780
H   27.4500   21.3560   15.3190
C   18.5500   10.0140   11.4130
H   18.7830   9.7570   12.4530
H   19.3500   9.5800   10.8000
H   17.6150   9.5640   11.0570
C   18.6360   11.5680   11.2050
C   19.5130   12.2330   10.3370
H   20.2410   11.5850   9.8580
C   19.5720   13.6310   10.2560
H   20.3650   14.1740   9.7510
C   18.5680   14.3480   10.9390
H   18.6520   15.4260   10.8390
C   17.6480   13.7120   11.7250
H   17.1040   14.3100   12.4500
C   17.7060   12.3240   11.9490
H   17.2340   11.8230   12.7890
C   22.1020   25.4310   5.5970
H   21.4160   26.2880   5.5930
H   21.7860   24.8510   4.7220
H   23.1330   25.7650   5.4260
C   21.9980   24.6230   6.8970
C   21.0770   23.5600   6.9970
H   20.5490   23.2000   6.1180
C   20.8770   22.8840   8.2000
H   20.2320   22.0110   8.2230
C   21.4880   23.3510   9.3830
H   21.2750   22.8260   10.3090
C   22.4070   24.4640   9.3180
H   22.8440   24.9190   10.2020
C   22.7460   25.0220   8.0470
H   23.4980   25.8030   7.9750
C   19.3644   18.5038   21.4348
H   20.0533   18.4999   22.2566
H   18.7841   19.3988   21.5350
H   19.9407   18.5478   20.4977
C   18.5206   17.2451   21.4088
C   17.1427   17.2973   21.2308
H   16.6498   18.2587   21.1931
C   16.4128   16.1187   21.1583
H   15.3578   16.2183   20.9273
C   17.0015   14.8803   21.3964
H   16.4039   13.9792   21.4611
C   18.3813   14.8260   21.5832
H   18.8816   13.8712   21.6992
C   19.1349   15.9999   21.5904
H   20.1933   15.9687   21.7844
562
Frame 18
C   16.4030   15.6120   17.0921
C   18.5633   16.6259   16.7697
C   15.8037   17.8264   17.6398
C   19.2638   16.0329   17.9886
C   19.5015   16.8425   15.5979
N   17.5255   15.6785   16.3193
N   15.3511   14.9819   16.5537
O   15.3597   18.0806   16.2580
H   14.4383   17.8135   16.3146
H   17.3994   15.7499   15.3134
H   16.5727   15.5375   18.1473
H   18.0147   17.5313   17.0397
H   14.5776   14.8754   17.1679
H   15.2427   14.9957   15.5454
H   16.6330   18.5522   17.8494
H   14.9791   18.1008   18.3479
H   20.0500   16.6938   18.3440
H   18.9498   16.9091   14.6562
H   19.6677   15.0667   17.7017
H   18.5585   15.8829   18.7954
H   20.1158   17.7368   15.6879
H   20.1832   15.9964   15.4989
C   31.0130   13.4690   20.5000
H   31.2490   12.6100   21.1410
H   31.6000   14.3580   20.7590
H   31.3090   13.1730   19.4860
C   29.5240   13.6930   20.5110
C   28.9490   14.9820   20.4600
H   29.6230   15.8190   20.3030
C   27.5460   15.1780   20.4020
H   27.1240   16.1710   20.2790
C   26.7510   14.0910   20.7820
H   25.6720   14.1250   20.8970
C   27.2930   12.7880   20.7300
H   26.5470   12.0120   20.8740
C   28.6890   12.5880   20.6520
H   29.0430   11.5650   20.7440
C   9.2210   14.9750   13.0480
H   9.9180   14.2170   12.6700
H   8.7250   15.4390   12.1860
H   8.5460   14.3880   13.6810
C   9.9500   16.0790   13.9260
C   11.1730   16.6700   13.5290
H   11.6950   16.2330   12.6830
C   11.7790   17.6500   14.3810
H   12.6890   18.1940   14.1470
C   11.0580   18.1190   15.4870
H   11.4490   19.0070   15.9740
C   9.8790   17.5550   15.8260
H   9.3990   17.9040   16.7360
C   9.3470   16.4720   15.1090
H   8.3400   16.1840   15.3940
C   13.1040   20.9490   22.1230
H   12.1100   21.0700   22.5720
H   13.3280   19.8760   22.1570
H   12.9300   21.4440   21.1600
C   14.1720   21.7290   22.9410
C   13.9780   23.0550   23.3640
H   12.9880   23.4780   23.2220
C   14.9570   23.7090   24.0980
H   14.8720   24.7370   24.4370
C   16.0910   23.0190   24.4910
H   16.8240   23.5570   25.0840
C   16.3390   21.7000   24.0260
H   17.2960   21.2060   24.1580
C   15.3480   21.0720   23.2660
H   15.4870   20.1110   22.7800
C   22.3270   16.0930   8.4030
H   22.3260   16.2600   9.4870
H   21.4310   15.6720   7.9300
H   22.4190   17.0690   7.9110
C   23.4930   15.2320   7.9250
C   24.6760   15.8080   7.3600
H   24.7170   16.8840   7.2220
C   25.8340   15.0550   7.0100
H   26.7290   15.6050   6.7360
C   25.7140   13.6410   7.1510
H   26.5440   12.9840   6.9070
C   24.5170   13.0840   7.6510
H   24.4140   12.0140   7.8020
C   23.4280   13.8620   7.9640
H   22.4620   13.4500   8.2420
C   13.3770   8.3710   11.1840
H   13.9280   8.9300   11.9500
H   12.7730   7.5980   11.6750
H   12.7470   9.0620   10.6100
C   14.2950   7.7300   10.0940
C   14.0090   6.4760   9.6240
H   13.0770   6.0180   9.9390
C   14.8900   5.7890   8.7340
H   14.6040   4.8470   8.2740
C   16.0940   6.4030   8.4280
H   16.8170   5.9830   7.7360
C   16.3240   7.7020   8.8800
H   17.2290   8.1990   8.5440
C   15.3900   8.3770   9.6670
H   15.4990   9.4410   9.8550
C   22.3720   27.5750   12.3440
H   22.6740   28.6260   12.2520
H   21.8660   27.2750   11.4180
H   23.3360   27.0640   12.4640
C   21.5860   27.1640   13.5380
C   20.6270   26.1270   13.4710
H   20.5230   25.5770   12.5400
C   19.8190   25.9080   14.6070
H   19.0410   25.1530   14.6740
C   19.8330   26.8130   15.6810
H   19.1800   26.6280   16.5280
C   20.7150   27.8320   15.6880
H   20.6750   28.5050   16.5390
C   21.6510   27.9300   14.6880
H   22.3640   28.7490   14.7160
C   26.3230   15.1720   24.4190
H   27.1730   15.7810   24.7530
H   26.9100   14.3730   23.9500
H   25.8350   14.6810   25.2700
C   25.2980   15.8310   23.5700
C   25.3310   17.2270   23.3880
H   26.0260   17.7850   24.0090
C   24.4240   17.8360   22.4700
H   24.3120   18.9080   22.3350
C   23.4800   16.9710   21.8510
H   22.7300   17.3880   21.1860
C   23.4350   15.6140   22.0990
H   22.6180   15.0160   21.7070
C   24.3990   15.0550   22.9540
H   24.2710   14.0400   23.3190
C   12.5310   21.3930   17.8850
H   13.2140   21.0900   17.0820
H   11.5950   21.6280   17.3640
H   12.3060   20.6590   18.6680
C   13.0320   22.5830   18.7360
C   12.2150   23.1990   19.6560
H   11.1450   23.0160   19.6540
C   12.8150   24.0790   20.5840
H   12.1470   24.6520   21.2210
C   14.2070   24.1490   20.7110
H   14.6570   24.8010   21.4530
C   15.0790   23.3670   19.9600
H   16.1550   23.3650   20.1040
C   14.4560   22.6230   18.9390
H   15.0290   21.9490   18.3100
C   14.8830   6.8570   21.3950
H   14.5830   5.8040   21.4680
H   14.1110   7.5640   21.0690
H   14.9540   7.1620   22.4460
C   16.2700   6.9730   20.7720
C   17.3370   6.4110   21.5060
H   17.0910   5.8820   22.4210
C   18.6390   6.6200   20.9560
H   19.4860   6.2070   21.4970
C   18.8360   7.1840   19.6870
H   19.8020   7.2850   19.2010
C   17.7740   7.7920   19.0310
H   17.9360   8.3530   18.1150
C   16.4720   7.7040   19.5680
H   15.6290   8.1750   19.0710
C   14.8160   10.5740   15.3720
H   14.3440   11.0040   14.4800
H   15.1400   11.3900   16.0290
H   13.9830   10.0440   15.8500
C   15.8760   9.5730   14.9300
C   15.5810   8.3740   14.2260
H   14.5360   8.2410   13.9630
C   16.5460   7.4790   13.7060
H   16.2100   6.6290   13.1200
C   17.8520   7.6230   14.2370
H   18.6540   6.9360   13.9850
C   18.1870   8.7030   14.9950
H   19.2350   8.8200   15.2580
C   17.2460   9.6850   15.4350
H   17.6780   10.4650   16.0550
C   8.0650   7.4040   17.5740
H   8.1270   8.0850   16.7160
H   7.5600   7.9240   18.3970
H   7.4880   6.4980   17.3480
C   9.4790   7.0660   18.0080
C   10.5440   7.9760   17.7650
H   10.3730   8.9450   17.3060
C   11.8290   7.6370   18.2640
H   12.7100   8.2510   18.1010
C   12.0090   6.4900   19.0190
H   13.0130   6.2290   19.3400
C   10.9610   5.6080   19.2070
H   11.1880   4.6980   19.7550
C   9.6610   5.8390   18.6640
H   8.8970   5.0800   18.8040
C   18.2400   9.3350   23.8980
H   18.4220   9.0030   24.9280
H   18.8890   10.1800   23.6390
H   18.3460   8.4310   23.2860
C   16.8430   9.7990   23.8620
C   16.4750   10.9760   23.2580
H   17.2340   11.5320   22.7170
C   15.1310   11.3650   23.2170
H   14.8330   12.3010   22.7540
C   14.1480   10.5800   23.8790
H   13.1240   10.9410   23.8510
C   14.5070   9.3760   24.4910
H   13.6960   8.7620   24.8720
C   15.8380   9.0020   24.5510
H   16.1540   8.1380   25.1280
C   10.9060   11.5230   15.8000
H   10.2660   12.1380   16.4450
H   11.8110   12.1010   15.5760
H   11.3030   10.7560   16.4760
C   10.1450   10.8230   14.6590
C   8.8800   11.1470   14.2680
H   8.3050   11.8430   14.8720
C   8.2310   10.3560   13.3000
H   7.1860   10.6060   13.1480
C   8.9080   9.2900   12.6040
H   8.3580   8.8160   11.7960
C   10.2410   9.0790   12.9680
H   10.7620   8.2900   12.4330
C   10.8540   9.7140   14.0870
H   11.8650   9.4940   14.4180
C   12.4900   20.4970   8.7300
H   11.7150   20.4740   7.9540
H   12.2270   19.9760   9.6590
H   13.3460   20.0150   8.2410
C   12.8650   21.9680   8.9270
C   12.1420   22.7970   9.8120
H   11.2610   22.4200   10.3220
C   12.3840   24.1720   9.8850
H   11.8920   24.7890   10.6310
C   13.4520   24.6990   9.1480
H   13.6750   25.7620   9.1740
C   14.2260   23.9500   8.2820
H   15.0110   24.4020   7.6830
C   13.8970   22.5400   8.1400
H   14.4070   21.9210   7.4080
C   25.2240   23.2580   12.7270
H   25.5120   24.3000   12.9180
H   24.9920   23.1420   11.6620
H   26.0960   22.6100   12.8790
C   24.1020   22.8110   13.7090
C   24.1040   23.2240   14.9730
H   24.9610   23.8230   15.2650
C   23.1140   22.7650   15.8740
H   23.0750   23.1170   16.9010
C   22.0540   21.9550   15.3630
H   21.3500   21.5740   16.0970
C   21.9790   21.6570   14.0120
H   21.2210   20.9940   13.6040
C   22.9780   22.0850   13.1860
H   22.9530   21.7500   12.1530
C   15.9690   24.2190   11.3740
H   16.8540   24.6850   11.8250
H   15.3350   25.1120   11.4330
H   16.1270   23.9390   10.3250
C   15.4160   23.1270   12.1800
C   15.0320   21.8940   11.5900
H   15.1170   21.7510   10.5170
C   14.4730   20.9160   12.4130
H   14.1800   19.9440   12.0280
C   14.3810   21.0610   13.7930
H   14.0500   20.2450   14.4290
C   14.8220   22.2110   14.4320
H   14.6700   22.2620   15.5060
C   15.2630   23.2580   13.6150
H   15.6250   24.2030   14.0110
C   7.9820   23.6640   20.2210
H   7.6700   24.1780   19.3030
H   8.8810   24.2110   20.5300
H   7.2090   23.8760   20.9700
C   8.2150   22.1450   20.0450
C   8.9820   21.3660   20.9660
H   9.4280   21.8310   21.8400
C   9.3410   20.0110   20.7260
H   9.9200   19.4750   21.4720
C   8.8720   19.3730   19.6080
H   9.2540   18.3910   19.3440
C   8.1140   20.1330   18.6130
H   7.8040   19.7260   17.6550
C   7.8120   21.5360   18.8670
H   7.2650   22.1110   18.1260
C   16.6400   17.6150   24.7630
H   16.2880   18.1500   25.6540
H   16.0580   17.8970   23.8770
H   17.6690   17.9180   24.5330
C   16.4320   16.1690   24.9640
C   17.4700   15.2850   24.7630
H   18.3820   15.6110   24.2700
C   17.2870   13.9420   25.1470
H   18.0430   13.2190   24.8550
C   16.0500   13.5080   25.7080
H   15.9690   12.4530   25.9550
C   15.0160   14.4460   25.9100
H   14.0840   14.0850   26.3350
C   15.2290   15.7710   25.5010
H   14.4230   16.4770   25.6750
C   9.8970   25.7470   14.8340
H   9.2600   26.2100   14.0700
H   10.9030   26.1810   14.8020
H   9.4340   25.9280   15.8120
C   10.1050   24.2760   14.5480
C   9.4830   23.4020   15.4380
H   8.7910   23.7840   16.1820
C   9.7180   22.0020   15.3700
H   9.2880   21.4530   16.2030
C   10.5190   21.4980   14.3610
H   10.5880   20.4200   14.2480
C   11.0160   22.3430   13.3520
H   11.7280   21.9650   12.6240
C   10.8610   23.7380   13.4830
H   11.4610   24.3570   12.8230
C   21.4460   7.1060   12.4470
H   20.6860   6.3340   12.6150
H   22.2500   6.4780   12.0440
H   21.0510   7.7230   11.6300
C   21.6030   8.0210   13.6490
C   21.7540   7.6760   14.9780
H   21.7640   6.6430   15.3150
C   21.9350   8.6230   16.0550
H   22.0640   8.3230   17.0910
C   22.1380   9.9860   15.6920
H   22.3350   10.8010   16.3830
C   22.0340   10.3260   14.3310
H   22.1590   11.3300   13.9360
C   21.6750   9.3700   13.3830
H   21.5590   9.7230   12.3630
C   22.9880   17.6800   12.2810
H   22.9180   16.8740   13.0210
H   23.7730   18.3620   12.6300
H   23.2480   17.2650   11.3000
C   21.6550   18.3490   12.1870
C   20.6220   18.0880   13.0570
H   20.7970   17.3350   13.8210
C   19.4340   18.7990   13.0450
H   18.7570   18.7330   13.8920
C   19.1760   19.7760   12.0220
H   18.2920   20.4060   12.0440
C   20.1570   19.9410   11.0580
H   19.9550   20.5700   10.1960
C   21.4170   19.2580   11.1840
H   22.2080   19.5330   10.4920
C   11.5670   16.9320   9.5720
H   12.2140   17.1360   8.7100
H   11.2820   15.8920   9.3700
H   12.1900   17.0270   10.4710
C   10.3380   17.8120   9.7330
C   9.4070   17.9080   8.6630
H   9.2760   17.1270   7.9200
C   8.4820   18.9870   8.6270
H   7.7350   19.0310   7.8400
C   8.4710   19.9600   9.6310
H   7.7480   20.7700   9.6540
C   9.3540   19.8350   10.7390
H   9.3650   20.4890   11.6050
C   10.1940   18.7130   10.7970
H   10.9300   18.6810   11.5950
C   12.7180   16.6050   23.0210
H   12.8130   16.8270   21.9510
H   13.7280   16.3210   23.3450
H   12.5000   17.5290   23.5710
C   11.8010   15.4010   23.1530
C   10.6200   15.4240   22.3970
H   10.4520   16.2470   21.7090
C   9.7560   14.2780   22.4410
H   8.8510   14.2660   21.8410
C   10.0090   13.2210   23.3230
H   9.3460   12.3640   23.2430
C   11.1890   13.1930   24.0600
H   11.5060   12.4190   24.7520
C   12.1210   14.2630   23.8890
H   13.0670   14.1720   24.4150
C   18.8420   17.6350   27.7520
H   18.1240   17.0240   28.3120
H   18.2540   18.2490   27.0590
H   19.3830   18.2440   28.4880
C   19.7860   16.8740   26.9420
C   20.9230   17.5130   26.3330
H   21.0460   18.5910   26.2770
C   21.9600   16.7460   25.6900
H   22.7590   17.2130   25.1220
C   21.8200   15.3540   25.7340
H   22.5620   14.8350   25.1340
C   20.7780   14.7860   26.4240
H   20.6730   13.7070   26.4980
C   19.7540   15.4920   26.9560
H   18.9700   15.0490   27.5620
C   25.2430   22.7500   18.9430
H   24.6510   23.3730   19.6240
H   24.6070   22.0920   18.3390
H   25.7690   23.4530   18.2840
C   26.2890   22.0890   19.8050
C   27.6530   22.5380   19.7650
H   27.8930   23.3990   19.1490
C   28.6720   21.9360   20.4790
H   29.6960   22.2960   20.4470
C   28.3120   20.9270   21.3620
H   29.1140   20.5670   22.0000
C   26.9480   20.4890   21.5060
H   26.7050   19.7450   22.2580
C   25.9360   21.0700   20.7010
H   24.8820   20.8350   20.8180
C   8.6660   14.0750   6.3660
H   9.5670   14.3180   5.7890
H   8.3130   15.1000   6.5330
H   8.0120   13.6260   5.6080
C   8.9520   13.1750   7.5700
C   9.2520   13.8780   8.7390
H   9.0790   14.9490   8.7860
C   9.7250   13.1670   9.8870
H   10.1540   13.6370   10.7670
C   9.7320   11.7360   9.9480
H   9.9080   11.1180   10.8230
C   9.4160   11.0830   8.7270
H   9.5500   10.0100   8.6190
C   9.0570   11.7790   7.5340
H   8.9280   11.2640   6.5870
C   8.9500   11.1620   20.3870
H   9.6770   10.3770   20.1430
H   8.1570   10.6850   20.9760
H   9.5010   11.9120   20.9680
C   8.2120   11.8340   19.2710
C   8.5700   13.1620   18.8940
H   9.3950   13.6460   19.4100
C   7.8880   13.7660   17.8650
H   8.0520   14.7920   17.5510
C   6.8730   13.0430   17.1600
H   6.3940   13.5060   16.3020
C   6.6020   11.7170   17.5240
H   5.9300   11.0650   16.9750
C   7.2670   11.0920   18.5130
H   6.9380   10.1170   18.8610
C   26.4570   12.4450   13.5550
H   27.1280   12.9590   14.2540
H   26.8800   12.5280   12.5470
H   26.3480   11.3870   13.8240
C   25.0650   13.0040   13.5080
C   24.3200   13.0670   12.3170
H   24.6950   12.4320   11.5200
C   23.1080   13.7070   12.1810
H   22.5800   13.8270   11.2400
C   22.5170   14.2950   13.4070
H   21.5280   14.7440   13.3850
C   23.1780   14.0720   14.6700
H   22.7680   14.3710   15.6300
C   24.4820   13.4620   14.6840
H   25.0670   13.3620   15.5930
C   17.5710   21.2480   6.8890
H   18.6510   21.3700   6.7390
H   17.1030   22.0750   7.4370
H   17.0720   21.3190   5.9150
C   17.2290   19.8820   7.3990
C   18.1980   19.0800   7.9940
H   19.2050   19.4850   8.0050
C   17.9790   17.8310   8.6610
H   18.7330   17.2870   9.2230
C   16.6260   17.3740   8.6220
H   16.3320   16.4460   9.1030
C   15.6520   18.0670   7.8430
H   14.6170   17.7430   7.7980
C   15.9210   19.3400   7.2650
H   15.0810   19.8910   6.8510
C   21.3760   21.0260   23.7240
H   20.4220   20.4870   23.7730
H   21.7020   21.4030   24.7020
H   22.0140   20.1900   23.4130
C   21.3200   22.2390   22.7430
C   21.4220   21.9180   21.3730
H   21.5590   20.8770   21.0950
C   21.1640   22.8820   20.4680
H   21.2420   22.6310   19.4150
C   20.8980   24.2170   20.9180
H   20.7360   25.0150   20.1990
C   20.8810   24.5300   22.2790
H   20.7390   25.5510   22.6190
C   21.0600   23.5250   23.2330
H   21.0710   23.7440   24.2960
C   13.4980   11.9160   9.8290
H   12.9760   11.0440   9.4180
H   12.8920   12.3220   10.6480
H   14.4620   11.6150   10.2580
C   13.7160   13.0320   8.7680
C   15.0200   13.6160   8.6070
H   15.8970   13.3430   9.1870
C   15.2000   14.6260   7.6390
H   16.2250   14.9300   7.4480
C   14.1260   14.9630   6.7830
H   14.1730   15.7170   6.0030
C   12.8520   14.5840   7.1130
H   12.0640   15.0130   6.5020
C   12.6470   13.5090   8.0450
H   11.7110   12.9710   8.1580
C   19.7440   10.5210   20.4450
H   19.1710   11.4550   20.4980
H   19.2620   9.7620   21.0740
H   19.7140   10.3290   19.3650
C   21.1430   10.7570   21.0140
C   22.2290   10.3180   20.2850
H   22.1500   9.9270   19.2750
C   23.5250   10.5680   20.8390
H   24.4000   10.2310   20.2920
C   23.7170   11.1630   22.0780
H   24.7300   11.2050   22.4680
C   22.5380   11.3930   22.8610
H   22.7390   11.7980   23.8480
C   21.2670   11.2310   22.2990
H   20.3950   11.6100   22.8240
C   29.8070   21.0370   16.6750
H   29.7320   22.0770   16.3350
H   30.3810   20.5460   15.8790
H   30.3680   20.9570   17.6140
C   28.4450   20.3010   16.9690
C   28.2260   19.5640   18.1860
H   29.0220   19.4550   18.9170
C   26.8940   19.1050   18.4470
H   26.6720   18.4880   19.3130
C   25.8510   19.3550   17.6180
H   24.8790   18.9520   17.8890
C   26.0900   20.0720   16.3750
H   25.2500   20.2200   15.7020
C   27.3720   20.5830   16.0780
H   27.4500   21.3560   15.3190
C   18.5500   10.0140   11.4130
H   18.7830   9.7570   12.4530
H   19.3500   9.5800   10.8000
H   17.6150   9.5640   11.0570
C   18.6360   11.5680   11.2050
C   19.5130   12.2330   10.3370
H   20.2410   11.5850   9.8580
C   19.5720   13.6310   10.2560
H   20.3650   14.1740   9.7510
C   18.5680   14.3480   10.9390
H   18.6520   15.4260   10.8390
C   17.6480   13.7120   11.7250
H   17.1040   14.3100   12.4500
C   17.7060   12.3240   11.9490
H   17.2340   11.8230   12.7890
C   22.1020   25.4310   5.5970
H   21.4160   26.2880   5.5930
H   21.7860   24.8510   4.7220
H   23.1330   25.7650   5.4260
C   21.9980   24.6230   6.8970
C   21.0770   23.5600   6.9970
H   20.5490   23.2000   6.1180
C   20.8770   22.8840   8.2000
H   20.2320   22.0110   8.2230
C   21.4880   23.3510   9.3830
H   21.2750   22.8260   10.3090
C   22.4070   24.4640   9.3180
H   22.8440   24.9190   10.2020
C   22.7460   25.0220   8.0470
H   23.4980   25.8030   7.9750
C   19.3597   18.5074   21.4402
H   20.0528   18.4946   22.2623
H   18.7762   19.4017   21.5417
H   19.9282   18.5561   20.4990
C   18.5322   17.2452   21.4142
C   17.1564   17.2914   21.2416
H   16.6458   18.2479   21.1902
C   16.4121   16.1224   21.1588
H   15.3666   16.2074   20.9149
C   16.9899   14.8835   21.4129
H   16.3977   13.9813   21.4807
C   18.3686   14.8244   21.5922
H   18.8773   13.8745   21.7083
C   19.1339   15.9931   21.5979
H   20.1973   15.9755   21.7702
562
Frame 19
C   16.3656   15.7915   17.1502
C   18.5833   16.6324   16.7785
C   15.7038   17.7551   17.6457
C   19.2953   16.0028   17.9862
C   19.5297   16.8213   15.5961
N   17.5314   15.7171   16.3750
N   15.3326   15.0518   16.6010
O   15.2930   18.0422   16.2624
H   14.3420   17.9699   16.3546
H   17.4195   15.6686   15.3531
H   16.5591   15.5715   18.2007
H   18.0677   17.5539   17.0584
H   14.5643   14.9397   17.2273
H   15.2829   14.9278   15.5846
H   16.5558   18.4343   17.8775
H   14.8439   18.0924   18.3590
H   20.0760   16.6548   18.4007
H   18.9681   16.8283   14.6589
H   19.6894   15.0476   17.6805
H   18.5971   15.8411   18.8064
H   20.1476   17.7181   15.6328
H   20.1973   15.9425   15.5626
C   31.0130   13.4690   20.5000
H   31.2490   12.6100   21.1410
H   31.6000   14.3580   20.7590
H   31.3090   13.1730   19.4860
C   29.5240   13.6930   20.5110
C   28.9490   14.9820   20.4600
H   29.6230   15.8190   20.3030
C   27.5460   15.1780   20.4020
H   27.1240   16.1710   20.2790
C   26.7510   14.0910   20.7820
H   25.6720   14.1250   20.8970
C   27.2930   12.7880   20.7300
H   26.5470   12.0120   20.8740
C   28.6890   12.5880   20.6520
H   29.0430   11.5650   20.7440
C   9.2210   14.9750   13.0480
H   9.9180   14.2170   12.6700
H   8.7250   15.4390   12.1860
H   8.5460   14.3880   13.6810
C   9.9500   16.0790   13.9260
C   11.1730   16.6700   13.5290
H   11.6950   16.2330   12.6830
C   11.7790   17.6500   14.3810
H   12.6890   18.1940   14.1470
C   11.0580   18.1190   15.4870
H   11.4490   19.0070   15.9740
C   9.8790   17.5550   15.8260
H   9.3990   17.9040   16.7360
C   9.3470   16.4720   15.1090
H   8.3400   16.1840   15.3940
C   13.1040   20.9490   22.1230
H   12.1100   21.0700   22.5720
H   13.3280   19.8760   22.1570
H   12.9300   21.4440   21.1600
C   14.1720   21.7290   22.9410
C   13.9780   23.0550   23.3640
H   12.9880   23.4780   23.2220
C   14.9570   23.7090   24.0980
H   14.8720   24.7370   24.4370
C   16.0910   23.0190   24.4910
H   16.8240   23.5570   25.0840
C   16.3390   21.7000   24.0260
H   17.2960   21.2060   24.1580
C   15.3480   21.0720   23.2660
H   15.4870   20.1110   22.7800
C   22.3270   16.0930   8.4030
H   22.3260   16.2600   9.4870
H   21.4310   15.6720   7.9300
H   22.4190   17.0690   7.9110
C   23.4930   15.2320   7.9250
C   24.6760   15.8080   7.3600
H   24.7170   16.8840   7.2220
C   25.8340   15.0550   7.0100
H   26.7290   15.6050   6.7360
C   25.7140   13.6410   7.1510
H   26.5440   12.9840   6.9070
C   24.5170   13.0840   7.6510
H   24.4140   12.0140   7.8020
C   23.4280   13.8620   7.9640
H   22.4620   13.4500   8.2420
C   13.3770   8.3710   11.1840
H   13.9280   8.9300   11.9500
H   12.7730   7.5980   11.6750
H   12.7470   9.0620   10.6100
C   14.2950   7.7300   10.0940
C   14.0090   6.4760   9.6240
H   13.0770   6.0180   9.9390
C   14.8900   5.7890   8.7340
H   14.6040   4.8470   8.2740
C   16.0940   6.4030   8.4280
H   16.8170   5.9830   7.7360
C   16.3240   7.7020   8.8800
H   17.2290   8.1990   8.5440
C   15.3900   8.3770   9.6670
H   15.4990   9.4410   9.8550
C   22.3720   27.5750   12.3440
H   22.6740   28.6260   12.2520
H   21.8660   27.2750   11.4180
H   23.3360   27.0640   12.4640
C   21.5860   27.1640   13.5380
C   20.6270   26.1270   13.4710
H   20.5230   25.5770   12.5400
C   19.8190   25.9080   14.6070
H   19.0410   25.1530   14.6740
C   19.8330   26.8130   15.6810
H   19.1800   26.6280   16.5280
C   20.7150   27.8320   15.6880
H   20.6750   28.5050   16.5390
C   21.6510   27.9300   14.6880
H   22.3640   28.7490   14.7160
C   26.3230   15.1720   24.4190
H   27.1730   15.7810   24.7530
H   26.9100   14.3730   23.9500
H   25.8350   14.6810   25.2700
C   25.2980   15.8310   23.5700
C   25.3310   17.2270   23.3880
H   26.0260   17.7850   24.0090
C   24.4240   17.8360   22.4700
H   24.3120   18.9080   22.3350
C   23.4800   16.9710   21.8510
H   22.7300   17.3880   21.1860
C   23.4350   15.6140   22.0990
H   22.6180   15.0160   21.7070
C   24.3990   15.0550   22.9540
H   24.2710   14.0400   23.3190
C   12.5310   21.3930   17.8850
H   13.2140   21.0900   17.0820
H   11.5950   21.6280   17.3640
H   12.3060   20.6590   18.6680
C   13.0320   22.5830   18.7360
C   12.2150   23.1990   19.6560
H   11.1450   23.0160   19.6540
C   12.8150   24.0790   20.5840
H   12.1470   24.6520   21.2210
C   14.2070   24.1490   20.7110
H   14.6570   24.8010   21.4530
C   15.0790   23.3670   19.9600
H   16.1550   23.3650   20.1040
C   14.4560   22.6230   18.9390
H   15.0290   21.9490   18.3100
C   14.8830   6.8570   21.3950
H   14.5830   5.8040   21.4680
H   14.1110   7.5640   21.0690
H   14.9540   7.1620   22.4460
C   16.2700   6.9730   20.7720
C   17.3370   6.4110   21.5060
H   17.0910   5.8820   22.4210
C   18.6390   6.6200   20.9560
H   19.4860   6.2070   21.4970
C   18.8360   7.1840   19.6870
H   19.8020   7.2850   19.2010
C   17.7740   7.7920   19.0310
H   17.9360   8.3530   18.1150
C   16.4720   7.7040   19.5680
H   15.6290   8.1750   19.0710
C   14.8160   10.5740   15.3720
H   14.3440   11.0040   14.4800
H   15.1400   11.3900   16.0290
H   13.9830   10.0440   15.8500
C   15.8760   9.5730   14.9300
C   15.5810   8.3740   14.2260
H   14.5360   8.2410   13.9630
C   16.5460   7.4790   13.7060
H   16.2100   6.6290   13.1200
C   17.8520   7.6230   14.2370
H   18.6540   6.9360   13.9850
C   18.1870   8.7030   14.9950
H   19.2350   8.8200   15.2580
C   17.2460   9.6850   15.4350
H   17.6780   10.4650   16.0550
C   8.0650   7.4040   17.5740
H   8.1270   8.0850   16.7160
H   7.5600   7.9240   18.3970
H   7.4880   6.4980   17.3480
C   9.4790   7.0660   18.0080
C   10.5440   7.9760   17.7650
H   10.3730   8.9450   17.3060
C   11.8290   7.6370   18.2640
H   12.7100   8.2510   18.1010
C   12.0090   6.4900   19.0190
H   13.0130   6.2290   19.3400
C   10.9610   5.6080   19.2070
H   11.1880   4.6980   19.7550
C   9.6610   5.8390   18.6640
H   8.8970   5.0800   18.8040
C   18.2400   9.3350   23.8980
H   18.4220   9.0030   24.9280
H   18.8890   10.1800   23.6390
H   18.3460   8.4310   23.2860
C   16.8430   9.7990   23.8620
C   16.4750   10.9760   23.2580
H   17.2340   11.5320   22.7170
C   15.1310   11.3650   23.2170
H   14.8330   12.3010   22.7540
C   14.1480   10.5800   23.8790
H   13.1240   10.9410   23.8510
C   14.5070   9.3760   24.4910
H   13.6960   8.7620   24.8720
C   15.8380   9.0020   24.5510
H   16.1540   8.1380   25.1280
C   10.9060   11.5230   15.8000
H   10.2660   12.1380   16.4450
H   11.8110   12.1010   15.5760
H   11.3030   10.7560   16.4760
C   10.1450   10.8230   14.6590
C   8.8800   11.1470   14.2680
H   8.3050   11.8430   14.8720
C   8.2310   10.3560   13.3000
H   7.1860   10.6060   13.1480
C   8.9080   9.2900   12.6040
H   8.3580   8.8160   11.7960
C   10.2410   9.0790   12.9680
H   10.7620   8.2900   12.4330
C   10.8540   9.7140   14.0870
H   11.8650   9.4940   14.4180
C   12.4900   20.4970   8.7300
H   11.7150   20.4740   7.9540
H   12.2270   19.9760   9.6590
H   13.3460   20.0150   8.2410
C   12.8650   21.9680   8.9270
C   12.1420   22.7970   9.8120
H   11.2610   22.4200   10.3220
C   12.3840   24.1720   9.8850
H   11.8920   24.7890   10.6310
C   13.4520   24.6990   9.1480
H   13.6750   25.7620   9.1740
C   14.2260   23.9500   8.2820
H   15.0110   24.4020   7.6830
C   13.8970   22.5400   8.1400
H   14.4070   21.9210   7.4080
C   25.2240   23.2580   12.7270
H   25.5120   24.3000   12.9180
H   24.9920   23.1420   11.6620
H   26.0960   22.6100   12.8790
C   24.1020   22.8110   13.7090
C   24.1040   23.2240   14.9730
H   24.9610   23.8230   15.2650
C   23.1140   22.7650   15.8740
H   23.0750   23.1170   16.9010
C   22.0540   21.9550   15.3630
H   21.3500   21.5740   16.0970
C   21.9790   21.6570   14.0120
H   21.2210   20.9940   13.6040
C   22.9780   22.0850   13.1860
H   22.9530   21.7500   12.1530
C   15.9690   24.2190   11.3740
H   16.8540   24.6850   11.8250
H   15.3350   25.1120   11.4330
H   16.1270   23.9390   10.3250
C   15.4160   23.1270   12.1800
C   15.0320   21.8940   11.5900
H   15.1170   21.7510   10.5170
C   14.4730   20.9160   12.4130
H   14.1800   19.9440   12.0280
C   14.3810   21.0610   13.7930
H   14.0500   20.2450   14.4290
C   14.8220   22.2110   14.4320
H   14.6700   22.2620   15.5060
C   15.2630   23.2580   13.6150
H   15.6250   24.2030   14.0110
C   7.9820   23.6640   20.2210
H   7.6700   24.1780   19.3030
H   8.8810   24.2110   20.5300
H   7.2090   23.8760   20.9700
C   8.2150   22.1450   20.0450
C   8.9820   21.3660   20.9660
H   9.4280   21.8310   21.8400
C   9.3410   20.0110   20.7260
H   9.9200   19.4750   21.4720
C   8.8720   19.3730   19.6080
H   9.2540   18.3910   19.3440
C   8.1140   20.1330   18.6130
H   7.8040   19.7260   17.6550
C   7.8120   21.5360   18.8670
H   7.2650   22.1110   18.1260
C   16.6400   17.6150   24.7630
H   16.2880   18.1500   25.6540
H   16.0580   17.8970   23.8770
H   17.6690   17.9180   24.5330
C   16.4320   16.1690   24.9640
C   17.4700   15.2850   24.7630
H   18.3820   15.6110   24.2700
C   17.2870   13.9420   25.1470
H   18.0430   13.2190   24.8550
C   16.0500   13.5080   25.7080
H   15.9690   12.4530   25.9550
C   15.0160   14.4460   25.9100
H   14.0840   14.0850   26.3350
C   15.2290   15.7710   25.5010
H   14.4230   16.4770   25.6750
C   9.8970   25.7470   14.8340
H   9.2600   26.2100   14.0700
H   10.9030   26.1810   14.8020
H   9.4340   25.9280   15.8120
C   10.1050   24.2760   14.5480
C   9.4830   23.4020   15.4380
H   8.7910   23.7840   16.1820
C   9.7180   22.0020   15.3700
H   9.2880   21.4530   16.2030
C   10.5190   21.4980   14.3610
H   10.5880   20.4200   14.2480
C   11.0160   22.3430   13.3520
H   11.7280   21.9650   12.6240
C   10.8610   23.7380   13.4830
H   11.4610   24.3570   12.8230
C   21.4460   7.1060   12.4470
H   20.6860   6.3340   12.6150
H   22.2500   6.4780   12.0440
H   21.0510   7.7230   11.6300
C   21.6030   8.0210   13.6490
C   21.7540   7.6760   14.9780
H   21.7640   6.6430   15.3150
C   21.9350   8.6230   16.0550
H   22.0640   8.3230   17.0910
C   22.1380   9.9860   15.6920
H   22.3350   10.8010   16.3830
C   22.0340   10.3260   14.3310
H   22.1590   11.3300   13.9360
C   21.6750   9.3700   13.3830
H   21.5590   9.7230   12.3630
C   22.9880   17.6800   12.2810
H   22.9180   16.8740   13.0210
H   23.7730   18.3620   12.6300
H   23.2480   17.2650   11.3000
C   21.6550   18.3490   12.1870
C   20.6220   18.0880   13.0570
H   20.7970   17.3350   13.8210
C   19.4340   18.7990   13.0450
H   18.7570   18.7330   13.8920
C   19.1760   19.7760   12.0220
H   18.2920   20.4060   12.0440
C   20.1570   19.9410   11.0580
H   19.9550   20.5700   10.1960
C   21.4170   19.2580   11.1840
H   22.2080   19.5330   10.4920
C   11.5670   16.9320   9.5720
H   12.2140   17.1360   8.7100
H   11.2820   15.8920   9.3700
H   12.1900   17.0270   10.4710
C   10.3380   17.8120   9.7330
C   9.4070   17.9080   8.6630
H   9.2760   17.1270   7.9200
C   8.4820   18.9870   8.6270
H   7.7350   19.0310   7.8400
C   8.4710   19.9600   9.6310
H   7.7480   20.7700   9.6540
C   9.3540   19.8350   10.7390
H   9.3650   20.4890   11.6050
C   10.1940   18.7130   10.7970
H   10.9300   18.6810   11.5950
C   12.7180   16.6050   23.0210
H   12.8130   16.8270   21.9510
H   13.7280   16.3210   23.3450
H   12.5000   17.5290   23.5710
C   11.8010   15.4010   23.1530
C   10.6200   15.4240   22.3970
H   10.4520   16.2470   21.7090
C   9.7560   14.2780   22.4410
H   8.8510   14.2660   21.8410
C   10.0090   13.2210   23.3230
H   9.3460   12.3640   23.2430
C   11.1890   13.1930   24.0600
H   11.5060   12.4190   24.7520
C   12.1210   14.2630   23.8890
H   13.0670   14.1720   24.4150
C   18.8420   17.6350   27.7520
H   18.1240   17.0240   28.3120
H   18.2540   18.2490   27.0590
H   19.3830   18.2440   28.4880
C   19.7860   16.8740   26.9420
C   20.9230   17.5130   26.3330
H   21.0460   18.5910   26.2770
C   21.9600   16.7460   25.6900
H   22.7590   17.2130   25.1220
C   21.8200   15.3540   25.7340
H   22.5620   14.8350   25.1340
C   20.7780   14.7860   26.4240
H   20.6730   13.7070   26.4980
C   19.7540   15.4920   26.9560
H   18.9700   15.0490   27.5620
C   25.2430   22.7500   18.9430
H   24.6510   23.3730   19.6240
H   24.6070   22.0920   18.3390
H   25.7690   23.4530   18.2840
C   26.2890   22.0890   19.8050
C   27.6530   22.5380   19.7650
H   27.8930   23.3990   19.1490
C   28.6720   21.9360   20.4790
H   29.6960   22.2960   20.4470
C   28.3120   20.9270   21.3620
H   29.1140   20.5670   22.0000
C   26.9480   20.4890   21.5060
H   26.7050   19.7450   22.2580
C   25.9360   21.0700   20.7010
H   24.8820   20.8350   20.8180
C   8.6660   14.0750   6.3660
H   9.5670   14.3180   5.7890
H   8.3130   15.1000   6.5330
H   8.0120   13.6260   5.6080
C   8.9520   13.1750   7.5700
C   9.2520   13.8780   8.7390
H   9.0790   14.9490   8.7860
C   9.7250   13.1670   9.8870
H   10.1540   13.6370   10.7670
C   9.7320   11.7360   9.9480
H   9.9080   11.1180   10.8230
C   9.4160   11.0830   8.7270
H   9.5500   10.0100   8.6190
C   9.0570   11.7790   7.5340
H   8.9280   11.2640   6.5870
C   8.9500   11.1620   20.3870
H   9.6770   10.3770   20.1430
H   8.1570   10.6850   20.9760
H   9.5010   11.9120   20.9680
C   8.2120   11.8340   19.2710
C   8.5700   13.1620   18.8940
H   9.3950   13.6460   19.4100
C   7.8880   13.7660   17.8650
H   8.0520   14.7920   17.5510
C   6.8730   13.0430   17.1600
H   6.3940   13.5060   16.3020
C   6.6020   11.7170   17.5240
H   5.9300   11.0650   16.9750
C   7.2670   11.0920   18.5130
H   6.9380   10.1170   18.8610
C   26.4570   12.4450   13.5550
H   27.1280   12.9590   14.2540
H   26.8800   12.5280   12.5470
H   26.3480   11.3870   13.8240
C   25.0650   13.0040   13.5080
C   24.3200   13.0670   12.3170
H   24.6950   12.4320   11.5200
C   23.1080   13.7070   12.1810
H   22.5800   13.8270   11.2400
C   22.5170   14.2950   13.4070
H   21.5280   14.7440   13.3850
C   23.1780   14.0720   14.6700
H   22.7680   14.3710   15.6300
C   24.4820   13.4620   14.6840
H   25.0670   13.3620   15.5930
C   17.5710   21.2480   6.8890
H   18.6510   21.3700   6.7390
H   17.1030   22.0750   7.4370
H   17.0720   21.3190   5.9150
C   17.2290   19.8820   7.3990
C   18.1980   19.0800   7.9940
H   19.2050   19.4850   8.0050
C   17.9790   17.8310   8.6610
H   18.7330   17.2870   9.2230
C   16.6260   17.3740   8.6220
H   16.3320   16.4460   9.1030
C   15.6520   18.0670   7.8430
H   14.6170   17.7430   7.7980
C   15.9210   19.3400   7.2650
H   15.0810   19.8910   6.8510
C   21.3760   21.0260   23.7240
H   20.4220   20.4870   23.7730
H   21.7020   21.4030   24.7020
H   22.0140   20.1900   23.4130
C   21.3200   22.2390   22.7430
C   21.4220   21.9180   21.3730
H   21.5590   20.8770   21.0950
C   21.1640   22.8820   20.4680
H   21.2420   22.6310   19.4150
C   20.8980   24.2170   20.9180
H   20.7360   25.0150   20.1990
C   20.8810   24.5300   22.2790
H   20.7390   25.5510   22.6190
C   21.0600   23.5250   23.2330
H   21.0710   23.7440   24.2960
C   13.4980   11.9160   9.8290
H   12.9760   11.0440   9.4180
H   12.8920   12.3220   10.6480
H   14.4620   11.6150   10.2580
C   13.7160   13.0320   8.7680
C   15.0200   13.6160   8.6070
H   15.8970   13.3430   9.1870
C   15.2000   14.6260   7.6390
H   16.2250   14.9300   7.4480
C   14.1260   14.9630   6.7830
H   14.1730   15.7170   6.0030
C   12.8520   14.5840   7.1130
H   12.0640   15.0130   6.5020
C   12.6470   13.5090   8.0450
H   11.7110   12.9710   8.1580
C   19.7440   10.5210   20.4450
H   19.1710   11.4550   20.4980
H   19.2620   9.7620   21.0740
H   19.7140   10.3290   19.3650
C   21.1430   10.7570   21.0140
C   22.2290   10.3180   20.2850
H   22.1500   9.9270   19.2750
C   23.5250   10.5680   20.8390
H   24.4000   10.2310   20.2920
C   23.7170   11.1630   22.0780
H   24.7300   11.2050   22.4680
C   22.5380   11.3930   22.8610
H   22.7390   11.7980   23.8480
C   21.2670   11.2310   22.2990
H   20.3950   11.6100   22.8240
C   29.8070   21.0370   16.6750
H   29.7320   22.0770   16.3350
H   30.3810   20.5460   15.8790
H   30.3680   20.9570   17.6140
C   28.4450   20.3010   16.9690
C   28.2260   19.5640   18.1860
H   29.0220   19.4550   18.9170
C   26.8940   19.1050   18.4470
H   26.6720   18.4880   19.3130
C   25.8510   19.3550   17.6180
H   24.8790   18.9520   17.8890
C   26.0900   20.0720   16.3750
H   25.2500   20.2200   15.7020
C   27.3720   20.5830   16.0780
H   27.4500   21.3560   15.3190
C   18.5500   10.0140   11.4130
H   18.7830   9.7570   12.4530
H   19.3500   9.5800   10.8000
H   17.6150   9.5640   11.0570
C   18.6360   11.5680   11.2050
C   19.5130   12.2330   10.3370
H   20.2410   11.5850   9.8580
C   19.5720   13.6310   10.2560
H   20.3650   14.1740   9.7510
C   18.5680   14.3480   10.9390
H   18.6520   15.4260   10.8390
C   17.6480   13.7120   11.7250
H   17.1040   14.3100   12.4500
C   17.7060   12.3240   11.9490
H   17.2340   11.8230   12.7890
C   22.1020   25.4310   5.5970
H   21.4160   26.2880   5.5930
H   21.7860   24.8510   4.7220
H   23.1330   25.7650   5.4260
C   21.9980   24.6230   6.8970
C   21.0770   23.5600   6.9970
H   20.5490   23.2000   6.1180
C   20.8770   22.8840   8.2000
H   20.2320   22.0110   8.2230
C   21.4880   23.3510   9.3830
H   21.2750   22.8260   10.3090
C   22.4070   24.4640   9.3180
H   22.8440   24.9190   10.2020
C   22.7460   25.0220   8.0470
H   23.4980   25.8030   7.9750
C   19.3553   18.5103   21.4465
H   20.0587   18.4785   22.2748
H   18.7523   19.4117   21.5531
H   19.8986   18.5829   20.5095
C   18.5606   17.2469   21.4388
C   17.1758   17.2774   21.2638
H   16.6382   18.2180   21.1764
C   16.4196   16.1303   21.1667
H   15.3782   16.1764   20.8905
C   16.9570   14.8953   21.4468
H   16.3855   13.9876   21.5242
C   18.3446   14.8262   21.6130
H   18.8651   13.8859   21.7323
C   19.1327   15.9794   21.6186
H   20.2043   15.9856   21.7356
562
Frame 20
C   16.3635   15.8201   17.1692
C   18.5965   16.6368   16.7499
C   15.7871   17.7285   17.6115
C   19.2744   16.0138   17.9641
C   19.5329   16.8344   15.5844
N   17.5256   15.7538   16.3398
N   15.3290   15.0663   16.5864
O   15.2848   18.0588   16.2724
H   14.4207   17.9198   16.3191
H   17.3548   15.6652   15.3737
H   16.5443   15.5348   18.1758
H   18.1069   17.5685   17.0328
H   14.5399   14.9054   17.1856
H   15.2631   14.9513   15.6130
H   16.5579   18.4434   17.8535
H   14.9310   18.0096   18.3592
H   20.0544   16.6676   18.3827
H   18.9405   16.8748   14.6843
H   19.6961   15.0494   17.7103
H   18.5949   15.8738   18.7956
H   20.1231   17.7312   15.6802
H   20.2003   15.9474   15.5467
C   31.0130   13.4690   20.5000
H   31.2490   12.6100   21.1410
H   31.6000   14.3580   20.7590
H   31.3090   13.1730   19.4860
C   29.5240   13.6930   20.5110
C   28.9490   14.9820   20.4600
H   29.6230   15.8190   20.3030
C   27.5460   15.1780   20.4020
H   27.1240   16.1710   20.2790
C   26.7510   14.0910   20.7820
H   25.6720   14.1250   20.8970
C   27.2930   12.7880   20.7300
H   26.5470   12.0120   20.8740
C   28.6890   12.5880   20.6520
H   29.0430   11.5650   20.7440
C   9.2210   14.9750   13.0480
H   9.9180   14.2170   12.6700
H   8.7250   15.4390   12.1860
H   8.5460   14.3880   13.6810
C   9.9500   16.0790   13.9260
C   11.1730   16.6700   13.5290
H   11.6950   16.2330   12.6830
C   11.7790   17.6500   14.3810
H   12.6890   18.1940   14.1470
C   11.0580   18.1190   15.4870
H   11.4490   19.0070   15.9740
C   9.8790   17.5550   15.8260
H   9.3990   17.9040   16.7360
C   9.3470   16.4720   15.1090
H   8.3400   16.1840   15.3940
C   13.1040   20.9490   22.1230
H   12.1100   21.0700   22.5720
H   13.3280   19.8760   22.1570
H   12.9300   21.4440   21.1600
C   14.1720   21.7290   22.9410
C   13.9780   23.0550   23.3640
H   12.9880   23.4780   23.2220
C   14.9570   23.7090   24.0980
H   14.8720   24.7370   24.4370
C   16.0910   23.0190   24.4910
H   16.8240   23.5570   25.0840
C   16.3390   21.7000   24.0260
H   17.2960   21.2060   24.1580
C   15.3480   21.0720   23.2660
H   15.4870   20.1110   22.7800
C   22.3270   16.0930   8.4030
H   22.3260   16.2600   9.4870
H   21.4310   15.6720   7.9300
H   22.4190   17.0690   7.9110
C   23.4930   15.2320   7.9250
C   24.6760   15.8080   7.3600
H   24.7170   16.8840   7.2220
C   25.8340   15.0550   7.0100
H   26.7290   15.6050   6.7360
C   25.7140   13.6410   7.1510
H   26.5440   12.9840   6.9070
C   24.5170   13.0840   7.6510
H   24.4140   12.0140   7.8020
C   23.4280   13.8620   7.9640
H   22.4620   13.4500   8.2420
C   13.3770   8.3710   11.1840
H   13.9280   8.9300   11.9500
H   12.7730   7.5980   11.6750
H   12.7470   9.0620   10.6100
C   14.2950   7.7300   10.0940
C   14.0090   6.4760   9.6240
H   13.0770   6.0180   9.9390
C   14.8900   5.7890   8.7340
H   14.6040   4.8470   8.2740
C   16.0940   6.4030   8.4280
H   16.8170   5.9830   7.7360
C   16.3240   7.7020   8.8800
H   17.2290   8.1990   8.5440
C   15.3900   8.3770   9.6670
H   15.4990   9.4410   9.8550
C   22.3720   27.5750   12.3440
H   22.6740   28.6260   12.2520
H   21.8660   27.2750   11.4180
H   23.3360   27.0640   12.4640
C   21.5860   27.1640   13.5380
C   20.6270   26.1270   13.4710
H   20.5230   25.5770   12.5400
C   19.8190   25.9080   14.6070
H   19.0410   25.1530   14.6740
C   19.8330   26.8130   15.6810
H   19.1800   26.6280   16.5280
C   20.7150   27.8320   15.6880
H   20.6750   28.5050   16.5390
C   21.6510   27.9300   14.6880
H   22.3640   28.7490   14.7160
C   26.3230   15.1720   24.4190
H   27.1730   15.7810   24.7530
H   26.9100   14.3730   23.9500
H   25.8350   14.6810   25.2700
C   25.2980   15.8310   23.5700
C   25.3310   17.2270   23.3880
H   26.0260   17.7850   24.0090
C   24.4240   17.8360   22.4700
H   24.3120   18.9080   22.3350
C   23.4800   16.9710   21.8510
H   22.7300   17.3880   21.1860
C   23.4350   15.6140   22.0990
H   22.6180   15.0160   21.7070
C   24.3990   15.0550   22.9540
H   24.2710   14.0400   23.3190
C   12.5310   21.3930   17.8850
H   13.2140   21.0900   17.0820
H   11.5950   21.6280   17.3640
H   12.3060   20.6590   18.6680
C   13.0320   22.5830   18.7360
C   12.2150   23.1990   19.6560
H   11.1450   23.0160   19.6540
C   12.8150   24.0790   20.5840
H   12.1470   24.6520   21.2210
C   14.2070   24.1490   20.7110
H   14.6570   24.8010   21.4530
C   15.0790   23.3670   19.9600
H   16.1550   23.3650   20.1040
C   14.4560   22.6230   18.9390
H   15.0290   21.9490   18.3100
C   14.8830   6.8570   21.3950
H   14.5830   5.8040   21.4680
H   14.1110   7.5640   21.0690
H   14.9540   7.1620   22.4460
C   16.2700   6.9730   20.7720
C   17.3370   6.4110   21.5060
H   17.0910   5.8820   22.4210
C   18.6390   6.6200   20.9560
H   19.4860   6.2070   21.4970
C   18.8360   7.1840   19.6870
H   19.8020   7.2850   19.2010
C   17.7740   7.7920   19.0310
H   17.9360   8.3530   18.1150
C   16.4720   7.7040   19.5680
H   15.6290   8.1750   19.0710
C   14.8160   10.5740   15.3720
H   14.3440   11.0040   14.4800
H   15.1400   11.3900   16.0290
H   13.9830   10.0440   15.8500
C   15.8760   9.5730   14.9300
C   15.5810   8.3740   14.2260
H   14.5360   8.2410   13.9630
C   16.5460   7.4790   13.7060
H   16.2100   6.6290   13.1200
C   17.8520   7.6230   14.2370
H   18.6540   6.9360   13.9850
C   18.1870   8.7030   14.9950
H   19.2350   8.8200   15.2580
C   17.2460   9.6850   15.4350
H   17.6780   10.4650   16.0550
C   8.0650   7.4040   17.5740
H   8.1270   8.0850   16.7160
H   7.5600   7.9240   18.3970
H   7.4880   6.4980   17.3480
C   9.4790   7.0660   18.0080
C   10.5440   7.9760   17.7650
H   10.3730   8.9450   17.3060
C   11.8290   7.6370   18.2640
H   12.7100   8.2510   18.1010
C   12.0090   6.4900   19.0190
H   13.0130   6.2290   19.3400
C   10.9610   5.6080   19.2070
H   11.1880   4.6980   19.7550
C   9.6610   5.8390   18.6640
H   8.8970   5.0800   18.8040
C   18.2400   9.3350   23.8980
H   18.4220   9.0030   24.9280
H   18.8890   10.1800   23.6390
H   18.3460   8.4310   23.2860
C   16.8430   9.7990   23.8620
C   16.4750   10.9760   23.2580
H   17.2340   11.5320   22.7170
C   15.1310   11.3650   23.2170
H   14.8330   12.3010   22.7540
C   14.1480   10.5800   23.8790
H   13.1240   10.9410   23.8510
C   14.5070   9.3760   24.4910
H   13.6960   8.7620   24.8720
C   15.8380   9.0020   24.5510
H   16.1540   8.1380   25.1280
C   10.9060   11.5230   15.8000
H   10.2660   12.1380   16.4450
H   11.8110   12.1010   15.5760
H   11.3030   10.7560   16.4760
C   10.1450   10.8230   14.6590
C   8.8800   11.1470   14.2680
H   8.3050   11.8430   14.8720
C   8.2310   10.3560   13.3000
H   7.1860   10.6060   13.1480
C   8.9080   9.2900   12.6040
H   8.3580   8.8160   11.7960
C   10.2410   9.0790   12.9680
H   10.7620   8.2900   12.4330
C   10.8540   9.7140   14.0870
H   11.8650   9.4940   14.4180
C   12.4900   20.4970   8.7300
H   11.7150   20.4740   7.9540
H   12.2270   19.9760   9.6590
H   13.3460   20.0150   8.2410
C   12.8650   21.9680   8.9270
C   12.1420   22.7970   9.8120
H   11.2610   22.4200   10.3220
C   12.3840   24.1720   9.8850
H   11.8920   24.7890   10.6310
C   13.4520   24.6990   9.1480
H   13.6750   25.7620   9.1740
C   14.2260   23.9500   8.2820
H   15.0110   24.4020   7.6830
C   13.8970   22.5400   8.1400
H   14.4070   21.9210   7.4080
C   25.2240   23.2580   12.7270
H   25.5120   24.3000   12.9180
H   24.9920   23.1420   11.6620
H   26.0960   22.6100   12.8790
C   24.1020   22.8110   13.7090
C   24.1040   23.2240   14.9730
H   24.9610   23.8230   15.2650
C   23.1140   22.7650   15.8740
H   23.0750   23.1170   16.9010
C   22.0540   21.9550   15.3630
H   21.3500   21.5740   16.0970
C   21.9790   21.6570   14.0120
H   21.2210   20.9940   13.6040
C   22.9780   22.0850   13.1860
H   22.9530   21.7500   12.1530
C   15.9690   24.2190   11.3740
H   16.8540   24.6850   11.8250
H   15.3350   25.1120   11.4330
H   16.1270   23.9390   10.3250
C   15.4160   23.1270   12.1800
C   15.0320   21.8940   11.5900
H   15.1170   21.7510   10.5170
C   14.4730   20.9160   12.4130
H   14.1800   19.9440   12.0280
C   14.3810   21.0610   13.7930
H   14.0500   20.2450   14.4290
C   14.8220   22.2110   14.4320
H   14.6700   22.2620   15.5060
C   15.2630   23.2580   13.6150
H   15.6250   24.2030   14.0110
C   7.9820   23.6640   20.2210
H   7.6700   24.1780   19.3030
H   8.8810   24.2110   20.5300
H   7.2090   23.8760   20.9700
C   8.2150   22.1450   20.0450
C   8.9820   21.3660   20.9660
H   9.4280   21.8310   21.8400
C   9.3410   20.0110   20.7260
H   9.9200   19.4750   21.4720
C   8.8720   19.3730   19.6080
H   9.2540   18.3910   19.3440
C   8.1140   20.1330   18.6130
H   7.8040   19.7260   17.6550
C   7.8120   21.5360   18.8670
H   7.2650   22.1110   18.1260
C   16.6400   17.6150   24.7630
H   16.2880   18.1500   25.6540
H   16.0580   17.8970   23.8770
H   17.6690   17.9180   24.5330
C   16.4320   16.1690   24.9640
C   17.4700   15.2850   24.7630
H   18.3820   15.6110   24.2700
C   17.2870   13.9420   25.1470
H   18.0430   13.2190   24.8550
C   16.0500   13.5080   25.7080
H   15.9690   12.4530   25.9550
C   15.0160   14.4460   25.9100
H   14.0840   14.0850   26.3350
C   15.2290   15.7710   25.5010
H   14.4230   16.4770   25.6750
C   9.8970   25.7470   14.8340
H   9.2600   26.2100   14.0700
H   10.9030   26.1810   14.8020
H   9.4340   25.9280   15.8120
C   10.1050   24.2760   14.5480
C   9.4830   23.4020   15.4380
H   8.7910   23.7840   16.1820
C   9.7180   22.0020   15.3700
H   9.2880   21.4530   16.2030
C   10.5190   21.4980   14.3610
H   10.5880   20.4200   14.2480
C   11.0160   22.3430   13.3520
H   11.7280   21.9650   12.6240
C   10.8610   23.7380   13.4830
H   11.4610   24.3570   12.8230
C   21.4460   7.1060   12.4470
H   20.6860   6.3340   12.6150
H   22.2500   6.4780   12.0440
H   21.0510   7.7230   11.6300
C   21.6030   8.0210   13.6490
C   21.7540   7.6760   14.9780
H   21.7640   6.6430   15.3150
C   21.9350   8.6230   16.0550
H   22.0640   8.3230   17.0910
C   22.1380   9.9860   15.6920
H   22.3350   10.8010   16.3830
C   22.0340   10.3260   14.3310
H   22.1590   11.3300   13.9360
C   21.6750   9.3700   13.3830
H   21.5590   9.7230   12.3630
C   22.9880   17.6800   12.2810
H   22.9180   16.8740   13.0210
H   23.7730   18.3620   12.6300
H   23.2480   17.2650   11.3000
C   21.6550   18.3490   12.1870
C   20.6220   18.0880   13.0570
H   20.7970   17.3350   13.8210
C   19.4340   18.7990   13.0450
H   18.7570   18.7330   13.8920
C   19.1760   19.7760   12.0220
H   18.2920   20.4060   12.0440
C   20.1570   19.9410   11.0580
H   19.9550   20.5700   10.1960
C   21.4170   19.2580   11.1840
H   22.2080   19.5330   10.4920
C   11.5670   16.9320   9.5720
H   12.2140   17.1360   8.7100
H   11.2820   15.8920   9.3700
H   12.1900   17.0270   10.4710
C   10.3380   17.8120   9.7330
C   9.4070   17.9080   8.6630
H   9.2760   17.1270   7.9200
C   8.4820   18.9870   8.6270
H   7.7350   19.0310   7.8400
C   8.4710   19.9600   9.6310
H   7.7480   20.7700   9.6540
C   9.3540   19.8350   10.7390
H   9.3650   20.4890   11.6050
C   10.1940   18.7130   10.7970
H   10.9300   18.6810   11.5950
C   12.7180   16.6050   23.0210
H   12.8130   16.8270   21.9510
H   13.7280   16.3210   23.3450
H   12.5000   17.5290   23.5710
C   11.8010   15.4010   23.1530
C   10.6200   15.4240   22.3970
H   10.4520   16.2470   21.7090
C   9.7560   14.2780   22.4410
H   8.8510   14.2660   21.8410
C   10.0090   13.2210   23.3230
H   9.3460   12.3640   23.2430
C   11.1890   13.1930   24.0600
H   11.5060   12.4190   24.7520
C   12.1210   14.2630   23.8890
H   13.0670   14.1720   24.4150
C   18.8420   17.6350   27.7520
H   18.1240   17.0240   28.3120
H   18.2540   18.2490   27.0590
H   19.3830   18.2440   28.4880
C   19.7860   16.8740   26.9420
C   20.9230   17.5130   26.3330
H   21.0460   18.5910   26.2770
C   21.9600   16.7460   25.6900
H   22.7590   17.2130   25.1220
C   21.8200   15.3540   25.7340
H   22.5620   14.8350   25.1340
C   20.7780   14.7860   26.4240
H   20.6730   13.7070   26.4980
C   19.7540   15.4920   26.9560
H   18.9700   15.0490   27.5620
C   25.2430   22.7500   18.9430
H   24.6510   23.3730   19.6240
H   24.6070   22.0920   18.3390
H   25.7690   23.4530   18.2840
C   26.2890   22.0890   19.8050
C   27.6530   22.5380   19.7650
H   27.8930   23.3990   19.1490
C   28.6720   21.9360   20.4790
H   29.6960   22.2960   20.4470
C   28.3120   20.9270   21.3620
H   29.1140   20.5670   22.0000
C   26.9480   20.4890   21.5060
H   26.7050   19.7450   22.2580
C   25.9360   21.0700   20.7010
H   24.8820   20.8350   20.8180
C   8.6660   14.0750   6.3660
H   9.5670   14.3180   5.7890
H   8.3130   15.1000   6.5330
H   8.0120   13.6260   5.6080
C   8.9520   13.1750   7.5700
C   9.2520   13.8780   8.7390
H   9.0790   14.9490   8.7860
C   9.7250   13.1670   9.8870
H   10.1540   13.6370   10.7670
C   9.7320   11.7360   9.9480
H   9.9080   11.1180   10.8230
C   9.4160   11.0830   8.7270
H   9.5500   10.0100   8.6190
C   9.0570   11.7790   7.5340
H   8.9280   11.2640   6.5870
C   8.9500   11.1620   20.3870
H   9.6770   10.3770   20.1430
H   8.1570   10.6850   20.9760
H   9.5010   11.9120   20.9680
C   8.2120   11.8340   19.2710
C   8.5700   13.1620   18.8940
H   9.3950   13.6460   19.4100
C   7.8880   13.7660   17.8650
H   8.0520   14.7920   17.5510
C   6.8730   13.0430   17.1600
H   6.3940   13.5060   16.3020
C   6.6020   11.7170   17.5240
H   5.9300   11.0650   16.9750
C   7.2670   11.0920   18.5130
H   6.9380   10.1170   18.8610
C   26.4570   12.4450   13.5550
H   27.1280   12.9590   14.2540
H   26.8800   12.5280   12.5470
H   26.3480   11.3870   13.8240
C   25.0650   13.0040   13.5080
C   24.3200   13.0670   12.3170
H   24.6950   12.4320   11.5200
C   23.1080   13.7070   12.1810
H   22.5800   13.8270   11.2400
C   22.5170   14.2950   13.4070
H   21.5280   14.7440   13.3850
C   23.1780   14.0720   14.6700
H   22.7680   14.3710   15.6300
C   24.4820   13.4620   14.6840
H   25.0670   13.3620   15.5930
C   17.5710   21.2480   6.8890
H   18.6510   21.3700   6.7390
H   17.1030   22.0750   7.4370
H   17.0720   21.3190   5.9150
C   17.2290   19.8820   7.3990
C   18.1980   19.0800   7.9940
H   19.2050   19.4850   8.0050
C   17.9790   17.8310   8.6610
H   18.7330   17.2870   9.2230
C   16.6260   17.3740   8.6220
H   16.3320   16.4460   9.1030
C   15.6520   18.0670   7.8430
H   14.6170   17.7430   7.7980
C   15.9210   19.3400   7.2650
H   15.0810   19.8910   6.8510
C   21.3760   21.0260   23.7240
H   20.4220   20.4870   23.7730
H   21.7020   21.4030   24.7020
H   22.0140   20.1900   23.4130
C   21.3200   22.2390   22.7430
C   21.4220   21.9180   21.3730
H   21.5590   20.8770   21.0950
C   21.1640   22.8820   20.4680
H   21.2420   22.6310   19.4150
C   20.8980   24.2170   20.9180
H   20.7360   25.0150   20.1990
C   20.8810   24.5300   22.2790
H   20.7390   25.5510   22.6190
C   21.0600   23.5250   23.2330
H   21.0710   23.7440   24.2960
C   13.4980   11.9160   9.8290
H   12.9760   11.0440   9.4180
H   12.8920   12.3220   10.6480
H   14.4620   11.6150   10.2580
C   13.7160   13.0320   8.7680
C   15.0200   13.6160   8.6070
H   15.8970   13.3430   9.1870
C   15.2000   14.6260   7.6390
H   16.2250   14.9300   7.4480
C   14.1260   14.9630   6.7830
H   14.1730   15.7170   6.0030
C   12.8520   14.5840   7.1130
H   12.0640   15.0130   6.5020
C   12.6470   13.5090   8.0450
H   11.7110   12.9710   8.1580
C   19.7440   10.5210   20.4450
H   19.1710   11.4550   20.4980
H   19.2620   9.7620   21.0740
H   19.7140   10.3290   19.3650
C   21.1430   10.7570   21.0140
C   22.2290   10.3180   20.2850
H   22.1500   9.9270   19.2750
C   23.5250   10.5680   20.8390
H   24.4000   10.2310   20.2920
C   23.7170   11.1630   22.0780
H   24.7300   11.2050   22.4680
C   22.5380   11.3930   22.8610
H   22.7390   11.7980   23.8480
C   21.2670   11.2310   22.2990
H   20.3950   11.6100   22.8240
C   29.8070   21.0370   16.6750
H   29.7320   22.0770   16.3350
H   30.3810   20.5460   15.8790
H   30.3680   20.9570   17.6140
C   28.4450   20.3010   16.9690
C   28.2260   19.5640   18.1860
H   29.0220   19.4550   18.9170
C   26.8940   19.1050   18.4470
H   26.6720   18.4880   19.3130
C   25.8510   19.3550   17.6180
H   24.8790   18.9520   17.8890
C   26.0900   20.0720   16.3750
H   25.2500   20.2200   15.7020
C   27.3720   20.5830   16.0780
H   27.4500   21.3560   15.3190
C   18.5500   10.0140   11.4130
H   18.7830   9.7570   12.4530
H   19.3500   9.5800   10.8000
H   17.6150   9.5640   11.0570
C   18.6360   11.5680   11.2050
C   19.5130   12.2330   10.3370
H   20.2410   11.5850   9.8580
C   19.5720   13.6310   10.2560
H   20.3650   14.1740   9.7510
C   18.5680   14.3480   10.9390
H   18.6520   15.4260   10.8390
C   17.6480   13.7120   11.7250
H   17.1040   14.3100   12.4500
C   17.7060   12.3240   11.9490
H   17.2340   11.8230   12.7890
C   22.1020   25.4310   5.5970
H   21.4160   26.2880   5.5930
H   21.7860   24.8510   4.7220
H   23.1330   25.7650   5.4260
C   21.9980   24.6230   6.8970
C   21.0770   23.5600   6.9970
H   20.5490   23.2000   6.1180
C   20.8770   22.8840   8.2000
H   20.2320   22.0110   8.2230
C   21.4880   23.3510   9.3830
H   21.2750   22.8260   10.3090
C   22.4070   24.4640   9.3180
H   22.8440   24.9190   10.2020
C   22.7460   25.0220   8.0470
H   23.4980   25.8030   7.9750
C   19.3618   18.5084   21.4501
H   20.0837   18.4629   22.2628
H   18.7504   19.4107   21.5232
H   19.9148   18.6014   20.5179
C   18.5541   17.2552   21.4628
C   17.1877   17.2770   21.2631
H   16.6316   18.2119   21.1439
C   16.3918   16.1403   21.1676
H   15.3609   16.1531   20.9225
C   16.9693   14.9048   21.4241
H   16.4028   13.9931   21.4918
C   18.3349   14.8387   21.5944
H   18.8664   13.9048   21.7335
C   19.1333   15.9798   21.6359
H   20.1996   15.9724   21.7409
562
Frame 21
C   16.3623   15.7900   17.1630
C   18.5982   16.6365   16.7567
C   15.7750   17.7384   17.6114
C   19.2734   16.0241   17.9732
C   19.5273   16.8303   15.5909
N   17.5218   15.7420   16.3438
N   15.3344   15.0590   16.5941
O   15.3189   18.0708   16.2761
H   14.3848   17.9070   16.3184
H   17.3634   15.6788   15.3673
H   16.5520   15.5390   18.1734
H   18.0982   17.5645   17.0372
H   14.5450   14.9044   17.1797
H   15.2586   14.9573   15.6067
H   16.5647   18.4510   17.8559
H   14.9444   18.0164   18.3449
H   20.0556   16.6682   18.3757
H   18.9442   16.8746   14.6790
H   19.6936   15.0489   17.7055
H   18.5886   15.8703   18.7946
H   20.1231   17.7283   15.6789
H   20.1990   15.9546   15.5414
C   31.0130   13.4690   20.5000
H   31.2490   12.6100   21.1410
H   31.6000   14.3580   20.7590
H   31.3090   13.1730   19.4860
C   29.5240   13.6930   20.5110
C   28.9490   14.9820   20.4600
H   29.6230   15.8190   20.3030
C   27.5460   15.1780   20.4020
H   27.1240   16.1710   20.2790
C   26.7510   14.0910   20.7820
H   25.6720   14.1250   20.8970
C   27.2930   12.7880   20.7300
H   26.5470   12.0120   20.8740
C   28.6890   12.5880   20.6520
H   29.0430   11.5650   20.7440
C   9.2210   14.9750   13.0480
H   9.9180   14.2170   12.6700
H   8.7250   15.4390   12.1860
H   8.5460   14.3880   13.6810
C   9.9500   16.0790   13.9260
C   11.1730   16.6700   13.5290
H   11.6950   16.2330   12.6830
C   11.7790   17.6500   14.3810
H   12.6890   18.1940   14.1470
C   11.0580   18.1190   15.4870
H   11.4490   19.0070   15.9740
C   9.8790   17.5550   15.8260
H   9.3990   17.9040   16.7360
C   9.3470   16.4720   15.1090
H   8.3400   16.1840   15.3940
C   13.1040   20.9490   22.1230
H   12.1100   21.0700   22.5720
H   13.3280   19.8760   22.1570
H   12.9300   21.4440   21.1600
C   14.1720   21.7290   22.9410
C   13.9780   23.0550   23.3640
H   12.9880   23.4780   23.2220
C   14.9570   23.7090   24.0980
H   14.8720   24.7370   24.4370
C   16.0910   23.0190   24.4910
H   16.8240   23.5570   25.0840
C   16.3390   21.7000   24.0260
H   17.2960   21.2060   24.1580
C   15.3480   21.0720   23.2660
H   15.4870   20.1110   22.7800
C   22.3270   16.0930   8.4030
H   22.3260   16.2600   9.4870
H   21.4310   15.6720   7.9300
H   22.4190   17.0690   7.9110
C   23.4930   15.2320   7.9250
C   24.6760   15.8080   7.3600
H   24.7170   16.8840   7.2220
C   25.8340   15.0550   7.0100
H   26.7290   15.6050   6.7360
C   25.7140   13.6410   7.1510
H   26.5440   12.9840   6.9070
C   24.5170   13.0840   7.6510
H   24.4140   12.0140   7.8020
C   23.4280   13.8620   7.9640
H   22.4620   13.4500   8.2420
C   13.3770   8.3710   11.1840
H   13.9280   8.9300   11.9500
H   12.7730   7.5980   11.6750
H   12.7470   9.0620   10.6100
C   14.2950   7.7300   10.0940
C   14.0090   6.4760   9.6240
H   13.0770   6.0180   9.9390
C   14.8900   5.7890   8.7340
H   14.6040   4.8470   8.2740
C   16.0940   6.4030   8.4280
H   16.8170   5.9830   7.7360
C   16.3240   7.7020   8.8800
H   17.2290   8.1990   8.5440
C   15.3900   8.3770   9.6670
H   15.4990   9.4410   9.8550
C   22.3720   27.5750   12.3440
H   22.6740   28.6260   12.2520
H   21.8660   27.2750   11.4180
H   23.3360   27.0640   12.4640
C   21.5860   27.1640   13.5380
C   20.6270   26.1270   13.4710
H   20.5230   25.5770   12.5400
C   19.8190   25.9080   14.6070
H   19.0410   25.1530   14.6740
C   19.8330   26.8130   15.6810
H   19.1800   26.6280   16.5280
C   20.7150   27.8320   15.6880
H   20.6750   28.5050   16.5390
C   21.6510   27.9300   14.6880
H   22.3640   28.7490   14.7160
C   26.3230   15.1720   24.4190
H   27.1730   15.7810   24.7530
H   26.9100   14.3730   23.9500
H   25.8350   14.6810   25.2700
C   25.2980   15.8310   23.5700
C   25.3310   17.2270   23.3880
H   26.0260   17.7850   24.0090
C   24.4240   17.8360   22.4700
H   24.3120   18.9080   22.3350
C   23.4800   16.9710   21.8510
H   22.7300   17.3880   21.1860
C   23.4350   15.6140   22.0990
H   22.6180   15.0160   21.7070
C   24.3990   15.0550   22.9540
H   24.2710   14.0400   23.3190
C   12.5310   21.3930   17.8850
H   13.2140   21.0900   17.0820
H   11.5950   21.6280   17.3640
H   12.3060   20.6590   18.6680
C   13.0320   22.5830   18.7360
C   12.2150   23.1990   19.6560
H   11.1450   23.0160   19.6540
C   12.8150   24.0790   20.5840
H   12.1470   24.6520   21.2210
C   14.2070   24.1490   20.7110
H   14.6570   24.8010   21.4530
C   15.0790   23.3670   19.9600
H   16.1550   23.3650   20.1040
C   14.4560   22.6230   18.9390
H   15.0290   21.9490   18.3100
C   14.8830   6.8570   21.3950
H   14.5830   5.8040   21.4680
H   14.1110   7.5640   21.0690
H   14.9540   7.1620   22.4460
C   16.2700   6.9730   20.7720
C   17.3370   6.4110   21.5060
H   17.0910   5.8820   22.4210
C   18.6390   6.6200   20.9560
H   19.4860   6.2070   21.4970
C   18.8360   7.1840   19.6870
H   19.8020   7.2850   19.2010
C   17.7740   7.7920   19.0310
H   17.9360   8.3530   18.1150
C   16.4720   7.7040   19.5680
H   15.6290   8.1750   19.0710
C   14.8160   10.5740   15.3720
H   14.3440   11.0040   14.4800
H   15.1400   11.3900   16.0290
H   13.9830   10.0440   15.8500
C   15.8760   9.5730   14.9300
C   15.5810   8.3740   14.2260
H   14.5360   8.2410   13.9630
C   16.5460   7.4790   13.7060
H   16.2100   6.6290   13.1200
C   17.8520   7.6230   14.2370
H   18.6540   6.9360   13.9850
C   18.1870   8.7030   14.9950
H   19.2350   8.8200   15.2580
C   17.2460   9.6850   15.4350
H   17.6780   10.4650   16.0550
C   8.0650   7.4040   17.5740
H   8.1270   8.0850   16.7160
H   7.5600   7.9240   18.3970
H   7.4880   6.4980   17.3480
C   9.4790   7.0660   18.0080
C   10.5440   7.9760   17.7650
H   10.3730   8.9450   17.3060
C   11.8290   7.6370   18.2640
H   12.7100   8.2510   18.1010
C   12.0090   6.4900   19.0190
H   13.0130   6.2290   19.3400
C   10.9610   5.6080   19.2070
H   11.1880   4.6980   19.7550
C   9.6610   5.8390   18.6640
H   8.8970   5.0800   18.8040
C   18.2400   9.3350   23.8980
H   18.4220   9.0030   24.9280
H   18.8890   10.1800   23.6390
H   18.3460   8.4310   23.2860
C   16.8430   9.7990   23.8620
C   16.4750   10.9760   23.2580
H   17.2340   11.5320   22.7170
C   15.1310   11.3650   23.2170
H   14.8330   12.3010   22.7540
C   14.1480   10.5800   23.8790
H   13.1240   10.9410   23.8510
C   14.5070   9.3760   24.4910
H   13.6960   8.7620   24.8720
C   15.8380   9.0020   24.5510
H   16.1540   8.1380   25.1280
C   10.9060   11.5230   15.8000
H   10.2660   12.1380   16.4450
H   11.8110   12.1010   15.5760
H   11.3030   10.7560   16.4760
C   10.1450   10.8230   14.6590
C   8.8800   11.1470   14.2680
H   8.3050   11.8430   14.8720
C   8.2310   10.3560   13.3000
H   7.1860   10.6060   13.1480
C   8.9080   9.2900   12.6040
H   8.3580   8.8160   11.7960
C   10.2410   9.0790   12.9680
H   10.7620   8.2900   12.4330
C   10.8540   9.7140   14.0870
H   11.8650   9.4940   14.4180
C   12.4900   20.4970   8.7300
H   11.7150   20.4740   7.9540
H   12.2270   19.9760   9.6590
H   13.3460   20.0150   8.2410
C   12.8650   21.9680   8.9270
C   12.1420   22.7970   9.8120
H   11.2610   22.4200   10.3220
C   12.3840   24.1720   9.8850
H   11.8920   24.7890   10.6310
C   13.4520   24.6990   9.1480
H   13.6750   25.7620   9.1740
C   14.2260   23.9500   8.2820
H   15.0110   24.4020   7.6830
C   13.8970   22.5400   8.1400
H   14.4070   21.9210   7.4080
C   25.2240   23.2580   12.7270
H   25.5120   24.3000   12.9180
H   24.9920   23.1420   11.6620
H   26.0960   22.6100   12.8790
C   24.1020   22.8110   13.7090
C   24.1040   23.2240   14.9730
H   24.9610   23.8230   15.2650
C   23.1140   22.7650   15.8740
H   23.0750   23.1170   16.9010
C   22.0540   21.9550   15.3630
H   21.3500   21.5740   16.0970
C   21.9790   21.6570   14.0120
H   21.2210   20.9940   13.6040
C   22.9780   22.0850   13.1860
H   22.9530   21.7500   12.1530
C   15.9690   24.2190   11.3740
H   16.8540   24.6850   11.8250
H   15.3350   25.1120   11.4330
H   16.1270   23.9390   10.3250
C   15.4160   23.1270   12.1800
C   15.0320   21.8940   11.5900
H   15.1170   21.7510   10.5170
C   14.4730   20.9160   12.4130
H   14.1800   19.9440   12.0280
C   14.3810   21.0610   13.7930
H   14.0500   20.2450   14.4290
C   14.8220   22.2110   14.4320
H   14.6700   22.2620   15.5060
C   15.2630   23.2580   13.6150
H   15.6250   24.2030   14.0110
C   7.9820   23.6640   20.2210
H   7.6700   24.1780   19.3030
H   8.8810   24.2110   20.5300
H   7.2090   23.8760   20.9700
C   8.2150   22.1450   20.0450
C   8.9820   21.3660   20.9660
H   9.4280   21.8310   21.8400
C   9.3410   20.0110   20.7260
H   9.9200   19.4750   21.4720
C   8.8720   19.3730   19.6080
H   9.2540   18.3910   19.3440
C   8.1140   20.1330   18.6130
H   7.8040   19.7260   17.6550
C   7.8120   21.5360   18.8670
H   7.2650   22.1110   18.1260
C   16.6400   17.6150   24.7630
H   16.2880   18.1500   25.6540
H   16.0580   17.8970   23.8770
H   17.6690   17.9180   24.5330
C   16.4320   16.1690   24.9640
C   17.4700   15.2850   24.7630
H   18.3820   15.6110   24.2700
C   17.2870   13.9420   25.1470
H   18.0430   13.2190   24.8550
C   16.0500   13.5080   25.7080
H   15.9690   12.4530   25.9550
C   15.0160   14.4460   25.9100
H   14.0840   14.0850   26.3350
C   15.2290   15.7710   25.5010
H   14.4230   16.4770   25.6750
C   9.8970   25.7470   14.8340
H   9.2600   26.2100   14.0700
H   10.9030   26.1810   14.8020
H   9.4340   25.9280   15.8120
C   10.1050   24.2760   14.5480
C   9.4830   23.4020   15.4380
H   8.7910   23.7840   16.1820
C   9.7180   22.0020   15.3700
H   9.2880   21.4530   16.2030
C   10.5190   21.4980   14.3610
H   10.5880   20.4200   14.2480
C   11.0160   22.3430   13.3520
H   11.7280   21.9650   12.6240
C   10.8610   23.7380   13.4830
H   11.4610   24.3570   12.8230
C   21.4460   7.1060   12.4470
H   20.6860   6.3340   12.6150
H   22.2500   6.4780   12.0440
H   21.0510   7.7230   11.6300
C   21.6030   8.0210   13.6490
C   21.7540   7.6760   14.9780
H   21.7640   6.6430   15.3150
C   21.9350   8.6230   16.0550
H   22.0640   8.3230   17.0910
C   22.1380   9.9860   15.6920
H   22.3350   10.8010   16.3830
C   22.0340   10.3260   14.3310
H   22.1590   11.3300   13.9360
C   21.6750   9.3700   13.3830
H   21.5590   9.7230   12.3630
C   22.9880   17.6800   12.2810
H   22.9180   16.8740   13.0210
H   23.7730   18.3620   12.6300
H   23.2480   17.2650   11.3000
C   21.6550   18.3490   12.1870
C   20.6220   18.0880   13.0570
H   20.7970   17.3350   13.8210
C   19.4340   18.7990   13.0450
H   18.7570   18.7330   13.8920
C   19.1760   19.7760   12.0220
H   18.2920   20.4060   12.0440
C   20.1570   19.9410   11.0580
H   19.9550   20.5700   10.1960
C   21.4170   19.2580   11.1840
H   22.2080   19.5330   10.4920
C   11.5670   16.9320   9.5720
H   12.2140   17.1360   8.7100
H   11.2820   15.8920   9.3700
H   12.1900   17.0270   10.4710
C   10.3380   17.8120   9.7330
C   9.4070   17.9080   8.6630
H   9.2760   17.1270   7.9200
C   8.4820   18.9870   8.6270
H   7.7350   19.0310   7.8400
C   8.4710   19.9600   9.6310
H   7.7480   20.7700   9.6540
C   9.3540   19.8350   10.7390
H   9.3650   20.4890   11.6050
C   10.1940   18.7130   10.7970
H   10.9300   18.6810   11.5950
C   12.7180   16.6050   23.0210
H   12.8130   16.8270   21.9510
H   13.7280   16.3210   23.3450
H   12.5000   17.5290   23.5710
C   11.8010   15.4010   23.1530
C   10.6200   15.4240   22.3970
H   10.4520   16.2470   21.7090
C   9.7560   14.2780   22.4410
H   8.8510   14.2660   21.8410
C   10.0090   13.2210   23.3230
H   9.3460   12.3640   23.2430
C   11.1890   13.1930   24.0600
H   11.5060   12.4190   24.7520
C   12.1210   14.2630   23.8890
H   13.0670   14.1720   24.4150
C   18.8420   17.6350   27.7520
H   18.1240   17.0240   28.3120
H   18.2540   18.2490   27.0590
H   19.3830   18.2440   28.4880
C   19.7860   16.8740   26.9420
C   20.9230   17.5130   26.3330
H   21.0460   18.5910   26.2770
C   21.9600   16.7460   25.6900
H   22.7590   17.2130   25.1220
C   21.8200   15.3540   25.7340
H   22.5620   14.8350   25.1340
C   20.7780   14.7860   26.4240
H   20.6730   13.7070   26.4980
C   19.7540   15.4920   26.9560
H   18.9700   15.0490   27.5620
C   25.2430   22.7500   18.9430
H   24.6510   23.3730   19.6240
H   24.6070   22.0920   18.3390
H   25.7690   23.4530   18.2840
C   26.2890   22.0890   19.8050
C   27.6530   22.5380   19.7650
H   27.8930   23.3990   19.1490
C   28.6720   21.9360   20.4790
H   29.6960   22.2960   20.4470
C   28.3120   20.9270   21.3620
H   29.1140   20.5670   22.0000
C   26.9480   20.4890   21.5060
H   26.7050   19.7450   22.2580
C   25.9360   21.0700   20.7010
H   24.8820   20.8350   20.8180
C   8.6660   14.0750   6.3660
H   9.5670   14.3180   5.7890
H   8.3130   15.1000   6.5330
H   8.0120   13.6260   5.6080
C   8.9520   13.1750   7.5700
C   9.2520   13.8780   8.7390
H   9.0790   14.9490   8.7860
C   9.7250   13.1670   9.8870
H   10.1540   13.6370   10.7670
C   9.7320   11.7360   9.9480
H   9.9080   11.1180   10.8230
C   9.4160   11.0830   8.7270
H   9.5500   10.0100   8.6190
C   9.0570   11.7790   7.5340
H   8.9280   11.2640   6.5870
C   8.9500   11.1620   20.3870
H   9.6770   10.3770   20.1430
H   8.1570   10.6850   20.9760
H   9.5010   11.9120   20.9680
C   8.2120   11.8340   19.2710
C   8.5700   13.1620   18.8940
H   9.3950   13.6460   19.4100
C   7.8880   13.7660   17.8650
H   8.0520   14.7920   17.5510
C   6.8730   13.0430   17.1600
H   6.3940   13.5060   16.3020
C   6.6020   11.7170   17.5240
H   5.9300   11.0650   16.9750
C   7.2670   11.0920   18.5130
H   6.9380   10.1170   18.8610
C   26.4570   12.4450   13.5550
H   27.1280   12.9590   14.2540
H   26.8800   12.5280   12.5470
H   26.3480   11.3870   13.8240
C   25.0650   13.0040   13.5080
C   24.3200   13.0670   12.3170
H   24.6950   12.4320   11.5200
C   23.1080   13.7070   12.1810
H   22.5800   13.8270   11.2400
C   22.5170   14.2950   13.4070
H   21.5280   14.7440   13.3850
C   23.1780   14.0720   14.6700
H   22.7680   14.3710   15.6300
C   24.4820   13.4620   14.6840
H   25.0670   13.3620   15.5930
C   17.5710   21.2480   6.8890
H   18.6510   21.3700   6.7390
H   17.1030   22.0750   7.4370
H   17.0720   21.3190   5.9150
C   17.2290   19.8820   7.3990
C   18.1980   19.0800   7.9940
H   19.2050   19.4850   8.0050
C   17.9790   17.8310   8.6610
H   18.7330   17.2870   9.2230
C   16.6260   17.3740   8.6220
H   16.3320   16.4460   9.1030
C   15.6520   18.0670   7.8430
H   14.6170   17.7430   7.7980
C   15.9210   19.3400   7.2650
H   15.0810   19.8910   6.8510
C   21.3760   21.0260   23.7240
H   20.4220   20.4870   23.7730
H   21.7020   21.4030   24.7020
H   22.0140   20.1900   23.4130
C   21.3200   22.2390   22.7430
C   21.4220   21.9180   21.3730
H   21.5590   20.8770   21.0950
C   21.1640   22.8820   20.4680
H   21.2420   22.6310   19.4150
C   20.8980   24.2170   20.9180
H   20.7360   25.0150   20.1990
C   20.8810   24.5300   22.2790
H   20.7390   25.5510   22.6190
C   21.0600   23.5250   23.2330
H   21.0710   23.7440   24.2960
C   13.4980   11.9160   9.8290
H   12.9760   11.0440   9.4180
H   12.8920   12.3220   10.6480
H   14.4620   11.6150   10.2580
C   13.7160   13.0320   8.7680
C   15.0200   13.6160   8.6070
H   15.8970   13.3430   9.1870
C   15.2000   14.6260   7.6390
H   16.2250   14.9300   7.4480
C   14.1260   14.9630   6.7830
H   14.1730   15.7170   6.0030
C   12.8520   14.5840   7.1130
H   12.0640   15.0130   6.5020
C   12.6470   13.5090   8.0450
H   11.7110   12.9710   8.1580
C   19.7440   10.5210   20.4450
H   19.1710   11.4550   20.4980
H   19.2620   9.7620   21.0740
H   19.7140   10.3290   19.3650
C   21.1430   10.7570   21.0140
C   22.2290   10.3180   20.2850
H   22.1500   9.9270   19.2750
C   23.5250   10.5680   20.8390
H   24.4000   10.2310   20.2920
C   23.7170   11.1630   22.0780
H   24.7300   11.2050   22.4680
C   22.5380   11.3930   22.8610
H   22.7390   11.7980   23.8480
C   21.2670   11.2310   22.2990
H   20.3950   11.6100   22.8240
C   29.8070   21.0370   16.6750
H   29.7320   22.0770   16.3350
H   30.3810   20.5460   15.8790
H   30.3680   20.9570   17.6140
C   28.4450   20.3010   16.9690
C   28.2260   19.5640   18.1860
H   29.0220   19.4550   18.9170
C   26.8940   19.1050   18.4470
H   26.6720   18.4880   19.3130
C   25.8510   19.3550   17.6180
H   24.8790   18.9520   17.8890
C   26.0900   20.0720   16.3750
H   25.2500   20.2200   15.7020
C   27.3720   20.5830   16.0780
H   27.4500   21.3560   15.3190
C   18.5500   10.0140   11.4130
H   18.7830   9.7570   12.4530
H   19.3500   9.5800   10.8000
H   17.6150   9.5640   11.0570
C   18.6360   11.5680   11.2050
C   19.5130   12.2330   10.3370
H   20.2410   11.5850   9.8580
C   19.5720   13.6310   10.2560
H   20.3650   14.1740   9.7510
C   18.5680   14.3480   10.9390
H   18.6520   15.4260   10.8390
C   17.6480   13.7120   11.7250
H   17.1040   14.3100   12.4500
C   17.7060   12.3240   11.9490
H   17.2340   11.8230   12.7890
C   22.1020   25.4310   5.5970
H   21.4160   26.2880   5.5930
H   21.7860   24.8510   4.7220
H   23.1330   25.7650   5.4260
C   21.9980   24.6230   6.8970
C   21.0770   23.5600   6.9970
H   20.5490   23.2000   6.1180
C   20.8770   22.8840   8.2000
H   20.2320   22.0110   8.2230
C   21.4880   23.3510   9.3830
H   21.2750   22.8260   10.3090
C   22.4070   24.4640   9.3180
H   22.8440   24.9190   10.2020
C   22.7460   25.0220   8.0470
H   23.4980   25.8030   7.9750
C   19.3642   18.5096   21.4536
H   20.0776   18.4716   22.2607
H   18.7548   19.4069   21.5300
H   19.9180   18.5953   20.5135
C   18.5402   17.2527   21.4554
C   17.1748   17.2837   21.2546
H   16.6374   18.2202   21.1519
C   16.3946   16.1304   21.1704
H   15.3583   16.1669   20.9199
C   16.9822   14.8959   21.4244
H   16.3978   13.9909   21.4925
C   18.3468   14.8366   21.5994
H   18.8654   13.8971   21.7309
C   19.1358   15.9871   21.6267
H   20.1991   15.9671   21.7456
562
Frame 22
C   16.3591   15.8095   17.1577
C   18.5990   16.6379   16.7550
C   15.7707   17.7260   17.5996
C   19.2758   16.0236   17.9692
C   19.5295   16.8274   15.5925
N   17.5190   15.7524   16.3651
N   15.3347   15.0678   16.6095
O   15.3220   18.0758   16.2813
H   14.3754   17.9086   16.3127
H   17.3525   15.6766   15.3626
H   16.5533   15.5355   18.1826
H   18.1150   17.5688   17.0351
H   14.5363   14.9033   17.1735
H   15.2552   14.9588   15.6094
H   16.5627   18.4393   17.8560
H   14.9584   17.9941   18.3367
H   20.0559   16.6682   18.3747
H   18.9424   16.8750   14.6817
H   19.6946   15.0509   17.7089
H   18.5869   15.8703   18.7945
H   20.1213   17.7272   15.6829
H   20.2007   15.9539   15.5418
C   31.0130   13.4690   20.5000
H   31.2490   12.6100   21.1410
H   31.6000   14.3580   20.7590
H   31.3090   13.1730   19.4860
C   29.5240   13.6930   20.5110
C   28.9490   14.9820   20.4600
H   29.6230   15.8190   20.3030
C   27.5460   15.1780   20.4020
H   27.1240   16.1710   20.2790
C   26.7510   14.0910   20.7820
H   25.6720   14.1250   20.8970
C   27.2930   12.7880   20.7300
H   26.5470   12.0120   20.8740
C   28.6890   12.5880   20.6520
H   29.0430   11.5650   20.7440
C   9.2210   14.9750   13.0480
H   9.9180   14.2170   12.6700
H   8.7250   15.4390   12.1860
H   8.5460   14.3880   13.6810
C   9.9500   16.0790   13.9260
C   11.1730   16.6700   13.5290
H   11.6950   16.2330   12.6830
C   11.7790   17.6500   14.3810
H   12.6890   18.1940   14.1470
C   11.0580   18.1190   15.4870
H   11.4490   19.0070   15.9740
C   9.8790   17.5550   15.8260
H   9.3990   17.9040   16.7360
C   9.3470   16.4720   15.1090
H   8.3400   16.1840   15.3940
C   13.1040   20.9490   22.1230
H   12.1100   21.0700   22.5720
H   13.3280   19.8760   22.1570
H   12.9300   21.4440   21.1600
C   14.1720   21.7290   22.9410
C   13.9780   23.0550   23.3640
H   12.9880   23.4780   23.2220
C   14.9570   23.7090   24.0980
H   14.8720   24.7370   24.4370
C   16.0910   23.0190   24.4910
H   16.8240   23.5570   25.0840
C   16.3390   21.7000   24.0260
H   17.2960   21.2060   24.1580
C   15.3480   21.0720   23.2660
H   15.4870   20.1110   22.7800
C   22.3270   16.0930   8.4030
H   22.3260   16.2600   9.4870
H   21.4310   15.6720   7.9300
H   22.4190   17.0690   7.9110
C   23.4930   15.2320   7.9250
C   24.6760   15.8080   7.3600
H   24.7170   16.8840   7.2220
C   25.8340   15.0550   7.0100
H   26.7290   15.6050   6.7360
C   25.7140   13.6410   7.1510
H   26.5440   12.9840   6.9070
C   24.5170   13.0840   7.6510
H   24.4140   12.0140   7.8020
C   23.4280   13.8620   7.9640
H   22.4620   13.4500   8.2420
C   13.3770   8.3710   11.1840
H   13.9280   8.9300   11.9500
H   12.7730   7.5980   11.6750
H   12.7470   9.0620   10.6100
C   14.2950   7.7300   10.0940
C   14.0090   6.4760   9.6240
H   13.0770   6.0180   9.9390
C   14.8900   5.7890   8.7340
H   14.6040   4.8470   8.2740
C   16.0940   6.4030   8.4280
H   16.8170   5.9830   7.7360
C   16.3240   7.7020   8.8800
H   17.2290   8.1990   8.5440
C   15.3900   8.3770   9.6670
H   15.4990   9.4410   9.8550
C   22.3720   27.5750   12.3440
H   22.6740   28.6260   12.2520
H   21.8660   27.2750   11.4180
H   23.3360   27.0640   12.4640
C   21.5860   27.1640   13.5380
C   20.6270   26.1270   13.4710
H   20.5230   25.5770   12.5400
C   19.8190   25.9080   14.6070
H   19.0410   25.1530   14.6740
C   19.8330   26.8130   15.6810
H   19.1800   26.6280   16.5280
C   20.7150   27.8320   15.6880
H   20.6750   28.5050   16.5390
C   21.6510   27.9300   14.6880
H   22.3640   28.7490   14.7160
C   26.3230   15.1720   24.4190
H   27.1730   15.7810   24.7530
H   26.9100   14.3730   23.9500
H   25.8350   14.6810   25.2700
C   25.2980   15.8310   23.5700
C   25.3310   17.2270   23.3880
H   26.0260   17.7850   24.0090
C   24.4240   17.8360   22.4700
H   24.3120   18.9080   22.3350
C   23.4800   16.9710   21.8510
H   22.7300   17.3880   21.1860
C   23.4350   15.6140   22.0990
H   22.6180   15.0160   21.7070
C   24.3990   15.0550   22.9540
H   24.2710   14.0400   23.3190
C   12.5310   21.3930   17.8850
H   13.2140   21.0900   17.0820
H   11.5950   21.6280   17.3640
H   12.3060   20.6590   18.6680
C   13.0320   22.5830   18.7360
C   12.2150   23.1990   19.6560
H   11.1450   23.0160   19.6540
C   12.8150   24.0790   20.5840
H   12.1470   24.6520   21.2210
C   14.2070   24.1490   20.7110
H   14.6570   24.8010   21.4530
C   15.0790   23.3670   19.9600
H   16.1550   23.3650   20.1040
C   14.4560   22.6230   18.9390
H   15.0290   21.9490   18.3100
C   14.8830   6.8570   21.3950
H   14.5830   5.8040   21.4680
H   14.1110   7.5640   21.0690
H   14.9540   7.1620   22.4460
C   16.2700   6.9730   20.7720
C   17.3370   6.4110   21.5060
H   17.0910   5.8820   22.4210
C   18.6390   6.6200   20.9560
H   19.4860   6.2070   21.4970
C   18.8360   7.1840   19.6870
H   19.8020   7.2850   19.2010
C   17.7740   7.7920   19.0310
H   17.9360   8.3530   18.1150
C   16.4720   7.7040   19.5680
H   15.6290   8.1750   19.0710
C   14.8160   10.5740   15.3720
H   14.3440   11.0040   14.4800
H   15.1400   11.3900   16.0290
H   13.9830   10.0440   15.8500
C   15.8760   9.5730   14.9300
C   15.5810   8.3740   14.2260
H   14.5360   8.2410   13.9630
C   16.5460   7.4790   13.7060
H   16.2100   6.6290   13.1200
C   17.8520   7.6230   14.2370
H   18.6540   6.9360   13.9850
C   18.1870   8.7030   14.9950
H   19.2350   8.8200   15.2580
C   17.2460   9.6850   15.4350
H   17.6780   10.4650   16.0550
C   8.0650   7.4040   17.5740
H   8.1270   8.0850   16.7160
H   7.5600   7.9240   18.3970
H   7.4880   6.4980   17.3480
C   9.4790   7.0660   18.0080
C   10.5440   7.9760   17.7650
H   10.3730   8.9450   17.3060
C   11.8290   7.6370   18.2640
H   12.7100   8.2510   18.1010
C   12.0090   6.4900   19.0190
H   13.0130   6.2290   19.3400
C   10.9610   5.6080   19.2070
H   11.1880   4.6980   19.7550
C   9.6610   5.8390   18.6640
H   8.8970   5.0800   18.8040
C   18.2400   9.3350   23.8980
H   18.4220   9.0030   24.9280
H   18.8890   10.1800   23.6390
H   18.3460   8.4310   23.2860
C   16.8430   9.7990   23.8620
C   16.4750   10.9760   23.2580
H   17.2340   11.5320   22.7170
C   15.1310   11.3650   23.2170
H   14.8330   12.3010   22.7540
C   14.1480   10.5800   23.8790
H   13.1240   10.9410   23.8510
C   14.5070   9.3760   24.4910
H   13.6960   8.7620   24.8720
C   15.8380   9.0020   24.5510
H   16.1540   8.1380   25.1280
C   10.9060   11.5230   15.8000
H   10.2660   12.1380   16.4450
H   11.8110   12.1010   15.5760
H   11.3030   10.7560   16.4760
C   10.1450   10.8230   14.6590
C   8.8800   11.1470   14.2680
H   8.3050   11.8430   14.8720
C   8.2310   10.3560   13.3000
H   7.1860   10.6060   13.1480
C   8.9080   9.2900   12.6040
H   8.3580   8.8160   11.7960
C   10.2410   9.0790   12.9680
H   10.7620   8.2900   12.4330
C   10.8540   9.7140   14.0870
H   11.8650   9.4940   14.4180
C   12.4900   20.4970   8.7300
H   11.7150   20.4740   7.9540
H   12.2270   19.9760   9.6590
H   13.3460   20.0150   8.2410
C   12.8650   21.9680   8.9270
C   12.1420   22.7970   9.8120
H   11.2610   22.4200   10.3220
C   12.3840   24.1720   9.8850
H   11.8920   24.7890   10.6310
C   13.4520   24.6990   9.1480
H   13.6750   25.7620   9.1740
C   14.2260   23.9500   8.2820
H   15.0110   24.4020   7.6830
C   13.8970   22.5400   8.1400
H   14.4070   21.9210   7.4080
C   25.2240   23.2580   12.7270
H   25.5120   24.3000   12.9180
H   24.9920   23.1420   11.6620
H   26.0960   22.6100   12.8790
C   24.1020   22.8110   13.7090
C   24.1040   23.2240   14.9730
H   24.9610   23.8230   15.2650
C   23.1140   22.7650   15.8740
H   23.0750   23.1170   16.9010
C   22.0540   21.9550   15.3630
H   21.3500   21.5740   16.0970
C   21.9790   21.6570   14.0120
H   21.2210   20.9940   13.6040
C   22.9780   22.0850   13.1860
H   22.9530   21.7500   12.1530
C   15.9690   24.2190   11.3740
H   16.8540   24.6850   11.8250
H   15.3350   25.1120   11.4330
H   16.1270   23.9390   10.3250
C   15.4160   23.1270   12.1800
C   15.0320   21.8940   11.5900
H   15.1170   21.7510   10.5170
C   14.4730   20.9160   12.4130
H   14.1800   19.9440   12.0280
C   14.3810   21.0610   13.7930
H   14.0500   20.2450   14.4290
C   14.8220   22.2110   14.4320
H   14.6700   22.2620   15.5060
C   15.2630   23.2580   13.6150
H   15.6250   24.2030   14.0110
C   7.9820   23.6640   20.2210
H   7.6700   24.1780   19.3030
H   8.8810   24.2110   20.5300
H   7.2090   23.8760   20.9700
C   8.2150   22.1450   20.0450
C   8.9820   21.3660   20.9660
H   9.4280   21.8310   21.8400
C   9.3410   20.0110   20.7260
H   9.9200   19.4750   21.4720
C   8.8720   19.3730   19.6080
H   9.2540   18.3910   19.3440
C   8.1140   20.1330   18.6130
H   7.8040   19.7260   17.6550
C   7.8120   21.5360   18.8670
H   7.2650   22.1110   18.1260
C   16.6400   17.6150   24.7630
H   16.2880   18.1500   25.6540
H   16.0580   17.8970   23.8770
H   17.6690   17.9180   24.5330
C   16.4320   16.1690   24.9640
C   17.4700   15.2850   24.7630
H   18.3820   15.6110   24.2700
C   17.2870   13.9420   25.1470
H   18.0430   13.2190   24.8550
C   16.0500   13.5080   25.7080
H   15.9690   12.4530   25.9550
C   15.0160   14.4460   25.9100
H   14.0840   14.0850   26.3350
C   15.2290   15.7710   25.5010
H   14.4230   16.4770   25.6750
C   9.8970   25.7470   14.8340
H   9.2600   26.2100   14.0700
H   10.9030   26.1810   14.8020
H   9.4340   25.9280   15.8120
C   10.1050   24.2760   14.5480
C   9.4830   23.4020   15.4380
H   8.7910   23.7840   16.1820
C   9.7180   22.0020   15.3700
H   9.2880   21.4530   16.2030
C   10.5190   21.4980   14.3610
H   10.5880   20.4200   14.2480
C   11.0160   22.3430   13.3520
H   11.7280   21.9650   12.6240
C   10.8610   23.7380   13.4830
H   11.4610   24.3570   12.8230
C   21.4460   7.1060   12.4470
H   20.6860   6.3340   12.6150
H   22.2500   6.4780   12.0440
H   21.0510   7.7230   11.6300
C   21.6030   8.0210   13.6490
C   21.7540   7.6760   14.9780
H   21.7640   6.6430   15.3150
C   21.9350   8.6230   16.0550
H   22.0640   8.3230   17.0910
C   22.1380   9.9860   15.6920
H   22.3350   10.8010   16.3830
C   22.0340   10.3260   14.3310
H   22.1590   11.3300   13.9360
C   21.6750   9.3700   13.3830
H   21.5590   9.7230   12.3630
C   22.9880   17.6800   12.2810
H   22.9180   16.8740   13.0210
H   23.7730   18.3620   12.6300
H   23.2480   17.2650   11.3000
C   21.6550   18.3490   12.1870
C   20.6220   18.0880   13.0570
H   20.7970   17.3350   13.8210
C   19.4340   18.7990   13.0450
H   18.7570   18.7330   13.8920
C   19.1760   19.7760   12.0220
H   18.2920   20.4060   12.0440
C   20.1570   19.9410   11.0580
H   19.9550   20.5700   10.1960
C   21.4170   19.2580   11.1840
H   22.2080   19.5330   10.4920
C   11.5670   16.9320   9.5720
H   12.2140   17.1360   8.7100
H   11.2820   15.8920   9.3700
H   12.1900   17.0270   10.4710
C   10.3380   17.8120   9.7330
C   9.4070   17.9080   8.6630
H   9.2760   17.1270   7.9200
C   8.4820   18.9870   8.6270
H   7.7350   19.0310   7.8400
C   8.4710   19.9600   9.6310
H   7.7480   20.7700   9.6540
C   9.3540   19.8350   10.7390
H   9.3650   20.4890   11.6050
C   10.1940   18.7130   10.7970
H   10.9300   18.6810   11.5950
C   12.7180   16.6050   23.0210
H   12.8130   16.8270   21.9510
H   13.7280   16.3210   23.3450
H   12.5000   17.5290   23.5710
C   11.8010   15.4010   23.1530
C   10.6200   15.4240   22.3970
H   10.4520   16.2470   21.7090
C   9.7560   14.2780   22.4410
H   8.8510   14.2660   21.8410
C   10.0090   13.2210   23.3230
H   9.3460   12.3640   23.2430
C   11.1890   13.1930   24.0600
H   11.5060   12.4190   24.7520
C   12.1210   14.2630   23.8890
H   13.0670   14.1720   24.4150
C   18.8420   17.6350   27.7520
H   18.1240   17.0240   28.3120
H   18.2540   18.2490   27.0590
H   19.3830   18.2440   28.4880
C   19.7860   16.8740   26.9420
C   20.9230   17.5130   26.3330
H   21.0460   18.5910   26.2770
C   21.9600   16.7460   25.6900
H   22.7590   17.2130   25.1220
C   21.8200   15.3540   25.7340
H   22.5620   14.8350   25.1340
C   20.7780   14.7860   26.4240
H   20.6730   13.7070   26.4980
C   19.7540   15.4920   26.9560
H   18.9700   15.0490   27.5620
C   25.2430   22.7500   18.9430
H   24.6510   23.3730   19.6240
H   24.6070   22.0920   18.3390
H   25.7690   23.4530   18.2840
C   26.2890   22.0890   19.8050
C   27.6530   22.5380   19.7650
H   27.8930   23.3990   19.1490
C   28.6720   21.9360   20.4790
H   29.6960   22.2960   20.4470
C   28.3120   20.9270   21.3620
H   29.1140   20.5670   22.0000
C   26.9480   20.4890   21.5060
H   26.7050   19.7450   22.2580
C   25.9360   21.0700   20.7010
H   24.8820   20.8350   20.8180
C   8.6660   14.0750   6.3660
H   9.5670   14.3180   5.7890
H   8.3130   15.1000   6.5330
H   8.0120   13.6260   5.6080
C   8.9520   13.1750   7.5700
C   9.2520   13.8780   8.7390
H   9.0790   14.9490   8.7860
C   9.7250   13.1670   9.8870
H   10.1540   13.6370   10.7670
C   9.7320   11.7360   9.9480
H   9.9080   11.1180   10.8230
C   9.4160   11.0830   8.7270
H   9.5500   10.0100   8.6190
C   9.0570   11.7790   7.5340
H   8.9280   11.2640   6.5870
C   8.9500   11.1620   20.3870
H   9.6770   10.3770   20.1430
H   8.1570   10.6850   20.9760
H   9.5010   11.9120   20.9680
C   8.2120   11.8340   19.2710
C   8.5700   13.1620   18.8940
H   9.3950   13.6460   19.4100
C   7.8880   13.7660   17.8650
H   8.0520   14.7920   17.5510
C   6.8730   13.0430   17.1600
H   6.3940   13.5060   16.3020
C   6.6020   11.7170   17.5240
H   5.9300   11.0650   16.9750
C   7.2670   11.0920   18.5130
H   6.9380   10.1170   18.8610
C   26.4570   12.4450   13.5550
H   27.1280   12.9590   14.2540
H   26.8800   12.5280   12.5470
H   26.3480   11.3870   13.8240
C   25.0650   13.0040   13.5080
C   24.3200   13.0670   12.3170
H   24.6950   12.4320   11.5200
C   23.1080   13.7070   12.1810
H   22.5800   13.8270   11.2400
C   22.5170   14.2950   13.4070
H   21.5280   14.7440   13.3850
C   23.1780   14.0720   14.6700
H   22.7680   14.3710   15.6300
C   24.4820   13.4620   14.6840
H   25.0670   13.3620   15.5930
C   17.5710   21.2480   6.8890
H   18.6510   21.3700   6.7390
H   17.1030   22.0750   7.4370
H   17.0720   21.3190   5.9150
C   17.2290   19.8820   7.3990
C   18.1980   19.0800   7.9940
H   19.2050   19.4850   8.0050
C   17.9790   17.8310   8.6610
H   18.7330   17.2870   9.2230
C   16.6260   17.3740   8.6220
H   16.3320   16.4460   9.1030
C   15.6520   18.0670   7.8430
H   14.6170   17.7430   7.7980
C   15.9210   19.3400   7.2650
H   15.0810   19.8910   6.8510
C   21.3760   21.0260   23.7240
H   20.4220   20.4870   23.7730
H   21.7020   21.4030   24.7020
H   22.0140   20.1900   23.4130
C   21.3200   22.2390   22.7430
C   21.4220   21.9180   21.3730
H   21.5590   20.8770   21.0950
C   21.1640   22.8820   20.4680
H   21.2420   22.6310   19.4150
C   20.8980   24.2170   20.9180
H   20.7360   25.0150   20.1990
C   20.8810   24.5300   22.2790
H   20.7390   25.5510   22.6190
C   21.0600   23.5250   23.2330
H   21.0710   23.7440   24.2960
C   13.4980   11.9160   9.8290
H   12.9760   11.0440   9.4180
H   12.8920   12.3220   10.6480
H   14.4620   11.6150   10.2580
C   13.7160   13.0320   8.7680
C   15.0200   13.6160   8.6070
H   15.8970   13.3430   9.1870
C   15.2000   14.6260   7.6390
H   16.2250   14.9300   7.4480
C   14.1260   14.9630   6.7830
H   14.1730   15.7170   6.0030
C   12.8520   14.5840   7.1130
H   12.0640   15.0130   6.5020
C   12.6470   13.5090   8.0450
H   11.7110   12.9710   8.1580
C   19.7440   10.5210   20.4450
H   19.1710   11.4550   20.4980
H   19.2620   9.7620   21.0740
H   19.7140   10.3290   19.3650
C   21.1430   10.7570   21.0140
C   22.2290   10.3180   20.2850
H   22.1500   9.9270   19.2750
C   23.5250   10.5680   20.8390
H   24.4000   10.2310   20.2920
C   23.7170   11.1630   22.0780
H   24.7300   11.2050   22.4680
C   22.5380   11.3930   22.8610
H   22.7390   11.7980   23.8480
C   21.2670   11.2310   22.2990
H   20.3950   11.6100   22.8240
C   29.8070   21.0370   16.6750
H   29.7320   22.0770   16.3350
H   30.3810   20.5460   15.8790
H   30.3680   20.9570   17.6140
C   28.4450   20.3010   16.9690
C   28.2260   19.5640   18.1860
H   29.0220   19.4550   18.9170
C   26.8940   19.1050   18.4470
H   26.6720   18.4880   19.3130
C   25.8510   19.3550   17.6180
H   24.8790   18.9520   17.8890
C   26.0900   20.0720   16.3750
H   25.2500   20.2200   15.7020
C   27.3720   20.5830   16.0780
H   27.4500   21.3560   15.3190
C   18.5500   10.0140   11.4130
H   18.7830   9.7570   12.4530
H   19.3500   9.5800   10.8000
H   17.6150   9.5640   11.0570
C   18.6360   11.5680   11.2050
C   19.5130   12.2330   10.3370
H   20.2410   11.5850   9.8580
C   19.5720   13.6310   10.2560
H   20.3650   14.1740   9.7510
C   18.5680   14.3480   10.9390
H   18.6520   15.4260   10.8390
C   17.6480   13.7120   11.7250
H   17.1040   14.3100   12.4500
C   17.7060   12.3240   11.9490
H   17.2340   11.8230   12.7890
C   22.1020   25.4310   5.5970
H   21.4160   26.2880   5.5930
H   21.7860   24.8510   4.7220
H   23.1330   25.7650   5.4260
C   21.9980   24.6230   6.8970
C   21.0770   23.5600   6.9970
H   20.5490   23.2000   6.1180
C   20.8770   22.8840   8.2000
H   20.2320   22.0110   8.2230
C   21.4880   23.3510   9.3830
H   21.2750   22.8260   10.3090
C   22.4070   24.4640   9.3180
H   22.8440   24.9190   10.2020
C   22.7460   25.0220   8.0470
H   23.4980   25.8030   7.9750
C   19.3690   18.5071   21.4483
H   20.0831   18.4718   22.2606
H   18.7527   19.4077   21.5296
H   19.9176   18.5994   20.5193
C   18.5405   17.2529   21.4619
C   17.1587   17.2849   21.2496
H   16.6400   18.2208   21.1465
C   16.4011   16.1249   21.1770
H   15.3500   16.1668   20.9234
C   16.9785   14.8959   21.4209
H   16.3981   13.9922   21.4900
C   18.3584   14.8386   21.6028
H   18.8629   13.8977   21.7329
C   19.1354   15.9938   21.6267
H   20.1983   15.9602   21.7458
562
Frame 23
C   16.3458   15.8641   17.1768
C   18.6059   16.6421   16.7502
C   15.7745   17.6923   17.5755
C   19.2781   16.0237   17.9629
C   19.5366   16.8208   15.5926
N   17.5095   15.7768   16.3779
N   15.3298   15.0916   16.6261
O   15.3251   18.0875   16.2858
H   14.3631   17.9122   16.3004
H   17.3240   15.6662   15.3740
H   16.5511   15.5252   18.1930
H   18.1562   17.5841   17.0278
H   14.5162   14.9003   17.1626
H   15.2500   14.9616   15.6263
H   16.5547   18.4106   17.8520
H   14.9888   17.9336   18.3244
H   20.0540   16.6681   18.3733
H   18.9348   16.8794   14.6912
H   19.7001   15.0515   17.7183
H   18.5870   15.8747   18.7905
H   20.1172   17.7280   15.6951
H   20.2052   15.9500   15.5437
C   31.0130   13.4690   20.5000
H   31.2490   12.6100   21.1410
H   31.6000   14.3580   20.7590
H   31.3090   13.1730   19.4860
C   29.5240   13.6930   20.5110
C   28.9490   14.9820   20.4600
H   29.6230   15.8190   20.3030
C   27.5460   15.1780   20.4020
H   27.1240   16.1710   20.2790
C   26.7510   14.0910   20.7820
H   25.6720   14.1250   20.8970
C   27.2930   12.7880   20.7300
H   26.5470   12.0120   20.8740
C   28.6890   12.5880   20.6520
H   29.0430   11.5650   20.7440
C   9.2210   14.9750   13.0480
H   9.9180   14.2170   12.6700
H   8.7250   15.4390   12.1860
H   8.5460   14.3880   13.6810
C   9.9500   16.0790   13.9260
C   11.1730   16.6700   13.5290
H   11.6950   16.2330   12.6830
C   11.7790   17.6500   14.3810
H   12.6890   18.1940   14.1470
C   11.0580   18.1190   15.4870
H   11.4490   19.0070   15.9740
C   9.8790   17.5550   15.8260
H   9.3990   17.9040   16.7360
C   9.3470   16.4720   15.1090
H   8.3400   16.1840   15.3940
C   13.1040   20.9490   22.1230
H   12.1100   21.0700   22.5720
H   13.3280   19.8760   22.1570
H   12.9300   21.4440   21.1600
C   14.1720   21.7290   22.9410
C   13.9780   23.0550   23.3640
H   12.9880   23.4780   23.2220
C   14.9570   23.7090   24.0980
H   14.8720   24.7370   24.4370
C   16.0910   23.0190   24.4910
H   16.8240   23.5570   25.0840
C   16.3390   21.7000   24.0260
H   17.2960   21.2060   24.1580
C   15.3480   21.0720   23.2660
H   15.4870   20.1110   22.7800
C   22.3270   16.0930   8.4030
H   22.3260   16.2600   9.4870
H   21.4310   15.6720   7.9300
H   22.4190   17.0690   7.9110
C   23.4930   15.2320   7.9250
C   24.6760   15.8080   7.3600
H   24.7170   16.8840   7.2220
C   25.8340   15.0550   7.0100
H   26.7290   15.6050   6.7360
C   25.7140   13.6410   7.1510
H   26.5440   12.9840   6.9070
C   24.5170   13.0840   7.6510
H   24.4140   12.0140   7.8020
C   23.4280   13.8620   7.9640
H   22.4620   13.4500   8.2420
C   13.3770   8.3710   11.1840
H   13.9280   8.9300   11.9500
H   12.7730   7.5980   11.6750
H   12.7470   9.0620   10.6100
C   14.2950   7.7300   10.0940
C   14.0090   6.4760   9.6240
H   13.0770   6.0180   9.9390
C   14.8900   5.7890   8.7340
H   14.6040   4.8470   8.2740
C   16.0940   6.4030   8.4280
H   16.8170   5.9830   7.7360
C   16.3240   7.7020   8.8800
H   17.2290   8.1990   8.5440
C   15.3900   8.3770   9.6670
H   15.4990   9.4410   9.8550
C   22.3720   27.5750   12.3440
H   22.6740   28.6260   12.2520
H   21.8660   27.2750   11.4180
H   23.3360   27.0640   12.4640
C   21.5860   27.1640   13.5380
C   20.6270   26.1270   13.4710
H   20.5230   25.5770   12.5400
C   19.8190   25.9080   14.6070
H   19.0410   25.1530   14.6740
C   19.8330   26.8130   15.6810
H   19.1800   26.6280   16.5280
C   20.7150   27.8320   15.6880
H   20.6750   28.5050   16.5390
C   21.6510   27.9300   14.6880
H   22.3640   28.7490   14.7160
C   26.3230   15.1720   24.4190
H   27.1730   15.7810   24.7530
H   26.9100   14.3730   23.9500
H   25.8350   14.6810   25.2700
C   25.2980   15.8310   23.5700
C   25.3310   17.2270   23.3880
H   26.0260   17.7850   24.0090
C   24.4240   17.8360   22.4700
H   24.3120   18.9080   22.3350
C   23.4800   16.9710   21.8510
H   22.7300   17.3880   21.1860
C   23.4350   15.6140   22.0990
H   22.6180   15.0160   21.7070
C   24.3990   15.0550   22.9540
H   24.2710   14.0400   23.3190
C   12.5310   21.3930   17.8850
H   13.2140   21.0900   17.0820
H   11.5950   21.6280   17.3640
H   12.3060   20.6590   18.6680
C   13.0320   22.5830   18.7360
C   12.2150   23.1990   19.6560
H   11.1450   23.0160   19.6540
C   12.8150   24.0790   20.5840
H   12.1470   24.6520   21.2210
C   14.2070   24.1490   20.7110
H   14.6570   24.8010   21.4530
C   15.0790   23.3670   19.9600
H   16.1550   23.3650   20.1040
C   14.4560   22.6230   18.9390
H   15.0290   21.9490   18.3100
C   14.8830   6.8570   21.3950
H   14.5830   5.8040   21.4680
H   14.1110   7.5640   21.0690
H   14.9540   7.1620   22.4460
C   16.2700   6.9730   20.7720
C   17.3370   6.4110   21.5060
H   17.0910   5.8820   22.4210
C   18.6390   6.6200   20.9560
H   19.4860   6.2070   21.4970
C   18.8360   7.1840   19.6870
H   19.8020   7.2850   19.2010
C   17.7740   7.7920   19.0310
H   17.9360   8.3530   18.1150
C   16.4720   7.7040   19.5680
H   15.6290   8.1750   19.0710
C   14.8160   10.5740   15.3720
H   14.3440   11.0040   14.4800
H   15.1400   11.3900   16.0290
H   13.9830   10.0440   15.8500
C   15.8760   9.5730   14.9300
C   15.5810   8.3740   14.2260
H   14.5360   8.2410   13.9630
C   16.5460   7.4790   13.7060
H   16.2100   6.6290   13.1200
C   17.8520   7.6230   14.2370
H   18.6540   6.9360   13.9850
C   18.1870   8.7030   14.9950
H   19.2350   8.8200   15.2580
C   17.2460   9.6850   15.4350
H   17.6780   10.4650   16.0550
C   8.0650   7.4040   17.5740
H   8.1270   8.0850   16.7160
H   7.5600   7.9240   18.3970
H   7.4880   6.4980   17.3480
C   9.4790   7.0660   18.0080
C   10.5440   7.9760   17.7650
H   10.3730   8.9450   17.3060
C   11.8290   7.6370   18.2640
H   12.7100   8.2510   18.1010
C   12.0090   6.4900   19.0190
H   13.0130   6.2290   19.3400
C   10.9610   5.6080   19.2070
H   11.1880   4.6980   19.7550
C   9.6610   5.8390   18.6640
H   8.8970   5.0800   18.8040
C   18.2400   9.3350   23.8980
H   18.4220   9.0030   24.9280
H   18.8890   10.1800   23.6390
H   18.3460   8.4310   23.2860
C   16.8430   9.7990   23.8620
C   16.4750   10.9760   23.2580
H   17.2340   11.5320   22.7170
C   15.1310   11.3650   23.2170
H   14.8330   12.3010   22.7540
C   14.1480   10.5800   23.8790
H   13.1240   10.9410   23.8510
C   14.5070   9.3760   24.4910
H   13.6960   8.7620   24.8720
C   15.8380   9.0020   24.5510
H   16.1540   8.1380   25.1280
C   10.9060   11.5230   15.8000
H   10.2660   12.1380   16.4450
H   11.8110   12.1010   15.5760
H   11.3030   10.7560   16.4760
C   10.1450   10.8230   14.6590
C   8.8800   11.1470   14.2680
H   8.3050   11.8430   14.8720
C   8.2310   10.3560   13.3000
H   7.1860   10.6060   13.1480
C   8.9080   9.2900   12.6040
H   8.3580   8.8160   11.7960
C   10.2410   9.0790   12.9680
H   10.7620   8.2900   12.4330
C   10.8540   9.7140   14.0870
H   11.8650   9.4940   14.4180
C   12.4900   20.4970   8.7300
H   11.7150   20.4740   7.9540
H   12.2270   19.9760   9.6590
H   13.3460   20.0150   8.2410
C   12.8650   21.9680   8.9270
C   12.1420   22.7970   9.8120
H   11.2610   22.4200   10.3220
C   12.3840   24.1720   9.8850
H   11.8920   24.7890   10.6310
C   13.4520   24.6990   9.1480
H   13.6750   25.7620   9.1740
C   14.2260   23.9500   8.2820
H   15.0110   24.4020   7.6830
C   13.8970   22.5400   8.1400
H   14.4070   21.9210   7.4080
C   25.2240   23.2580   12.7270
H   25.5120   24.3000   12.9180
H   24.9920   23.1420   11.6620
H   26.0960   22.6100   12.8790
C   24.1020   22.8110   13.7090
C   24.1040   23.2240   14.9730
H   24.9610   23.8230   15.2650
C   23.1140   22.7650   15.8740
H   23.0750   23.1170   16.9010
C   22.0540   21.9550   15.3630
H   21.3500   21.5740   16.0970
C   21.9790   21.6570   14.0120
H   21.2210   20.9940   13.6040
C   22.9780   22.0850   13.1860
H   22.9530   21.7500   12.1530
C   15.9690   24.2190   11.3740
H   16.8540   24.6850   11.8250
H   15.3350   25.1120   11.4330
H   16.1270   23.9390   10.3250
C   15.4160   23.1270   12.1800
C   15.0320   21.8940   11.5900
H   15.1170   21.7510   10.5170
C   14.4730   20.9160   12.4130
H   14.1800   19.9440   12.0280
C   14.3810   21.0610   13.7930
H   14.0500   20.2450   14.4290
C   14.8220   22.2110   14.4320
H   14.6700   22.2620   15.5060
C   15.2630   23.2580   13.6150
H   15.6250   24.2030   14.0110
C   7.9820   23.6640   20.2210
H   7.6700   24.1780   19.3030
H   8.8810   24.2110   20.5300
H   7.2090   23.8760   20.9700
C   8.2150   22.1450   20.0450
C   8.9820   21.3660   20.9660
H   9.4280   21.8310   21.8400
C   9.3410   20.0110   20.7260
H   9.9200   19.4750   21.4720
C   8.8720   19.3730   19.6080
H   9.2540   18.3910   19.3440
C   8.1140   20.1330   18.6130
H   7.8040   19.7260   17.6550
C   7.8120   21.5360   18.8670
H   7.2650   22.1110   18.1260
C   16.6400   17.6150   24.7630
H   16.2880   18.1500   25.6540
H   16.0580   17.8970   23.8770
H   17.6690   17.9180   24.5330
C   16.4320   16.1690   24.9640
C   17.4700   15.2850   24.7630
H   18.3820   15.6110   24.2700
C   17.2870   13.9420   25.1470
H   18.0430   13.2190   24.8550
C   16.0500   13.5080   25.7080
H   15.9690   12.4530   25.9550
C   15.0160   14.4460   25.9100
H   14.0840   14.0850   26.3350
C   15.2290   15.7710   25.5010
H   14.4230   16.4770   25.6750
C   9.8970   25.7470   14.8340
H   9.2600   26.2100   14.0700
H   10.9030   26.1810   14.8020
H   9.4340   25.9280   15.8120
C   10.1050   24.2760   14.5480
C   9.4830   23.4020   15.4380
H   8.7910   23.7840   16.1820
C   9.7180   22.0020   15.3700
H   9.2880   21.4530   16.2030
C   10.5190   21.4980   14.3610
H   10.5880   20.4200   14.2480
C   11.0160   22.3430   13.3520
H   11.7280   21.9650   12.6240
C   10.8610   23.7380   13.4830
H   11.4610   24.3570   12.8230
C   21.4460   7.1060   12.4470
H   20.6860   6.3340   12.6150
H   22.2500   6.4780   12.0440
H   21.0510   7.7230   11.6300
C   21.6030   8.0210   13.6490
C   21.7540   7.6760   14.9780
H   21.7640   6.6430   15.3150
C   21.9350   8.6230   16.0550
H   22.0640   8.3230   17.0910
C   22.1380   9.9860   15.6920
H   22.3350   10.8010   16.3830
C   22.0340   10.3260   14.3310
H   22.1590   11.3300   13.9360
C   21.6750   9.3700   13.3830
H   21.5590   9.7230   12.3630
C   22.9880   17.6800   12.2810
H   22.9180   16.8740   13.0210
H   23.7730   18.3620   12.6300
H   23.2480   17.2650   11.3000
C   21.6550   18.3490   12.1870
C   20.6220   18.0880   13.0570
H   20.7970   17.3350   13.8210
C   19.4340   18.7990   13.0450
H   18.7570   18.7330   13.8920
C   19.1760   19.7760   12.0220
H   18.2920   20.4060   12.0440
C   20.1570   19.9410   11.0580
H   19.9550   20.5700   10.1960
C   21.4170   19.2580   11.1840
H   22.2080   19.5330   10.4920
C   11.5670   16.9320   9.5720
H   12.2140   17.1360   8.7100
H   11.2820   15.8920   9.3700
H   12.1900   17.0270   10.4710
C   10.3380   17.8120   9.7330
C   9.4070   17.9080   8.6630
H   9.2760   17.1270   7.9200
C   8.4820   18.9870   8.6270
H   7.7350   19.0310   7.8400
C   8.4710   19.9600   9.6310
H   7.7480   20.7700   9.6540
C   9.3540   19.8350   10.7390
H   9.3650   20.4890   11.6050
C   10.1940   18.7130   10.7970
H   10.9300   18.6810   11.5950
C   12.7180   16.6050   23.0210
H   12.8130   16.8270   21.9510
H   13.7280   16.3210   23.3450
H   12.5000   17.5290   23.5710
C   11.8010   15.4010   23.1530
C   10.6200   15.4240   22.3970
H   10.4520   16.2470   21.7090
C   9.7560   14.2780   22.4410
H   8.8510   14.2660   21.8410
C   10.0090   13.2210   23.3230
H   9.3460   12.3640   23.2430
C   11.1890   13.1930   24.0600
H   11.5060   12.4190   24.7520
C   12.1210   14.2630   23.8890
H   13.0670   14.1720   24.4150
C   18.8420   17.6350   27.7520
H   18.1240   17.0240   28.3120
H   18.2540   18.2490   27.0590
H   19.3830   18.2440   28.4880
C   19.7860   16.8740   26.9420
C   20.9230   17.5130   26.3330
H   21.0460   18.5910   26.2770
C   21.9600   16.7460   25.6900
H   22.7590   17.2130   25.1220
C   21.8200   15.3540   25.7340
H   22.5620   14.8350   25.1340
C   20.7780   14.7860   26.4240
H   20.6730   13.7070   26.4980
C   19.7540   15.4920   26.9560
H   18.9700   15.0490   27.5620
C   25.2430   22.7500   18.9430
H   24.6510   23.3730   19.6240
H   24.6070   22.0920   18.3390
H   25.7690   23.4530   18.2840
C   26.2890   22.0890   19.8050
C   27.6530   22.5380   19.7650
H   27.8930   23.3990   19.1490
C   28.6720   21.9360   20.4790
H   29.6960   22.2960   20.4470
C   28.3120   20.9270   21.3620
H   29.1140   20.5670   22.0000
C   26.9480   20.4890   21.5060
H   26.7050   19.7450   22.2580
C   25.9360   21.0700   20.7010
H   24.8820   20.8350   20.8180
C   8.6660   14.0750   6.3660
H   9.5670   14.3180   5.7890
H   8.3130   15.1000   6.5330
H   8.0120   13.6260   5.6080
C   8.9520   13.1750   7.5700
C   9.2520   13.8780   8.7390
H   9.0790   14.9490   8.7860
C   9.7250   13.1670   9.8870
H   10.1540   13.6370   10.7670
C   9.7320   11.7360   9.9480
H   9.9080   11.1180   10.8230
C   9.4160   11.0830   8.7270
H   9.5500   10.0100   8.6190
C   9.0570   11.7790   7.5340
H   8.9280   11.2640   6.5870
C   8.9500   11.1620   20.3870
H   9.6770   10.3770   20.1430
H   8.1570   10.6850   20.9760
H   9.5010   11.9120   20.9680
C   8.2120   11.8340   19.2710
C   8.5700   13.1620   18.8940
H   9.3950   13.6460   19.4100
C   7.8880   13.7660   17.8650
H   8.0520   14.7920   17.5510
C   6.8730   13.0430   17.1600
H   6.3940   13.5060   16.3020
C   6.6020   11.7170   17.5240
H   5.9300   11.0650   16.9750
C   7.2670   11.0920   18.5130
H   6.9380   10.1170   18.8610
C   26.4570   12.4450   13.5550
H   27.1280   12.9590   14.2540
H   26.8800   12.5280   12.5470
H   26.3480   11.3870   13.8240
C   25.0650   13.0040   13.5080
C   24.3200   13.0670   12.3170
H   24.6950   12.4320   11.5200
C   23.1080   13.7070   12.1810
H   22.5800   13.8270   11.2400
C   22.5170   14.2950   13.4070
H   21.5280   14.7440   13.3850
C   23.1780   14.0720   14.6700
H   22.7680   14.3710   15.6300
C   24.4820   13.4620   14.6840
H   25.0670   13.3620   15.5930
C   17.5710   21.2480   6.8890
H   18.6510   21.3700   6.7390
H   17.1030   22.0750   7.4370
H   17.0720   21.3190   5.9150
C   17.2290   19.8820   7.3990
C   18.1980   19.0800   7.9940
H   19.2050   19.4850   8.0050
C   17.9790   17.8310   8.6610
H   18.7330   17.2870   9.2230
C   16.6260   17.3740   8.6220
H   16.3320   16.4460   9.1030
C   15.6520   18.0670   7.8430
H   14.6170   17.7430   7.7980
C   15.9210   19.3400   7.2650
H   15.0810   19.8910   6.8510
C   21.3760   21.0260   23.7240
H   20.4220   20.4870   23.7730
H   21.7020   21.4030   24.7020
H   22.0140   20.1900   23.4130
C   21.3200   22.2390   22.7430
C   21.4220   21.9180   21.3730
H   21.5590   20.8770   21.0950
C   21.1640   22.8820   20.4680
H   21.2420   22.6310   19.4150
C   20.8980   24.2170   20.9180
H   20.7360   25.0150   20.1990
C   20.8810   24.5300   22.2790
H   20.7390   25.5510   22.6190
C   21.0600   23.5250   23.2330
H   21.0710   23.7440   24.2960
C   13.4980   11.9160   9.8290
H   12.9760   11.0440   9.4180
H   12.8920   12.3220   10.6480
H   14.4620   11.6150   10.2580
C   13.7160   13.0320   8.7680
C   15.0200   13.6160   8.6070
H   15.8970   13.3430   9.1870
C   15.2000   14.6260   7.6390
H   16.2250   14.9300   7.4480
C   14.1260   14.9630   6.7830
H   14.1730   15.7170   6.0030
C   12.8520   14.5840   7.1130
H   12.0640   15.0130   6.5020
C   12.6470   13.5090   8.0450
H   11.7110   12.9710   8.1580
C   19.7440   10.5210   20.4450
H   19.1710   11.4550   20.4980
H   19.2620   9.7620   21.0740
H   19.7140   10.3290   19.3650
C   21.1430   10.7570   21.0140
C   22.2290   10.3180   20.2850
H   22.1500   9.9270   19.2750
C   23.5250   10.5680   20.8390
H   24.4000   10.2310   20.2920
C   23.7170   11.1630   22.0780
H   24.7300   11.2050   22.4680
C   22.5380   11.3930   22.8610
H   22.7390   11.7980   23.8480
C   21.2670   11.2310   22.2990
H   20.3950   11.6100   22.8240
C   29.8070   21.0370   16.6750
H   29.7320   22.0770   16.3350
H   30.3810   20.5460   15.8790
H   30.3680   20.9570   17.6140
C   28.4450   20.3010   16.9690
C   28.2260   19.5640   18.1860
H   29.0220   19.4550   18.9170
C   26.8940   19.1050   18.4470
H   26.6720   18.4880   19.3130
C   25.8510   19.3550   17.6180
H   24.8790   18.9520   17.8890
C   26.0900   20.0720   16.3750
H   25.2500   20.2200   15.7020
C   27.3720   20.5830   16.0780
H   27.4500   21.3560   15.3190
C   18.5500   10.0140   11.4130
H   18.7830   9.7570   12.4530
H   19.3500   9.5800   10.8000
H   17.6150   9.5640   11.0570
C   18.6360   11.5680   11.2050
C   19.5130   12.2330   10.3370
H   20.2410   11.5850   9.8580
C   19.5720   13.6310   10.2560
H   20.3650   14.1740   9.7510
C   18.5680   14.3480   10.9390
H   18.6520   15.4260   10.8390
C   17.6480   13.7120   11.7250
H   17.1040   14.3100   12.4500
C   17.7060   12.3240   11.9490
H   17.2340   11.8230   12.7890
C   22.1020   25.4310   5.5970
H   21.4160   26.2880   5.5930
H   21.7860   24.8510   4.7220
H   23.1330   25.7650   5.4260
C   21.9980   24.6230   6.8970
C   21.0770   23.5600   6.9970
H   20.5490   23.2000   6.1180
C   20.8770   22.8840   8.2000
H   20.2320   22.0110   8.2230
C   21.4880   23.3510   9.3830
H   21.2750   22.8260   10.3090
C   22.4070   24.4640   9.3180
H   22.8440   24.9190   10.2020
C   22.7460   25.0220   8.0470
H   23.4980   25.8030   7.9750
C   19.3730   18.5080   21.4501
H   20.0973   18.4676   22.2571
H   18.7499   19.4060   21.5232
H   19.9209   18.6123   20.5262
C   18.5368   17.2577   21.4754
C   17.1478   17.2828   21.2464
H   16.6394   18.2208   21.1274
C   16.3971   16.1227   21.1857
H   15.3372   16.1577   20.9355
C   16.9795   14.8950   21.4151
H   16.4013   13.9955   21.4818
C   18.3650   14.8464   21.6049
H   18.8595   13.9027   21.7387
C   19.1349   16.0003   21.6340
H   20.1981   15.9479   21.7446
562
Frame 24
C   16.2940   16.0641   17.2555
C   18.6305   16.6533   16.7419
C   15.7662   17.5671   17.5019
C   19.2918   16.0192   17.9509
C   19.5623   16.7975   15.5924
N   17.4762   15.8543   16.4239
N   15.3064   15.1778   16.6842
O   15.3097   18.1105   16.2972
H   14.3110   17.9624   16.2758
H   17.2509   15.6200   15.4206
H   16.5411   15.5096   18.2333
H   18.2862   17.6365   17.0129
H   14.4584   14.9090   17.1489
H   15.2470   14.9556   15.6831
H   16.5178   18.2980   17.8463
H   15.0375   17.7553   18.2941
H   20.0565   16.6594   18.3829
H   18.9196   16.8717   14.7179
H   19.7218   15.0463   17.7380
H   18.5964   15.8766   18.7796
H   20.1156   17.7254   15.7152
H   20.2219   15.9261   15.5635
C   31.0130   13.4690   20.5000
H   31.2490   12.6100   21.1410
H   31.6000   14.3580   20.7590
H   31.3090   13.1730   19.4860
C   29.5240   13.6930   20.5110
C   28.9490   14.9820   20.4600
H   29.6230   15.8190   20.3030
C   27.5460   15.1780   20.4020
H   27.1240   16.1710   20.2790
C   26.7510   14.0910   20.7820
H   25.6720   14.1250   20.8970
C   27.2930   12.7880   20.7300
H   26.5470   12.0120   20.8740
C   28.6890   12.5880   20.6520
H   29.0430   11.5650   20.7440
C   9.2210   14.9750   13.0480
H   9.9180   14.2170   12.6700
H   8.7250   15.4390   12.1860
H   8.5460   14.3880   13.6810
C   9.9500   16.0790   13.9260
C   11.1730   16.6700   13.5290
H   11.6950   16.2330   12.6830
C   11.7790   17.6500   14.3810
H   12.6890   18.1940   14.1470
C   11.0580   18.1190   15.4870
H   11.4490   19.0070   15.9740
C   9.8790   17.5550   15.8260
H   9.3990   17.9040   16.7360
C   9.3470   16.4720   15.1090
H   8.3400   16.1840   15.3940
C   13.1040   20.9490   22.1230
H   12.1100   21.0700   22.5720
H   13.3280   19.8760   22.1570
H   12.9300   21.4440   21.1600
C   14.1720   21.7290   22.9410
C   13.9780   23.0550   23.3640
H   12.9880   23.4780   23.2220
C   14.9570   23.7090   24.0980
H   14.8720   24.7370   24.4370
C   16.0910   23.0190   24.4910
H   16.8240   23.5570   25.0840
C   16.3390   21.7000   24.0260
H   17.2960   21.2060   24.1580
C   15.3480   21.0720   23.2660
H   15.4870   20.1110   22.7800
C   22.3270   16.0930   8.4030
H   22.3260   16.2600   9.4870
H   21.4310   15.6720   7.9300
H   22.4190   17.0690   7.9110
C   23.4930   15.2320   7.9250
C   24.6760   15.8080   7.3600
H   24.7170   16.8840   7.2220
C   25.8340   15.0550   7.0100
H   26.7290   15.6050   6.7360
C   25.7140   13.6410   7.1510
H   26.5440   12.9840   6.9070
C   24.5170   13.0840   7.6510
H   24.4140   12.0140   7.8020
C   23.4280   13.8620   7.9640
H   22.4620   13.4500   8.2420
C   13.3770   8.3710   11.1840
H   13.9280   8.9300   11.9500
H   12.7730   7.5980   11.6750
H   12.7470   9.0620   10.6100
C   14.2950   7.7300   10.0940
C   14.0090   6.4760   9.6240
H   13.0770   6.0180   9.9390
C   14.8900   5.7890   8.7340
H   14.6040   4.8470   8.2740
C   16.0940   6.4030   8.4280
H   16.8170   5.9830   7.7360
C   16.3240   7.7020   8.8800
H   17.2290   8.1990   8.5440
C   15.3900   8.3770   9.6670
H   15.4990   9.4410   9.8550
C   22.3720   27.5750   12.3440
H   22.6740   28.6260   12.2520
H   21.8660   27.2750   11.4180
H   23.3360   27.0640   12.4640
C   21.5860   27.1640   13.5380
C   20.6270   26.1270   13.4710
H   20.5230   25.5770   12.5400
C   19.8190   25.9080   14.6070
H   19.0410   25.1530   14.6740
C   19.8330   26.8130   15.6810
H   19.1800   26.6280   16.5280
C   20.7150   27.8320   15.6880
H   20.6750   28.5050   16.5390
C   21.6510   27.9300   14.6880
H   22.3640   28.7490   14.7160
C   26.3230   15.1720   24.4190
H   27.1730   15.7810   24.7530
H   26.9100   14.3730   23.9500
H   25.8350   14.6810   25.2700
C   25.2980   15.8310   23.5700
C   25.3310   17.2270   23.3880
H   26.0260   17.7850   24.0090
C   24.4240   17.8360   22.4700
H   24.3120   18.9080   22.3350
C   23.4800   16.9710   21.8510
H   22.7300   17.3880   21.1860
C   23.4350   15.6140   22.0990
H   22.6180   15.0160   21.7070
C   24.3990   15.0550   22.9540
H   24.2710   14.0400   23.3190
C   12.5310   21.3930   17.8850
H   13.2140   21.0900   17.0820
H   11.5950   21.6280   17.3640
H   12.3060   20.6590   18.6680
C   13.0320   22.5830   18.7360
C   12.2150   23.1990   19.6560
H   11.1450   23.0160   19.6540
C   12.8150   24.0790   20.5840
H   12.1470   24.6520   21.2210
C   14.2070   24.1490   20.7110
H   14.6570   24.8010   21.4530
C   15.0790   23.3670   19.9600
H   16.1550   23.3650   20.1040
C   14.4560   22.6230   18.9390
H   15.0290   21.9490   18.3100
C   14.8830   6.8570   21.3950
H   14.5830   5.8040   21.4680
H   14.1110   7.5640   21.0690
H   14.9540   7.1620   22.4460
C   16.2700   6.9730   20.7720
C   17.3370   6.4110   21.5060
H   17.0910   5.8820   22.4210
C   18.6390   6.6200   20.9560
H   19.4860   6.2070   21.4970
C   18.8360   7.1840   19.6870
H   19.8020   7.2850   19.2010
C   17.7740   7.7920   19.0310
H   17.9360   8.3530   18.1150
C   16.4720   7.7040   19.5680
H   15.6290   8.1750   19.0710
C   14.8160   10.5740   15.3720
H   14.3440   11.0040   14.4800
H   15.1400   11.3900   16.0290
H   13.9830   10.0440   15.8500
C   15.8760   9.5730   14.9300
C   15.5810   8.3740   14.2260
H   14.5360   8.2410   13.9630
C   16.5460   7.4790   13.7060
H   16.2100   6.6290   13.1200
C   17.8520   7.6230   14.2370
H   18.6540   6.9360   13.9850
C   18.1870   8.7030   14.9950
H   19.2350   8.8200   15.2580
C   17.2460   9.6850   15.4350
H   17.6780   10.4650   16.0550
C   8.0650   7.4040   17.5740
H   8.1270   8.0850   16.7160
H   7.5600   7.9240   18.3970
H   7.4880   6.4980   17.3480
C   9.4790   7.0660   18.0080
C   10.5440   7.9760   17.7650
H   10.3730   8.9450   17.3060
C   11.8290   7.6370   18.2640
H   12.7100   8.2510   18.1010
C   12.0090   6.4900   19.0190
H   13.0130   6.2290   19.3400
C   10.9610   5.6080   19.2070
H   11.1880   4.6980   19.7550
C   9.6610   5.8390   18.6640
H   8.8970   5.0800   18.8040
C   18.2400   9.3350   23.8980
H   18.4220   9.0030   24.9280
H   18.8890   10.1800   23.6390
H   18.3460   8.4310   23.2860
C   16.8430   9.7990   23.8620
C   16.4750   10.9760   23.2580
H   17.2340   11.5320   22.7170
C   15.1310   11.3650   23.2170
H   14.8330   12.3010   22.7540
C   14.1480   10.5800   23.8790
H   13.1240   10.9410   23.8510
C   14.5070   9.3760   24.4910
H   13.6960   8.7620   24.8720
C   15.8380   9.0020   24.5510
H   16.1540   8.1380   25.1280
C   10.9060   11.5230   15.8000
H   10.2660   12.1380   16.4450
H   11.8110   12.1010   15.5760
H   11.3030   10.7560   16.4760
C   10.1450   10.8230   14.6590
C   8.8800   11.1470   14.2680
H   8.3050   11.8430   14.8720
C   8.2310   10.3560   13.3000
H   7.1860   10.6060   13.1480
C   8.9080   9.2900   12.6040
H   8.3580   8.8160   11.7960
C   10.2410   9.0790   12.9680
H   10.7620   8.2900   12.4330
C   10.8540   9.7140   14.0870
H   11.8650   9.4940   14.4180
C   12.4900   20.4970   8.7300
H   11.7150   20.4740   7.9540
H   12.2270   19.9760   9.6590
H   13.3460   20.0150   8.2410
C   12.8650   21.9680   8.9270
C   12.1420   22.7970   9.8120
H   11.2610   22.4200   10.3220
C   12.3840   24.1720   9.8850
H   11.8920   24.7890   10.6310
C   13.4520   24.6990   9.1480
H   13.6750   25.7620   9.1740
C   14.2260   23.9500   8.2820
H   15.0110   24.4020   7.6830
C   13.8970   22.5400   8.1400
H   14.4070   21.9210   7.4080
C   25.2240   23.2580   12.7270
H   25.5120   24.3000   12.9180
H   24.9920   23.1420   11.6620
H   26.0960   22.6100   12.8790
C   24.1020   22.8110   13.7090
C   24.1040   23.2240   14.9730
H   24.9610   23.8230   15.2650
C   23.1140   22.7650   15.8740
H   23.0750   23.1170   16.9010
C   22.0540   21.9550   15.3630
H   21.3500   21.5740   16.0970
C   21.9790   21.6570   14.0120
H   21.2210   20.9940   13.6040
C   22.9780   22.0850   13.1860
H   22.9530   21.7500   12.1530
C   15.9690   24.2190   11.3740
H   16.8540   24.6850   11.8250
H   15.3350   25.1120   11.4330
H   16.1270   23.9390   10.3250
C   15.4160   23.1270   12.1800
C   15.0320   21.8940   11.5900
H   15.1170   21.7510   10.5170
C   14.4730   20.9160   12.4130
H   14.1800   19.9440   12.0280
C   14.3810   21.0610   13.7930
H   14.0500   20.2450   14.4290
C   14.8220   22.2110   14.4320
H   14.6700   22.2620   15.5060
C   15.2630   23.2580   13.6150
H   15.6250   24.2030   14.0110
C   7.9820   23.6640   20.2210
H   7.6700   24.1780   19.3030
H   8.8810   24.2110   20.5300
H   7.2090   23.8760   20.9700
C   8.2150   22.1450   20.0450
C   8.9820   21.3660   20.9660
H   9.4280   21.8310   21.8400
C   9.3410   20.0110   20.7260
H   9.9200   19.4750   21.4720
C   8.8720   19.3730   19.6080
H   9.2540   18.3910   19.3440
C   8.1140   20.1330   18.6130
H   7.8040   19.7260   17.6550
C   7.8120   21.5360   18.8670
H   7.2650   22.1110   18.1260
C   16.6400   17.6150   24.7630
H   16.2880   18.1500   25.6540
H   16.0580   17.8970   23.8770
H   17.6690   17.9180   24.5330
C   16.4320   16.1690   24.9640
C   17.4700   15.2850   24.7630
H   18.3820   15.6110   24.2700
C   17.2870   13.9420   25.1470
H   18.0430   13.2190   24.8550
C   16.0500   13.5080   25.7080
H   15.9690   12.4530   25.9550
C   15.0160   14.4460   25.9100
H   14.0840   14.0850   26.3350
C   15.2290   15.7710   25.5010
H   14.4230   16.4770   25.6750
C   9.8970   25.7470   14.8340
H   9.2600   26.2100   14.0700
H   10.9030   26.1810   14.8020
H   9.4340   25.9280   15.8120
C   10.1050   24.2760   14.5480
C   9.4830   23.4020   15.4380
H   8.7910   23.7840   16.1820
C   9.7180   22.0020   15.3700
H   9.2880   21.4530   16.2030
C   10.5190   21.4980   14.3610
H   10.5880   20.4200   14.2480
C   11.0160   22.3430   13.3520
H   11.7280   21.9650   12.6240
C   10.8610   23.7380   13.4830
H   11.4610   24.3570   12.8230
C   21.4460   7.1060   12.4470
H   20.6860   6.3340   12.6150
H   22.2500   6.4780   12.0440
H   21.0510   7.7230   11.6300
C   21.6030   8.0210   13.6490
C   21.7540   7.6760   14.9780
H   21.7640   6.6430   15.3150
C   21.9350   8.6230   16.0550
H   22.0640   8.3230   17.0910
C   22.1380   9.9860   15.6920
H   22.3350   10.8010   16.3830
C   22.0340   10.3260   14.3310
H   22.1590   11.3300   13.9360
C   21.6750   9.3700   13.3830
H   21.5590   9.7230   12.3630
C   22.9880   17.6800   12.2810
H   22.9180   16.8740   13.0210
H   23.7730   18.3620   12.6300
H   23.2480   17.2650   11.3000
C   21.6550   18.3490   12.1870
C   20.6220   18.0880   13.0570
H   20.7970   17.3350   13.8210
C   19.4340   18.7990   13.0450
H   18.7570   18.7330   13.8920
C   19.1760   19.7760   12.0220
H   18.2920   20.4060   12.0440
C   20.1570   19.9410   11.0580
H   19.9550   20.5700   10.1960
C   21.4170   19.2580   11.1840
H   22.2080   19.5330   10.4920
C   11.5670   16.9320   9.5720
H   12.2140   17.1360   8.7100
H   11.2820   15.8920   9.3700
H   12.1900   17.0270   10.4710
C   10.3380   17.8120   9.7330
C   9.4070   17.9080   8.6630
H   9.2760   17.1270   7.9200
C   8.4820   18.9870   8.6270
H   7.7350   19.0310   7.8400
C   8.4710   19.9600   9.6310
H   7.7480   20.7700   9.6540
C   9.3540   19.8350   10.7390
H   9.3650   20.4890   11.6050
C   10.1940   18.7130   10.7970
H   10.9300   18.6810   11.5950
C   12.7180   16.6050   23.0210
H   12.8130   16.8270   21.9510
H   13.7280   16.3210   23.3450
H   12.5000   17.5290   23.5710
C   11.8010   15.4010   23.1530
C   10.6200   15.4240   22.3970
H   10.4520   16.2470   21.7090
C   9.7560   14.2780   22.4410
H   8.8510   14.2660   21.8410
C   10.0090   13.2210   23.3230
H   9.3460   12.3640   23.2430
C   11.1890   13.1930   24.0600
H   11.5060   12.4190   24.7520
C   12.1210   14.2630   23.8890
H   13.0670   14.1720   24.4150
C   18.8420   17.6350   27.7520
H   18.1240   17.0240   28.3120
H   18.2540   18.2490   27.0590
H   19.3830   18.2440   28.4880
C   19.7860   16.8740   26.9420
C   20.9230   17.5130   26.3330
H   21.0460   18.5910   26.2770
C   21.9600   16.7460   25.6900
H   22.7590   17.2130   25.1220
C   21.8200   15.3540   25.7340
H   22.5620   14.8350   25.1340
C   20.7780   14.7860   26.4240
H   20.6730   13.7070   26.4980
C   19.7540   15.4920   26.9560
H   18.9700   15.0490   27.5620
C   25.2430   22.7500   18.9430
H   24.6510   23.3730   19.6240
H   24.6070   22.0920   18.3390
H   25.7690   23.4530   18.2840
C   26.2890   22.0890   19.8050
C   27.6530   22.5380   19.7650
H   27.8930   23.3990   19.1490
C   28.6720   21.9360   20.4790
H   29.6960   22.2960   20.4470
C   28.3120   20.9270   21.3620
H   29.1140   20.5670   22.0000
C   26.9480   20.4890   21.5060
H   26.7050   19.7450   22.2580
C   25.9360   21.0700   20.7010
H   24.8820   20.8350   20.8180
C   8.6660   14.0750   6.3660
H   9.5670   14.3180   5.7890
H   8.3130   15.1000   6.5330
H   8.0120   13.6260   5.6080
C   8.9520   13.1750   7.5700
C   9.2520   13.8780   8.7390
H   9.0790   14.9490   8.7860
C   9.7250   13.1670   9.8870
H   10.1540   13.6370   10.7670
C   9.7320   11.7360   9.9480
H   9.9080   11.1180   10.8230
C   9.4160   11.0830   8.7270
H   9.5500   10.0100   8.6190
C   9.0570   11.7790   7.5340
H   8.9280   11.2640   6.5870
C   8.9500   11.1620   20.3870
H   9.6770   10.3770   20.1430
H   8.1570   10.6850   20.9760
H   9.5010   11.9120   20.9680
C   8.2120   11.8340   19.2710
C   8.5700   13.1620   18.8940
H   9.3950   13.6460   19.4100
C   7.8880   13.7660   17.8650
H   8.0520   14.7920   17.5510
C   6.8730   13.0430   17.1600
H   6.3940   13.5060   16.3020
C   6.6020   11.7170   17.5240
H   5.9300   11.0650   16.9750
C   7.2670   11.0920   18.5130
H   6.9380   10.1170   18.8610
C   26.4570   12.4450   13.5550
H   27.1280   12.9590   14.2540
H   26.8800   12.5280   12.5470
H   26.3480   11.3870   13.8240
C   25.0650   13.0040   13.5080
C   24.3200   13.0670   12.3170
H   24.6950   12.4320   11.5200
C   23.1080   13.7070   12.1810
H   22.5800   13.8270   11.2400
C   22.5170   14.2950   13.4070
H   21.5280   14.7440   13.3850
C   23.1780   14.0720   14.6700
H   22.7680   14.3710   15.6300
C   24.4820   13.4620   14.6840
H   25.0670   13.3620   15.5930
C   17.5710   21.2480   6.8890
H   18.6510   21.3700   6.7390
H   17.1030   22.0750   7.4370
H   17.0720   21.3190   5.9150
C   17.2290   19.8820   7.3990
C   18.1980   19.0800   7.9940
H   19.2050   19.4850   8.0050
C   17.9790   17.8310   8.6610
H   18.7330   17.2870   9.2230
C   16.6260   17.3740   8.6220
H   16.3320   16.4460   9.1030
C   15.6520   18.0670   7.8430
H   14.6170   17.7430   7.7980
C   15.9210   19.3400   7.2650
H   15.0810   19.8910   6.8510
C   21.3760   21.0260   23.7240
H   20.4220   20.4870   23.7730
H   21.7020   21.4030   24.7020
H   22.0140   20.1900   23.4130
C   21.3200   22.2390   22.7430
C   21.4220   21.9180   21.3730
H   21.5590   20.8770   21.0950
C   21.1640   22.8820   20.4680
H   21.2420   22.6310   19.4150
C   20.8980   24.2170   20.9180
H   20.7360   25.0150   20.1990
C   20.8810   24.5300   22.2790
H   20.7390   25.5510   22.6190
C   21.0600   23.5250   23.2330
H   21.0710   23.7440   24.2960
C   13.4980   11.9160   9.8290
H   12.9760   11.0440   9.4180
H   12.8920   12.3220   10.6480
H   14.4620   11.6150   10.2580
C   13.7160   13.0320   8.7680
C   15.0200   13.6160   8.6070
H   15.8970   13.3430   9.1870
C   15.2000   14.6260   7.6390
H   16.2250   14.9300   7.4480
C   14.1260   14.9630   6.7830
H   14.1730   15.7170   6.0030
C   12.8520   14.5840   7.1130
H   12.0640   15.0130   6.5020
C   12.6470   13.5090   8.0450
H   11.7110   12.9710   8.1580
C   19.7440   10.5210   20.4450
H   19.1710   11.4550   20.4980
H   19.2620   9.7620   21.0740
H   19.7140   10.3290   19.3650
C   21.1430   10.7570   21.0140
C   22.2290   10.3180   20.2850
H   22.1500   9.9270   19.2750
C   23.5250   10.5680   20.8390
H   24.4000   10.2310   20.2920
C   23.7170   11.1630   22.0780
H   24.7300   11.2050   22.4680
C   22.5380   11.3930   22.8610
H   22.7390   11.7980   23.8480
C   21.2670   11.2310   22.2990
H   20.3950   11.6100   22.8240
C   29.8070   21.0370   16.6750
H   29.7320   22.0770   16.3350
H   30.3810   20.5460   15.8790
H   30.3680   20.9570   17.6140
C   28.4450   20.3010   16.9690
C   28.2260   19.5640   18.1860
H   29.0220   19.4550   18.9170
C   26.8940   19.1050   18.4470
H   26.6720   18.4880   19.3130
C   25.8510   19.3550   17.6180
H   24.8790   18.9520   17.8890
C   26.0900   20.0720   16.3750
H   25.2500   20.2200   15.7020
C   27.3720   20.5830   16.0780
H   27.4500   21.3560   15.3190
C   18.5500   10.0140   11.4130
H   18.7830   9.7570   12.4530
H   19.3500   9.5800   10.8000
H   17.6150   9.5640   11.0570
C   18.6360   11.5680   11.2050
C   19.5130   12.2330   10.3370
H   20.2410   11.5850   9.8580
C   19.5720   13.6310   10.2560
H   20.3650   14.1740   9.7510
C   18.5680   14.3480   10.9390
H   18.6520   15.4260   10.8390
C   17.6480   13.7120   11.7250
H   17.1040   14.3100   12.4500
C   17.7060   12.3240   11.9490
H   17.2340   11.8230   12.7890
C   22.1020   25.4310   5.5970
H   21.4160   26.2880   5.5930
H   21.7860   24.8510   4.7220
H   23.1330   25.7650   5.4260
C   21.9980   24.6230   6.8970
C   21.0770   23.5600   6.9970
H   20.5490   23.2000   6.1180
C   20.8770   22.8840   8.2000
H   20.2320   22.0110   8.2230
C   21.4880   23.3510   9.3830
H   21.2750   22.8260   10.3090
C   22.4070   24.4640   9.3180
H   22.8440   24.9190   10.2020
C   22.7460   25.0220   8.0470
H   23.4980   25.8030   7.9750
C   19.3810   18.5149   21.4621
H   20.1369   18.4532   22.2487
H   18.7384   19.4022   21.5097
H   19.9242   18.6547   20.5449
C   18.5325   17.2698   21.5152
C   17.1277   17.2759   21.2453
H   16.6350   18.2144   21.0690
C   16.3789   16.1173   21.2096
H   15.3080   16.1245   20.9656
C   16.9797   14.8965   21.4078
H   16.4058   14.0036   21.4686
C   18.3735   14.8679   21.6163
H   18.8479   13.9188   21.7612
C   19.1319   16.0143   21.6593
H   20.1997   15.9170   21.7334
562
Frame 25
C   16.2959   15.9884   17.2441
C   18.6198   16.6444   16.7681
C   15.7730   17.5789   17.5107
C   19.2956   16.0248   17.9748
C   19.5555   16.7908   15.5993
N   17.4392   15.8462   16.4298
N   15.2931   15.1658   16.6765
O   15.2941   18.1240   16.2726
H   14.3228   17.9433   16.2718
H   17.2648   15.6571   15.4309
H   16.5476   15.5444   18.2297
H   18.2817   17.6413   17.0184
H   14.4613   14.9135   17.1535
H   15.2483   14.9823   15.6827
H   16.5453   18.2892   17.8414
H   15.0558   17.7274   18.2788
H   20.0659   16.6706   18.3709
H   18.9307   16.8736   14.7052
H   19.7149   15.0507   17.7315
H   18.5815   15.8748   18.7747
H   20.1215   17.7211   15.7127
H   20.2207   15.9417   15.5462
C   31.0130   13.4690   20.5000
H   31.2490   12.6100   21.1410
H   31.6000   14.3580   20.7590
H   31.3090   13.1730   19.4860
C   29.5240   13.6930   20.5110
C   28.9490   14.9820   20.4600
H   29.6230   15.8190   20.3030
C   27.5460   15.1780   20.4020
H   27.1240   16.1710   20.2790
C   26.7510   14.0910   20.7820
H   25.6720   14.1250   20.8970
C   27.2930   12.7880   20.7300
H   26.5470   12.0120   20.8740
C   28.6890   12.5880   20.6520
H   29.0430   11.5650   20.7440
C   9.2210   14.9750   13.0480
H   9.9180   14.2170   12.6700
H   8.7250   15.4390   12.1860
H   8.5460   14.3880   13.6810
C   9.9500   16.0790   13.9260
C   11.1730   16.6700   13.5290
H   11.6950   16.2330   12.6830
C   11.7790   17.6500   14.3810
H   12.6890   18.1940   14.1470
C   11.0580   18.1190   15.4870
H   11.4490   19.0070   15.9740
C   9.8790   17.5550   15.8260
H   9.3990   17.9040   16.7360
C   9.3470   16.4720   15.1090
H   8.3400   16.1840   15.3940
C   13.1040   20.9490   22.1230
H   12.1100   21.0700   22.5720
H   13.3280   19.8760   22.1570
H   12.9300   21.4440   21.1600
C   14.1720   21.7290   22.9410
C   13.9780   23.0550   23.3640
H   12.9880   23.4780   23.2220
C   14.9570   23.7090   24.0980
H   14.8720   24.7370   24.4370
C   16.0910   23.0190   24.4910
H   16.8240   23.5570   25.0840
C   16.3390   21.7000   24.0260
H   17.2960   21.2060   24.1580
C   15.3480   21.0720   23.2660
H   15.4870   20.1110   22.7800
C   22.3270   16.0930   8.4030
H   22.3260   16.2600   9.4870
H   21.4310   15.6720   7.9300
H   22.4190   17.0690   7.9110
C   23.4930   15.2320   7.9250
C   24.6760   15.8080   7.3600
H   24.7170   16.8840   7.2220
C   25.8340   15.0550   7.0100
H   26.7290   15.6050   6.7360
C   25.7140   13.6410   7.1510
H   26.5440   12.9840   6.9070
C   24.5170   13.0840   7.6510
H   24.4140   12.0140   7.8020
C   23.4280   13.8620   7.9640
H   22.4620   13.4500   8.2420
C   13.3770   8.3710   11.1840
H   13.9280   8.9300   11.9500
H   12.7730   7.5980   11.6750
H   12.7470   9.0620   10.6100
C   14.2950   7.7300   10.0940
C   14.0090   6.4760   9.6240
H   13.0770   6.0180   9.9390
C   14.8900   5.7890   8.7340
H   14.6040   4.8470   8.2740
C   16.0940   6.4030   8.4280
H   16.8170   5.9830   7.7360
C   16.3240   7.7020   8.8800
H   17.2290   8.1990   8.5440
C   15.3900   8.3770   9.6670
H   15.4990   9.4410   9.8550
C   22.3720   27.5750   12.3440
H   22.6740   28.6260   12.2520
H   21.8660   27.2750   11.4180
H   23.3360   27.0640   12.4640
C   21.5860   27.1640   13.5380
C   20.6270   26.1270   13.4710
H   20.5230   25.5770   12.5400
C   19.8190   25.9080   14.6070
H   19.0410   25.1530   14.6740
C   19.8330   26.8130   15.6810
H   19.1800   26.6280   16.5280
C   20.7150   27.8320   15.6880
H   20.6750   28.5050   16.5390
C   21.6510   27.9300   14.6880
H   22.3640   28.7490   14.7160
C   26.3230   15.1720   24.4190
H   27.1730   15.7810   24.7530
H   26.9100   14.3730   23.9500
H   25.8350   14.6810   25.2700
C   25.2980   15.8310   23.5700
C   25.3310   17.2270   23.3880
H   26.0260   17.7850   24.0090
C   24.4240   17.8360   22.4700
H   24.3120   18.9080   22.3350
C   23.4800   16.9710   21.8510
H   22.7300   17.3880   21.1860
C   23.4350   15.6140   22.0990
H   22.6180   15.0160   21.7070
C   24.3990   15.0550   22.9540
H   24.2710   14.0400   23.3190
C   12.5310   21.3930   17.8850
H   13.2140   21.0900   17.0820
H   11.5950   21.6280   17.3640
H   12.3060   20.6590   18.6680
C   13.0320   22.5830   18.7360
C   12.2150   23.1990   19.6560
H   11.1450   23.0160   19.6540
C   12.8150   24.0790   20.5840
H   12.1470   24.6520   21.2210
C   14.2070   24.1490   20.7110
H   14.6570   24.8010   21.4530
C   15.0790   23.3670   19.9600
H   16.1550   23.3650   20.1040
C   14.4560   22.6230   18.9390
H   15.0290   21.9490   18.3100
C   14.8830   6.8570   21.3950
H   14.5830   5.8040   21.4680
H   14.1110   7.5640   21.0690
H   14.9540   7.1620   22.4460
C   16.2700   6.9730   20.7720
C   17.3370   6.4110   21.5060
H   17.0910   5.8820   22.4210
C   18.6390   6.6200   20.9560
H   19.4860   6.2070   21.4970
C   18.8360   7.1840   19.6870
H   19.8020   7.2850   19.2010
C   17.7740   7.7920   19.0310
H   17.9360   8.3530   18.1150
C   16.4720   7.7040   19.5680
H   15.6290   8.1750   19.0710
C   14.8160   10.5740   15.3720
H   14.3440   11.0040   14.4800
H   15.1400   11.3900   16.0290
H   13.9830   10.0440   15.8500
C   15.8760   9.5730   14.9300
C   15.5810   8.3740   14.2260
H   14.5360   8.2410   13.9630
C   16.5460   7.4790   13.7060
H   16.2100   6.6290   13.1200
C   17.8520   7.6230   14.2370
H   18.6540   6.9360   13.9850
C   18.1870   8.7030   14.9950
H   19.2350   8.8200   15.2580
C   17.2460   9.6850   15.4350
H   17.6780   10.4650   16.0550
C   8.0650   7.4040   17.5740
H   8.1270   8.0850   16.7160
H   7.5600   7.9240   18.3970
H   7.4880   6.4980   17.3480
C   9.4790   7.0660   18.0080
C   10.5440   7.9760   17.7650
H   10.3730   8.9450   17.3060
C   11.8290   7.6370   18.2640
H   12.7100   8.2510   18.1010
C   12.0090   6.4900   19.0190
H   13.0130   6.2290   19.3400
C   10.9610   5.6080   19.2070
H   11.1880   4.6980   19.7550
C   9.6610   5.8390   18.6640
H   8.8970   5.0800   18.8040
C   18.2400   9.3350   23.8980
H   18.4220   9.0030   24.9280
H   18.8890   10.1800   23.6390
H   18.3460   8.4310   23.2860
C   16.8430   9.7990   23.8620
C   16.4750   10.9760   23.2580
H   17.2340   11.5320   22.7170
C   15.1310   11.3650   23.2170
H   14.8330   12.3010   22.7540
C   14.1480   10.5800   23.8790
H   13.1240   10.9410   23.8510
C   14.5070   9.3760   24.4910
H   13.6960   8.7620   24.8720
C   15.8380   9.0020   24.5510
H   16.1540   8.1380   25.1280
C   10.9060   11.5230   15.8000
H   10.2660   12.1380   16.4450
H   11.8110   12.1010   15.5760
H   11.3030   10.7560   16.4760
C   10.1450   10.8230   14.6590
C   8.8800   11.1470   14.2680
H   8.3050   11.8430   14.8720
C   8.2310   10.3560   13.3000
H   7.1860   10.6060   13.1480
C   8.9080   9.2900   12.6040
H   8.3580   8.8160   11.7960
C   10.2410   9.0790   12.9680
H   10.7620   8.2900   12.4330
C   10.8540   9.7140   14.0870
H   11.8650   9.4940   14.4180
C   12.4900   20.4970   8.7300
H   11.7150   20.4740   7.9540
H   12.2270   19.9760   9.6590
H   13.3460   20.0150   8.2410
C   12.8650   21.9680   8.9270
C   12.1420   22.7970   9.8120
H   11.2610   22.4200   10.3220
C   12.3840   24.1720   9.8850
H   11.8920   24.7890   10.6310
C   13.4520   24.6990   9.1480
H   13.6750   25.7620   9.1740
C   14.2260   23.9500   8.2820
H   15.0110   24.4020   7.6830
C   13.8970   22.5400   8.1400
H   14.4070   21.9210   7.4080
C   25.2240   23.2580   12.7270
H   25.5120   24.3000   12.9180
H   24.9920   23.1420   11.6620
H   26.0960   22.6100   12.8790
C   24.1020   22.8110   13.7090
C   24.1040   23.2240   14.9730
H   24.9610   23.8230   15.2650
C   23.1140   22.7650   15.8740
H   23.0750   23.1170   16.9010
C   22.0540   21.9550   15.3630
H   21.3500   21.5740   16.0970
C   21.9790   21.6570   14.0120
H   21.2210   20.9940   13.6040
C   22.9780   22.0850   13.1860
H   22.9530   21.7500   12.1530
C   15.9690   24.2190   11.3740
H   16.8540   24.6850   11.8250
H   15.3350   25.1120   11.4330
H   16.1270   23.9390   10.3250
C   15.4160   23.1270   12.1800
C   15.0320   21.8940   11.5900
H   15.1170   21.7510   10.5170
C   14.4730   20.9160   12.4130
H   14.1800   19.9440   12.0280
C   14.3810   21.0610   13.7930
H   14.0500   20.2450   14.4290
C   14.8220   22.2110   14.4320
H   14.6700   22.2620   15.5060
C   15.2630   23.2580   13.6150
H   15.6250   24.2030   14.0110
C   7.9820   23.6640   20.2210
H   7.6700   24.1780   19.3030
H   8.8810   24.2110   20.5300
H   7.2090   23.8760   20.9700
C   8.2150   22.1450   20.0450
C   8.9820   21.3660   20.9660
H   9.4280   21.8310   21.8400
C   9.3410   20.0110   20.7260
H   9.9200   19.4750   21.4720
C   8.8720   19.3730   19.6080
H   9.2540   18.3910   19.3440
C   8.1140   20.1330   18.6130
H   7.8040   19.7260   17.6550
C   7.8120   21.5360   18.8670
H   7.2650   22.1110   18.1260
C   16.6400   17.6150   24.7630
H   16.2880   18.1500   25.6540
H   16.0580   17.8970   23.8770
H   17.6690   17.9180   24.5330
C   16.4320   16.1690   24.9640
C   17.4700   15.2850   24.7630
H   18.3820   15.6110   24.2700
C   17.2870   13.9420   25.1470
H   18.0430   13.2190   24.8550
C   16.0500   13.5080   25.7080
H   15.9690   12.4530   25.9550
C   15.0160   14.4460   25.9100
H   14.0840   14.0850   26.3350
C   15.2290   15.7710   25.5010
H   14.4230   16.4770   25.6750
C   9.8970   25.7470   14.8340
H   9.2600   26.2100   14.0700
H   10.9030   26.1810   14.8020
H   9.4340   25.9280   15.8120
C   10.1050   24.2760   14.5480
C   9.4830   23.4020   15.4380
H   8.7910   23.7840   16.1820
C   9.7180   22.0020   15.3700
H   9.2880   21.4530   16.2030
C   10.5190   21.4980   14.3610
H   10.5880   20.4200   14.2480
C   11.0160   22.3430   13.3520
H   11.7280   21.9650   12.6240
C   10.8610   23.7380   13.4830
H   11.4610   24.3570   12.8230
C   21.4460   7.1060   12.4470
H   20.6860   6.3340   12.6150
H   22.2500   6.4780   12.0440
H   21.0510   7.7230   11.6300
C   21.6030   8.0210   13.6490
C   21.7540   7.6760   14.9780
H   21.7640   6.6430   15.3150
C   21.9350   8.6230   16.0550
H   22.0640   8.3230   17.0910
C   22.1380   9.9860   15.6920
H   22.3350   10.8010   16.3830
C   22.0340   10.3260   14.3310
H   22.1590   11.3300   13.9360
C   21.6750   9.3700   13.3830
H   21.5590   9.7230   12.3630
C   22.9880   17.6800   12.2810
H   22.9180   16.8740   13.0210
H   23.7730   18.3620   12.6300
H   23.2480   17.2650   11.3000
C   21.6550   18.3490   12.1870
C   20.6220   18.0880   13.0570
H   20.7970   17.3350   13.8210
C   19.4340   18.7990   13.0450
H   18.7570   18.7330   13.8920
C   19.1760   19.7760   12.0220
H   18.2920   20.4060   12.0440
C   20.1570   19.9410   11.0580
H   19.9550   20.5700   10.1960
C   21.4170   19.2580   11.1840
H   22.2080   19.5330   10.4920
C   11.5670   16.9320   9.5720
H   12.2140   17.1360   8.7100
H   11.2820   15.8920   9.3700
H   12.1900   17.0270   10.4710
C   10.3380   17.8120   9.7330
C   9.4070   17.9080   8.6630
H   9.2760   17.1270   7.9200
C   8.4820   18.9870   8.6270
H   7.7350   19.0310   7.8400
C   8.4710   19.9600   9.6310
H   7.7480   20.7700   9.6540
C   9.3540   19.8350   10.7390
H   9.3650   20.4890   11.6050
C   10.1940   18.7130   10.7970
H   10.9300   18.6810   11.5950
C   12.7180   16.6050   23.0210
H   12.8130   16.8270   21.9510
H   13.7280   16.3210   23.3450
H   12.5000   17.5290   23.5710
C   11.8010   15.4010   23.1530
C   10.6200   15.4240   22.3970
H   10.4520   16.2470   21.7090
C   9.7560   14.2780   22.4410
H   8.8510   14.2660   21.8410
C   10.0090   13.2210   23.3230
H   9.3460   12.3640   23.2430
C   11.1890   13.1930   24.0600
H   11.5060   12.4190   24.7520
C   12.1210   14.2630   23.8890
H   13.0670   14.1720   24.4150
C   18.8420   17.6350   27.7520
H   18.1240   17.0240   28.3120
H   18.2540   18.2490   27.0590
H   19.3830   18.2440   28.4880
C   19.7860   16.8740   26.9420
C   20.9230   17.5130   26.3330
H   21.0460   18.5910   26.2770
C   21.9600   16.7460   25.6900
H   22.7590   17.2130   25.1220
C   21.8200   15.3540   25.7340
H   22.5620   14.8350   25.1340
C   20.7780   14.7860   26.4240
H   20.6730   13.7070   26.4980
C   19.7540   15.4920   26.9560
H   18.9700   15.0490   27.5620
C   25.2430   22.7500   18.9430
H   24.6510   23.3730   19.6240
H   24.6070   22.0920   18.3390
H   25.7690   23.4530   18.2840
C   26.2890   22.0890   19.8050
C   27.6530   22.5380   19.7650
H   27.8930   23.3990   19.1490
C   28.6720   21.9360   20.4790
H   29.6960   22.2960   20.4470
C   28.3120   20.9270   21.3620
H   29.1140   20.5670   22.0000
C   26.9480   20.4890   21.5060
H   26.7050   19.7450   22.2580
C   25.9360   21.0700   20.7010
H   24.8820   20.8350   20.8180
C   8.6660   14.0750   6.3660
H   9.5670   14.3180   5.7890
H   8.3130   15.1000   6.5330
H   8.0120   13.6260   5.6080
C   8.9520   13.1750   7.5700
C   9.2520   13.8780   8.7390
H   9.0790   14.9490   8.7860
C   9.7250   13.1670   9.8870
H   10.1540   13.6370   10.7670
C   9.7320   11.7360   9.9480
H   9.9080   11.1180   10.8230
C   9.4160   11.0830   8.7270
H   9.5500   10.0100   8.6190
C   9.0570   11.7790   7.5340
H   8.9280   11.2640   6.5870
C   8.9500   11.1620   20.3870
H   9.6770   10.3770   20.1430
H   8.1570   10.6850   20.9760
H   9.5010   11.9120   20.9680
C   8.2120   11.8340   19.2710
C   8.5700   13.1620   18.8940
H   9.3950   13.6460   19.4100
C   7.8880   13.7660   17.8650
H   8.0520   14.7920   17.5510
C   6.8730   13.0430   17.1600
H   6.3940   13.5060   16.3020
C   6.6020   11.7170   17.5240
H   5.9300   11.0650   16.9750
C   7.2670   11.0920   18.5130
H   6.9380   10.1170   18.8610
C   26.4570   12.4450   13.5550
H   27.1280   12.9590   14.2540
H   26.8800   12.5280   12.5470
H   26.3480   11.3870   13.8240
C   25.0650   13.0040   13.5080
C   24.3200   13.0670   12.3170
H   24.6950   12.4320   11.5200
C   23.1080   13.7070   12.1810
H   22.5800   13.8270   11.2400
C   22.5170   14.2950   13.4070
H   21.5280   14.7440   13.3850
C   23.1780   14.0720   14.6700
H   22.7680   14.3710   15.6300
C   24.4820   13.4620   14.6840
H   25.0670   13.3620   15.5930
C   17.5710   21.2480   6.8890
H   18.6510   21.3700   6.7390
H   17.1030   22.0750   7.4370
H   17.0720   21.3190   5.9150
C   17.2290   19.8820   7.3990
C   18.1980   19.0800   7.9940
H   19.2050   19.4850   8.0050
C   17.9790   17.8310   8.6610
H   18.7330   17.2870   9.2230
C   16.6260   17.3740   8.6220
H   16.3320   16.4460   9.1030
C   15.6520   18.0670   7.8430
H   14.6170   17.7430   7.7980
C   15.9210   19.3400   7.2650
H   15.0810   19.8910   6.8510
C   21.3760   21.0260   23.7240
H   20.4220   20.4870   23.7730
H   21.7020   21.4030   24.7020
H   22.0140   20.1900   23.4130
C   21.3200   22.2390   22.7430
C   21.4220   21.9180   21.3730
H   21.5590   20.8770   21.0950
C   21.1640   22.8820   20.4680
H   21.2420   22.6310   19.4150
C   20.8980   24.2170   20.9180
H   20.7360   25.0150   20.1990
C   20.8810   24.5300   22.2790
H   20.7390   25.5510   22.6190
C   21.0600   23.5250   23.2330
H   21.0710   23.7440   24.2960
C   13.4980   11.9160   9.8290
H   12.9760   11.0440   9.4180
H   12.8920   12.3220   10.6480
H   14.4620   11.6150   10.2580
C   13.7160   13.0320   8.7680
C   15.0200   13.6160   8.6070
H   15.8970   13.3430   9.1870
C   15.2000   14.6260   7.6390
H   16.2250   14.9300   7.4480
C   14.1260   14.9630   6.7830
H   14.1730   15.7170   6.0030
C   12.8520   14.5840   7.1130
H   12.0640   15.0130   6.5020
C   12.6470   13.5090   8.0450
H   11.7110   12.9710   8.1580
C   19.7440   10.5210   20.4450
H   19.1710   11.4550   20.4980
H   19.2620   9.7620   21.0740
H   19.7140   10.3290   19.3650
C   21.1430   10.7570   21.0140
C   22.2290   10.3180   20.2850
H   22.1500   9.9270   19.2750
C   23.5250   10.5680   20.8390
H   24.4000   10.2310   20.2920
C   23.7170   11.1630   22.0780
H   24.7300   11.2050   22.4680
C   22.5380   11.3930   22.8610
H   22.7390   11.7980   23.8480
C   21.2670   11.2310   22.2990
H   20.3950   11.6100   22.8240
C   29.8070   21.0370   16.6750
H   29.7320   22.0770   16.3350
H   30.3810   20.5460   15.8790
H   30.3680   20.9570   17.6140
C   28.4450   20.3010   16.9690
C   28.2260   19.5640   18.1860
H   29.0220   19.4550   18.9170
C   26.8940   19.1050   18.4470
H   26.6720   18.4880   19.3130
C   25.8510   19.3550   17.6180
H   24.8790   18.9520   17.8890
C   26.0900   20.0720   16.3750
H   25.2500   20.2200   15.7020
C   27.3720   20.5830   16.0780
H   27.4500   21.3560   15.3190
C   18.5500   10.0140   11.4130
H   18.7830   9.7570   12.4530
H   19.3500   9.5800   10.8000
H   17.6150   9.5640   11.0570
C   18.6360   11.5680   11.2050
C   19.5130   12.2330   10.3370
H   20.2410   11.5850   9.8580
C   19.5720   13.6310   10.2560
H   20.3650   14.1740   9.7510
C   18.5680   14.3480   10.9390
H   18.6520   15.4260   10.8390
C   17.6480   13.7120   11.7250
H   17.1040   14.3100   12.4500
C   17.7060   12.3240   11.9490
H   17.2340   11.8230   12.7890
C   22.1020   25.4310   5.5970
H   21.4160   26.2880   5.5930
H   21.7860   24.8510   4.7220
H   23.1330   25.7650   5.4260
C   21.9980   24.6230   6.8970
C   21.0770   23.5600   6.9970
H   20.5490   23.2000   6.1180
C   20.8770   22.8840   8.2000
H   20.2320   22.0110   8.2230
C   21.4880   23.3510   9.3830
H   21.2750   22.8260   10.3090
C   22.4070   24.4640   9.3180
H   22.8440   24.9190   10.2020
C   22.7460   25.0220   8.0470
H   23.4980   25.8030   7.9750
C   19.3764   18.5213   21.4679
H   20.1274   18.4717   22.2464
H   18.7519   19.3957   21.5267
H   19.9299   18.6414   20.5351
C   18.5192   17.2700   21.4872
C   17.1043   17.2869   21.2390
H   16.6414   18.2315   21.0752
C   16.3895   16.1058   21.2111
H   15.3068   16.1453   20.9707
C   16.9873   14.8846   21.4070
H   16.4007   13.9934   21.4645
C   18.3846   14.8578   21.6240
H   18.8519   13.9040   21.7575
C   19.1371   16.0222   21.6471
H   20.1978   15.9146   21.7453
562
Frame 26
C   16.2622   16.0014   17.2587
C   18.6126   16.6395   16.7839
C   15.7960   17.5429   17.4768
C   19.2986   16.0211   17.9850
C   19.5487   16.7895   15.6042
N   17.4240   15.8809   16.4503
N   15.2662   15.1852   16.6895
O   15.2773   18.1360   16.2614
H   14.3147   17.9445   16.2591
H   17.2480   15.6768   15.4638
H   16.5453   15.5805   18.2437
H   18.3245   17.6626   17.0199
H   14.4349   14.9237   17.1618
H   15.2521   15.0087   15.7053
H   16.5556   18.2274   17.8295
H   15.0747   17.6252   18.2679
H   20.0805   16.6812   18.3675
H   18.9405   16.8695   14.7069
H   19.7170   15.0534   17.7339
H   18.5715   15.8735   18.7712
H   20.1254   17.7088   15.7158
H   20.2318   15.9385   15.5364
C   31.0130   13.4690   20.5000
H   31.2490   12.6100   21.1410
H   31.6000   14.3580   20.7590
H   31.3090   13.1730   19.4860
C   29.5240   13.6930   20.5110
C   28.9490   14.9820   20.4600
H   29.6230   15.8190   20.3030
C   27.5460   15.1780   20.4020
H   27.1240   16.1710   20.2790
C   26.7510   14.0910   20.7820
H   25.6720   14.1250   20.8970
C   27.2930   12.7880   20.7300
H   26.5470   12.0120   20.8740
C   28.6890   12.5880   20.6520
H   29.0430   11.5650   20.7440
C   9.2210   14.9750   13.0480
H   9.9180   14.2170   12.6700
H   8.7250   15.4390   12.1860
H   8.5460   14.3880   13.6810
C   9.9500   16.0790   13.9260
C   11.1730   16.6700   13.5290
H   11.6950   16.2330   12.6830
C   11.7790   17.6500   14.3810
H   12.6890   18.1940   14.1470
C   11.0580   18.1190   15.4870
H   11.4490   19.0070   15.9740
C   9.8790   17.5550   15.8260
H   9.3990   17.9040   16.7360
C   9.3470   16.4720   15.1090
H   8.3400   16.1840   15.3940
C   13.1040   20.9490   22.1230
H   12.1100   21.0700   22.5720
H   13.3280   19.8760   22.1570
H   12.9300   21.4440   21.1600
C   14.1720   21.7290   22.9410
C   13.9780   23.0550   23.3640
H   12.9880   23.4780   23.2220
C   14.9570   23.7090   24.0980
H   14.8720   24.7370   24.4370
C   16.0910   23.0190   24.4910
H   16.8240   23.5570   25.0840
C   16.3390   21.7000   24.0260
H   17.2960   21.2060   24.1580
C   15.3480   21.0720   23.2660
H   15.4870   20.1110   22.7800
C   22.3270   16.0930   8.4030
H   22.3260   16.2600   9.4870
H   21.4310   15.6720   7.9300
H   22.4190   17.0690   7.9110
C   23.4930   15.2320   7.9250
C   24.6760   15.8080   7.3600
H   24.7170   16.8840   7.2220
C   25.8340   15.0550   7.0100
H   26.7290   15.6050   6.7360
C   25.7140   13.6410   7.1510
H   26.5440   12.9840   6.9070
C   24.5170   13.0840   7.6510
H   24.4140   12.0140   7.8020
C   23.4280   13.8620   7.9640
H   22.4620   13.4500   8.2420
C   13.3770   8.3710   11.1840
H   13.9280   8.9300   11.9500
H   12.7730   7.5980   11.6750
H   12.7470   9.0620   10.6100
C   14.2950   7.7300   10.0940
C   14.0090   6.4760   9.6240
H   13.0770   6.0180   9.9390
C   14.8900   5.7890   8.7340
H   14.6040   4.8470   8.2740
C   16.0940   6.4030   8.4280
H   16.8170   5.9830   7.7360
C   16.3240   7.7020   8.8800
H   17.2290   8.1990   8.5440
C   15.3900   8.3770   9.6670
H   15.4990   9.4410   9.8550
C   22.3720   27.5750   12.3440
H   22.6740   28.6260   12.2520
H   21.8660   27.2750   11.4180
H   23.3360   27.0640   12.4640
C   21.5860   27.1640   13.5380
C   20.6270   26.1270   13.4710
H   20.5230   25.5770   12.5400
C   19.8190   25.9080   14.6070
H   19.0410   25.1530   14.6740
C   19.8330   26.8130   15.6810
H   19.1800   26.6280   16.5280
C   20.7150   27.8320   15.6880
H   20.6750   28.5050   16.5390
C   21.6510   27.9300   14.6880
H   22.3640   28.7490   14.7160
C   26.3230   15.1720   24.4190
H   27.1730   15.7810   24.7530
H   26.9100   14.3730   23.9500
H   25.8350   14.6810   25.2700
C   25.2980   15.8310   23.5700
C   25.3310   17.2270   23.3880
H   26.0260   17.7850   24.0090
C   24.4240   17.8360   22.4700
H   24.3120   18.9080   22.3350
C   23.4800   16.9710   21.8510
H   22.7300   17.3880   21.1860
C   23.4350   15.6140   22.0990
H   22.6180   15.0160   21.7070
C   24.3990   15.0550   22.9540
H   24.2710   14.0400   23.3190
C   12.5310   21.3930   17.8850
H   13.2140   21.0900   17.0820
H   11.5950   21.6280   17.3640
H   12.3060   20.6590   18.6680
C   13.0320   22.5830   18.7360
C   12.2150   23.1990   19.6560
H   11.1450   23.0160   19.6540
C   12.8150   24.0790   20.5840
H   12.1470   24.6520   21.2210
C   14.2070   24.1490   20.7110
H   14.6570   24.8010   21.4530
C   15.0790   23.3670   19.9600
H   16.1550   23.3650   20.1040
C   14.4560   22.6230   18.9390
H   15.0290   21.9490   18.3100
C   14.8830   6.8570   21.3950
H   14.5830   5.8040   21.4680
H   14.1110   7.5640   21.0690
H   14.9540   7.1620   22.4460
C   16.2700   6.9730   20.7720
C   17.3370   6.4110   21.5060
H   17.0910   5.8820   22.4210
C   18.6390   6.6200   20.9560
H   19.4860   6.2070   21.4970
C   18.8360   7.1840   19.6870
H   19.8020   7.2850   19.2010
C   17.7740   7.7920   19.0310
H   17.9360   8.3530   18.1150
C   16.4720   7.7040   19.5680
H   15.6290   8.1750   19.0710
C   14.8160   10.5740   15.3720
H   14.3440   11.0040   14.4800
H   15.1400   11.3900   16.0290
H   13.9830   10.0440   15.8500
C   15.8760   9.5730   14.9300
C   15.5810   8.3740   14.2260
H   14.5360   8.2410   13.9630
C   16.5460   7.4790   13.7060
H   16.2100   6.6290   13.1200
C   17.8520   7.6230   14.2370
H   18.6540   6.9360   13.9850
C   18.1870   8.7030   14.9950
H   19.2350   8.8200   15.2580
C   17.2460   9.6850   15.4350
H   17.6780   10.4650   16.0550
C   8.0650   7.4040   17.5740
H   8.1270   8.0850   16.7160
H   7.5600   7.9240   18.3970
H   7.4880   6.4980   17.3480
C   9.4790   7.0660   18.0080
C   10.5440   7.9760   17.7650
H   10.3730   8.9450   17.3060
C   11.8290   7.6370   18.2640
H   12.7100   8.2510   18.1010
C   12.0090   6.4900   19.0190
H   13.0130   6.2290   19.3400
C   10.9610   5.6080   19.2070
H   11.1880   4.6980   19.7550
C   9.6610   5.8390   18.6640
H   8.8970   5.0800   18.8040
C   18.2400   9.3350   23.8980
H   18.4220   9.0030   24.9280
H   18.8890   10.1800   23.6390
H   18.3460   8.4310   23.2860
C   16.8430   9.7990   23.8620
C   16.4750   10.9760   23.2580
H   17.2340   11.5320   22.7170
C   15.1310   11.3650   23.2170
H   14.8330   12.3010   22.7540
C   14.1480   10.5800   23.8790
H   13.1240   10.9410   23.8510
C   14.5070   9.3760   24.4910
H   13.6960   8.7620   24.8720
C   15.8380   9.0020   24.5510
H   16.1540   8.1380   25.1280
C   10.9060   11.5230   15.8000
H   10.2660   12.1380   16.4450
H   11.8110   12.1010   15.5760
H   11.3030   10.7560   16.4760
C   10.1450   10.8230   14.6590
C   8.8800   11.1470   14.2680
H   8.3050   11.8430   14.8720
C   8.2310   10.3560   13.3000
H   7.1860   10.6060   13.1480
C   8.9080   9.2900   12.6040
H   8.3580   8.8160   11.7960
C   10.2410   9.0790   12.9680
H   10.7620   8.2900   12.4330
C   10.8540   9.7140   14.0870
H   11.8650   9.4940   14.4180
C   12.4900   20.4970   8.7300
H   11.7150   20.4740   7.9540
H   12.2270   19.9760   9.6590
H   13.3460   20.0150   8.2410
C   12.8650   21.9680   8.9270
C   12.1420   22.7970   9.8120
H   11.2610   22.4200   10.3220
C   12.3840   24.1720   9.8850
H   11.8920   24.7890   10.6310
C   13.4520   24.6990   9.1480
H   13.6750   25.7620   9.1740
C   14.2260   23.9500   8.2820
H   15.0110   24.4020   7.6830
C   13.8970   22.5400   8.1400
H   14.4070   21.9210   7.4080
C   25.2240   23.2580   12.7270
H   25.5120   24.3000   12.9180
H   24.9920   23.1420   11.6620
H   26.0960   22.6100   12.8790
C   24.1020   22.8110   13.7090
C   24.1040   23.2240   14.9730
H   24.9610   23.8230   15.2650
C   23.1140   22.7650   15.8740
H   23.0750   23.1170   16.9010
C   22.0540   21.9550   15.3630
H   21.3500   21.5740   16.0970
C   21.9790   21.6570   14.0120
H   21.2210   20.9940   13.6040
C   22.9780   22.0850   13.1860
H   22.9530   21.7500   12.1530
C   15.9690   24.2190   11.3740
H   16.8540   24.6850   11.8250
H   15.3350   25.1120   11.4330
H   16.1270   23.9390   10.3250
C   15.4160   23.1270   12.1800
C   15.0320   21.8940   11.5900
H   15.1170   21.7510   10.5170
C   14.4730   20.9160   12.4130
H   14.1800   19.9440   12.0280
C   14.3810   21.0610   13.7930
H   14.0500   20.2450   14.4290
C   14.8220   22.2110   14.4320
H   14.6700   22.2620   15.5060
C   15.2630   23.2580   13.6150
H   15.6250   24.2030   14.0110
C   7.9820   23.6640   20.2210
H   7.6700   24.1780   19.3030
H   8.8810   24.2110   20.5300
H   7.2090   23.8760   20.9700
C   8.2150   22.1450   20.0450
C   8.9820   21.3660   20.9660
H   9.4280   21.8310   21.8400
C   9.3410   20.0110   20.7260
H   9.9200   19.4750   21.4720
C   8.8720   19.3730   19.6080
H   9.2540   18.3910   19.3440
C   8.1140   20.1330   18.6130
H   7.8040   19.7260   17.6550
C   7.8120   21.5360   18.8670
H   7.2650   22.1110   18.1260
C   16.6400   17.6150   24.7630
H   16.2880   18.1500   25.6540
H   16.0580   17.8970   23.8770
H   17.6690   17.9180   24.5330
C   16.4320   16.1690   24.9640
C   17.4700   15.2850   24.7630
H   18.3820   15.6110   24.2700
C   17.2870   13.9420   25.1470
H   18.0430   13.2190   24.8550
C   16.0500   13.5080   25.7080
H   15.9690   12.4530   25.9550
C   15.0160   14.4460   25.9100
H   14.0840   14.0850   26.3350
C   15.2290   15.7710   25.5010
H   14.4230   16.4770   25.6750
C   9.8970   25.7470   14.8340
H   9.2600   26.2100   14.0700
H   10.9030   26.1810   14.8020
H   9.4340   25.9280   15.8120
C   10.1050   24.2760   14.5480
C   9.4830   23.4020   15.4380
H   8.7910   23.7840   16.1820
C   9.7180   22.0020   15.3700
H   9.2880   21.4530   16.2030
C   10.5190   21.4980   14.3610
H   10.5880   20.4200   14.2480
C   11.0160   22.3430   13.3520
H   11.7280   21.9650   12.6240
C   10.8610   23.7380   13.4830
H   11.4610   24.3570   12.8230
C   21.4460   7.1060   12.4470
H   20.6860   6.3340   12.6150
H   22.2500   6.4780   12.0440
H   21.0510   7.7230   11.6300
C   21.6030   8.0210   13.6490
C   21.7540   7.6760   14.9780
H   21.7640   6.6430   15.3150
C   21.9350   8.6230   16.0550
H   22.0640   8.3230   17.0910
C   22.1380   9.9860   15.6920
H   22.3350   10.8010   16.3830
C   22.0340   10.3260   14.3310
H   22.1590   11.3300   13.9360
C   21.6750   9.3700   13.3830
H   21.5590   9.7230   12.3630
C   22.9880   17.6800   12.2810
H   22.9180   16.8740   13.0210
H   23.7730   18.3620   12.6300
H   23.2480   17.2650   11.3000
C   21.6550   18.3490   12.1870
C   20.6220   18.0880   13.0570
H   20.7970   17.3350   13.8210
C   19.4340   18.7990   13.0450
H   18.7570   18.7330   13.8920
C   19.1760   19.7760   12.0220
H   18.2920   20.4060   12.0440
C   20.1570   19.9410   11.0580
H   19.9550   20.5700   10.1960
C   21.4170   19.2580   11.1840
H   22.2080   19.5330   10.4920
C   11.5670   16.9320   9.5720
H   12.2140   17.1360   8.7100
H   11.2820   15.8920   9.3700
H   12.1900   17.0270   10.4710
C   10.3380   17.8120   9.7330
C   9.4070   17.9080   8.6630
H   9.2760   17.1270   7.9200
C   8.4820   18.9870   8.6270
H   7.7350   19.0310   7.8400
C   8.4710   19.9600   9.6310
H   7.7480   20.7700   9.6540
C   9.3540   19.8350   10.7390
H   9.3650   20.4890   11.6050
C   10.1940   18.7130   10.7970
H   10.9300   18.6810   11.5950
C   12.7180   16.6050   23.0210
H   12.8130   16.8270   21.9510
H   13.7280   16.3210   23.3450
H   12.5000   17.5290   23.5710
C   11.8010   15.4010   23.1530
C   10.6200   15.4240   22.3970
H   10.4520   16.2470   21.7090
C   9.7560   14.2780   22.4410
H   8.8510   14.2660   21.8410
C   10.0090   13.2210   23.3230
H   9.3460   12.3640   23.2430
C   11.1890   13.1930   24.0600
H   11.5060   12.4190   24.7520
C   12.1210   14.2630   23.8890
H   13.0670   14.1720   24.4150
C   18.8420   17.6350   27.7520
H   18.1240   17.0240   28.3120
H   18.2540   18.2490   27.0590
H   19.3830   18.2440   28.4880
C   19.7860   16.8740   26.9420
C   20.9230   17.5130   26.3330
H   21.0460   18.5910   26.2770
C   21.9600   16.7460   25.6900
H   22.7590   17.2130   25.1220
C   21.8200   15.3540   25.7340
H   22.5620   14.8350   25.1340
C   20.7780   14.7860   26.4240
H   20.6730   13.7070   26.4980
C   19.7540   15.4920   26.9560
H   18.9700   15.0490   27.5620
C   25.2430   22.7500   18.9430
H   24.6510   23.3730   19.6240
H   24.6070   22.0920   18.3390
H   25.7690   23.4530   18.2840
C   26.2890   22.0890   19.8050
C   27.6530   22.5380   19.7650
H   27.8930   23.3990   19.1490
C   28.6720   21.9360   20.4790
H   29.6960   22.2960   20.4470
C   28.3120   20.9270   21.3620
H   29.1140   20.5670   22.0000
C   26.9480   20.4890   21.5060
H   26.7050   19.7450   22.2580
C   25.9360   21.0700   20.7010
H   24.8820   20.8350   20.8180
C   8.6660   14.0750   6.3660
H   9.5670   14.3180   5.7890
H   8.3130   15.1000   6.5330
H   8.0120   13.6260   5.6080
C   8.9520   13.1750   7.5700
C   9.2520   13.8780   8.7390
H   9.0790   14.9490   8.7860
C   9.7250   13.1670   9.8870
H   10.1540   13.6370   10.7670
C   9.7320   11.7360   9.9480
H   9.9080   11.1180   10.8230
C   9.4160   11.0830   8.7270
H   9.5500   10.0100   8.6190
C   9.0570   11.7790   7.5340
H   8.9280   11.2640   6.5870
C   8.9500   11.1620   20.3870
H   9.6770   10.3770   20.1430
H   8.1570   10.6850   20.9760
H   9.5010   11.9120   20.9680
C   8.2120   11.8340   19.2710
C   8.5700   13.1620   18.8940
H   9.3950   13.6460   19.4100
C   7.8880   13.7660   17.8650
H   8.0520   14.7920   17.5510
C   6.8730   13.0430   17.1600
H   6.3940   13.5060   16.3020
C   6.6020   11.7170   17.5240
H   5.9300   11.0650   16.9750
C   7.2670   11.0920   18.5130
H   6.9380   10.1170   18.8610
C   26.4570   12.4450   13.5550
H   27.1280   12.9590   14.2540
H   26.8800   12.5280   12.5470
H   26.3480   11.3870   13.8240
C   25.0650   13.0040   13.5080
C   24.3200   13.0670   12.3170
H   24.6950   12.4320   11.5200
C   23.1080   13.7070   12.1810
H   22.5800   13.8270   11.2400
C   22.5170   14.2950   13.4070
H   21.5280   14.7440   13.3850
C   23.1780   14.0720   14.6700
H   22.7680   14.3710   15.6300
C   24.4820   13.4620   14.6840
H   25.0670   13.3620   15.5930
C   17.5710   21.2480   6.8890
H   18.6510   21.3700   6.7390
H   17.1030   22.0750   7.4370
H   17.0720   21.3190   5.9150
C   17.2290   19.8820   7.3990
C   18.1980   19.0800   7.9940
H   19.2050   19.4850   8.0050
C   17.9790   17.8310   8.6610
H   18.7330   17.2870   9.2230
C   16.6260   17.3740   8.6220
H   16.3320   16.4460   9.1030
C   15.6520   18.0670   7.8430
H   14.6170   17.7430   7.7980
C   15.9210   19.3400   7.2650
H   15.0810   19.8910   6.8510
C   21.3760   21.0260   23.7240
H   20.4220   20.4870   23.7730
H   21.7020   21.4030   24.7020
H   22.0140   20.1900   23.4130
C   21.3200   22.2390   22.7430
C   21.4220   21.9180   21.3730
H   21.5590   20.8770   21.0950
C   21.1640   22.8820   20.4680
H   21.2420   22.6310   19.4150
C   20.8980   24.2170   20.9180
H   20.7360   25.0150   20.1990
C   20.8810   24.5300   22.2790
H   20.7390   25.5510   22.6190
C   21.0600   23.5250   23.2330
H   21.0710   23.7440   24.2960
C   13.4980   11.9160   9.8290
H   12.9760   11.0440   9.4180
H   12.8920   12.3220   10.6480
H   14.4620   11.6150   10.2580
C   13.7160   13.0320   8.7680
C   15.0200   13.6160   8.6070
H   15.8970   13.3430   9.1870
C   15.2000   14.6260   7.6390
H   16.2250   14.9300   7.4480
C   14.1260   14.9630   6.7830
H   14.1730   15.7170   6.0030
C   12.8520   14.5840   7.1130
H   12.0640   15.0130   6.5020
C   12.6470   13.5090   8.0450
H   11.7110   12.9710   8.1580
C   19.7440   10.5210   20.4450
H   19.1710   11.4550   20.4980
H   19.2620   9.7620   21.0740
H   19.7140   10.3290   19.3650
C   21.1430   10.7570   21.0140
C   22.2290   10.3180   20.2850
H   22.1500   9.9270   19.2750
C   23.5250   10.5680   20.8390
H   24.4000   10.2310   20.2920
C   23.7170   11.1630   22.0780
H   24.7300   11.2050   22.4680
C   22.5380   11.3930   22.8610
H   22.7390   11.7980   23.8480
C   21.2670   11.2310   22.2990
H   20.3950   11.6100   22.8240
C   29.8070   21.0370   16.6750
H   29.7320   22.0770   16.3350
H   30.3810   20.5460   15.8790
H   30.3680   20.9570   17.6140
C   28.4450   20.3010   16.9690
C   28.2260   19.5640   18.1860
H   29.0220   19.4550   18.9170
C   26.8940   19.1050   18.4470
H   26.6720   18.4880   19.3130
C   25.8510   19.3550   17.6180
H   24.8790   18.9520   17.8890
C   26.0900   20.0720   16.3750
H   25.2500   20.2200   15.7020
C   27.3720   20.5830   16.0780
H   27.4500   21.3560   15.3190
C   18.5500   10.0140   11.4130
H   18.7830   9.7570   12.4530
H   19.3500   9.5800   10.8000
H   17.6150   9.5640   11.0570
C   18.6360   11.5680   11.2050
C   19.5130   12.2330   10.3370
H   20.2410   11.5850   9.8580
C   19.5720   13.6310   10.2560
H   20.3650   14.1740   9.7510
C   18.5680   14.3480   10.9390
H   18.6520   15.4260   10.8390
C   17.6480   13.7120   11.7250
H   17.1040   14.3100   12.4500
C   17.7060   12.3240   11.9490
H   17.2340   11.8230   12.7890
C   22.1020   25.4310   5.5970
H   21.4160   26.2880   5.5930
H   21.7860   24.8510   4.7220
H   23.1330   25.7650   5.4260
C   21.9980   24.6230   6.8970
C   21.0770   23.5600   6.9970
H   20.5490   23.2000   6.1180
C   20.8770   22.8840   8.2000
H   20.2320   22.0110   8.2230
C   21.4880   23.3510   9.3830
H   21.2750   22.8260   10.3090
C   22.4070   24.4640   9.3180
H   22.8440   24.9190   10.2020
C   22.7460   25.0220   8.0470
H   23.4980   25.8030   7.9750
C   19.3813   18.5188   21.4646
H   20.1320   18.4840   22.2435
H   18.7545   19.3999   21.5414
H   19.9302   18.6437   20.5401
C   18.5083   17.2791   21.4733
C   17.0961   17.2894   21.2381
H   16.6394   18.2460   21.0576
C   16.3801   16.1051   21.2163
H   15.3029   16.1475   20.9904
C   16.9963   14.8728   21.4073
H   16.4000   13.9851   21.4557
C   18.3847   14.8574   21.6318
H   18.8555   13.8971   21.7637
C   19.1374   16.0219   21.6464
H   20.1965   15.9090   21.7530
562
Frame 27
C   16.2389   16.0434   17.2782
C   18.6128   16.6521   16.8020
C   15.7971   17.4887   17.4342
C   19.3011   16.0239   17.9977
C   19.5439   16.7736   15.6160
N   17.4108   15.9146   16.4645
N   15.2205   15.2037   16.7073
O   15.2558   18.1353   16.2556
H   14.3075   17.9485   16.2454
H   17.2333   15.7116   15.5140
H   16.5327   15.6442   18.2649
H   18.3750   17.6836   17.0313
H   14.3896   14.9423   17.1871
H   15.2586   15.0453   15.7245
H   16.5833   18.1373   17.8117
H   15.0868   17.4845   18.2557
H   20.0980   16.6903   18.3645
H   18.9553   16.8582   14.7053
H   19.7218   15.0514   17.7349
H   18.5606   15.8683   18.7747
H   20.1329   17.6887   15.7160
H   20.2402   15.9386   15.5241
C   31.0130   13.4690   20.5000
H   31.2490   12.6100   21.1410
H   31.6000   14.3580   20.7590
H   31.3090   13.1730   19.4860
C   29.5240   13.6930   20.5110
C   28.9490   14.9820   20.4600
H   29.6230   15.8190   20.3030
C   27.5460   15.1780   20.4020
H   27.1240   16.1710   20.2790
C   26.7510   14.0910   20.7820
H   25.6720   14.1250   20.8970
C   27.2930   12.7880   20.7300
H   26.5470   12.0120   20.8740
C   28.6890   12.5880   20.6520
H   29.0430   11.5650   20.7440
C   9.2210   14.9750   13.0480
H   9.9180   14.2170   12.6700
H   8.7250   15.4390   12.1860
H   8.5460   14.3880   13.6810
C   9.9500   16.0790   13.9260
C   11.1730   16.6700   13.5290
H   11.6950   16.2330   12.6830
C   11.7790   17.6500   14.3810
H   12.6890   18.1940   14.1470
C   11.0580   18.1190   15.4870
H   11.4490   19.0070   15.9740
C   9.8790   17.5550   15.8260
H   9.3990   17.9040   16.7360
C   9.3470   16.4720   15.1090
H   8.3400   16.1840   15.3940
C   13.1040   20.9490   22.1230
H   12.1100   21.0700   22.5720
H   13.3280   19.8760   22.1570
H   12.9300   21.4440   21.1600
C   14.1720   21.7290   22.9410
C   13.9780   23.0550   23.3640
H   12.9880   23.4780   23.2220
C   14.9570   23.7090   24.0980
H   14.8720   24.7370   24.4370
C   16.0910   23.0190   24.4910
H   16.8240   23.5570   25.0840
C   16.3390   21.7000   24.0260
H   17.2960   21.2060   24.1580
C   15.3480   21.0720   23.2660
H   15.4870   20.1110   22.7800
C   22.3270   16.0930   8.4030
H   22.3260   16.2600   9.4870
H   21.4310   15.6720   7.9300
H   22.4190   17.0690   7.9110
C   23.4930   15.2320   7.9250
C   24.6760   15.8080   7.3600
H   24.7170   16.8840   7.2220
C   25.8340   15.0550   7.0100
H   26.7290   15.6050   6.7360
C   25.7140   13.6410   7.1510
H   26.5440   12.9840   6.9070
C   24.5170   13.0840   7.6510
H   24.4140   12.0140   7.8020
C   23.4280   13.8620   7.9640
H   22.4620   13.4500   8.2420
C   13.3770   8.3710   11.1840
H   13.9280   8.9300   11.9500
H   12.7730   7.5980   11.6750
H   12.7470   9.0620   10.6100
C   14.2950   7.7300   10.0940
C   14.0090   6.4760   9.6240
H   13.0770   6.0180   9.9390
C   14.8900   5.7890   8.7340
H   14.6040   4.8470   8.2740
C   16.0940   6.4030   8.4280
H   16.8170   5.9830   7.7360
C   16.3240   7.7020   8.8800
H   17.2290   8.1990   8.5440
C   15.3900   8.3770   9.6670
H   15.4990   9.4410   9.8550
C   22.3720   27.5750   12.3440
H   22.6740   28.6260   12.2520
H   21.8660   27.2750   11.4180
H   23.3360   27.0640   12.4640
C   21.5860   27.1640   13.5380
C   20.6270   26.1270   13.4710
H   20.5230   25.5770   12.5400
C   19.8190   25.9080   14.6070
H   19.0410   25.1530   14.6740
C   19.8330   26.8130   15.6810
H   19.1800   26.6280   16.5280
C   20.7150   27.8320   15.6880
H   20.6750   28.5050   16.5390
C   21.6510   27.9300   14.6880
H   22.3640   28.7490   14.7160
C   26.3230   15.1720   24.4190
H   27.1730   15.7810   24.7530
H   26.9100   14.3730   23.9500
H   25.8350   14.6810   25.2700
C   25.2980   15.8310   23.5700
C   25.3310   17.2270   23.3880
H   26.0260   17.7850   24.0090
C   24.4240   17.8360   22.4700
H   24.3120   18.9080   22.3350
C   23.4800   16.9710   21.8510
H   22.7300   17.3880   21.1860
C   23.4350   15.6140   22.0990
H   22.6180   15.0160   21.7070
C   24.3990   15.0550   22.9540
H   24.2710   14.0400   23.3190
C   12.5310   21.3930   17.8850
H   13.2140   21.0900   17.0820
H   11.5950   21.6280   17.3640
H   12.3060   20.6590   18.6680
C   13.0320   22.5830   18.7360
C   12.2150   23.1990   19.6560
H   11.1450   23.0160   19.6540
C   12.8150   24.0790   20.5840
H   12.1470   24.6520   21.2210
C   14.2070   24.1490   20.7110
H   14.6570   24.8010   21.4530
C   15.0790   23.3670   19.9600
H   16.1550   23.3650   20.1040
C   14.4560   22.6230   18.9390
H   15.0290   21.9490   18.3100
C   14.8830   6.8570   21.3950
H   14.5830   5.8040   21.4680
H   14.1110   7.5640   21.0690
H   14.9540   7.1620   22.4460
C   16.2700   6.9730   20.7720
C   17.3370   6.4110   21.5060
H   17.0910   5.8820   22.4210
C   18.6390   6.6200   20.9560
H   19.4860   6.2070   21.4970
C   18.8360   7.1840   19.6870
H   19.8020   7.2850   19.2010
C   17.7740   7.7920   19.0310
H   17.9360   8.3530   18.1150
C   16.4720   7.7040   19.5680
H   15.6290   8.1750   19.0710
C   14.8160   10.5740   15.3720
H   14.3440   11.0040   14.4800
H   15.1400   11.3900   16.0290
H   13.9830   10.0440   15.8500
C   15.8760   9.5730   14.9300
C   15.5810   8.3740   14.2260
H   14.5360   8.2410   13.9630
C   16.5460   7.4790   13.7060
H   16.2100   6.6290   13.1200
C   17.8520   7.6230   14.2370
H   18.6540   6.9360   13.9850
C   18.1870   8.7030   14.9950
H   19.2350   8.8200   15.2580
C   17.2460   9.6850   15.4350
H   17.6780   10.4650   16.0550
C   8.0650   7.4040   17.5740
H   8.1270   8.0850   16.7160
H   7.5600   7.9240   18.3970
H   7.4880   6.4980   17.3480
C   9.4790   7.0660   18.0080
C   10.5440   7.9760   17.7650
H   10.3730   8.9450   17.3060
C   11.8290   7.6370   18.2640
H   12.7100   8.2510   18.1010
C   12.0090   6.4900   19.0190
H   13.0130   6.2290   19.3400
C   10.9610   5.6080   19.2070
H   11.1880   4.6980   19.7550
C   9.6610   5.8390   18.6640
H   8.8970   5.0800   18.8040
C   18.2400   9.3350   23.8980
H   18.4220   9.0030   24.9280
H   18.8890   10.1800   23.6390
H   18.3460   8.4310   23.2860
C   16.8430   9.7990   23.8620
C   16.4750   10.9760   23.2580
H   17.2340   11.5320   22.7170
C   15.1310   11.3650   23.2170
H   14.8330   12.3010   22.7540
C   14.1480   10.5800   23.8790
H   13.1240   10.9410   23.8510
C   14.5070   9.3760   24.4910
H   13.6960   8.7620   24.8720
C   15.8380   9.0020   24.5510
H   16.1540   8.1380   25.1280
C   10.9060   11.5230   15.8000
H   10.2660   12.1380   16.4450
H   11.8110   12.1010   15.5760
H   11.3030   10.7560   16.4760
C   10.1450   10.8230   14.6590
C   8.8800   11.1470   14.2680
H   8.3050   11.8430   14.8720
C   8.2310   10.3560   13.3000
H   7.1860   10.6060   13.1480
C   8.9080   9.2900   12.6040
H   8.3580   8.8160   11.7960
C   10.2410   9.0790   12.9680
H   10.7620   8.2900   12.4330
C   10.8540   9.7140   14.0870
H   11.8650   9.4940   14.4180
C   12.4900   20.4970   8.7300
H   11.7150   20.4740   7.9540
H   12.2270   19.9760   9.6590
H   13.3460   20.0150   8.2410
C   12.8650   21.9680   8.9270
C   12.1420   22.7970   9.8120
H   11.2610   22.4200   10.3220
C   12.3840   24.1720   9.8850
H   11.8920   24.7890   10.6310
C   13.4520   24.6990   9.1480
H   13.6750   25.7620   9.1740
C   14.2260   23.9500   8.2820
H   15.0110   24.4020   7.6830
C   13.8970   22.5400   8.1400
H   14.4070   21.9210   7.4080
C   25.2240   23.2580   12.7270
H   25.5120   24.3000   12.9180
H   24.9920   23.1420   11.6620
H   26.0960   22.6100   12.8790
C   24.1020   22.8110   13.7090
C   24.1040   23.2240   14.9730
H   24.9610   23.8230   15.2650
C   23.1140   22.7650   15.8740
H   23.0750   23.1170   16.9010
C   22.0540   21.9550   15.3630
H   21.3500   21.5740   16.0970
C   21.9790   21.6570   14.0120
H   21.2210   20.9940   13.6040
C   22.9780   22.0850   13.1860
H   22.9530   21.7500   12.1530
C   15.9690   24.2190   11.3740
H   16.8540   24.6850   11.8250
H   15.3350   25.1120   11.4330
H   16.1270   23.9390   10.3250
C   15.4160   23.1270   12.1800
C   15.0320   21.8940   11.5900
H   15.1170   21.7510   10.5170
C   14.4730   20.9160   12.4130
H   14.1800   19.9440   12.0280
C   14.3810   21.0610   13.7930
H   14.0500   20.2450   14.4290
C   14.8220   22.2110   14.4320
H   14.6700   22.2620   15.5060
C   15.2630   23.2580   13.6150
H   15.6250   24.2030   14.0110
C   7.9820   23.6640   20.2210
H   7.6700   24.1780   19.3030
H   8.8810   24.2110   20.5300
H   7.2090   23.8760   20.9700
C   8.2150   22.1450   20.0450
C   8.9820   21.3660   20.9660
H   9.4280   21.8310   21.8400
C   9.3410   20.0110   20.7260
H   9.9200   19.4750   21.4720
C   8.8720   19.3730   19.6080
H   9.2540   18.3910   19.3440
C   8.1140   20.1330   18.6130
H   7.8040   19.7260   17.6550
C   7.8120   21.5360   18.8670
H   7.2650   22.1110   18.1260
C   16.6400   17.6150   24.7630
H   16.2880   18.1500   25.6540
H   16.0580   17.8970   23.8770
H   17.6690   17.9180   24.5330
C   16.4320   16.1690   24.9640
C   17.4700   15.2850   24.7630
H   18.3820   15.6110   24.2700
C   17.2870   13.9420   25.1470
H   18.0430   13.2190   24.8550
C   16.0500   13.5080   25.7080
H   15.9690   12.4530   25.9550
C   15.0160   14.4460   25.9100
H   14.0840   14.0850   26.3350
C   15.2290   15.7710   25.5010
H   14.4230   16.4770   25.6750
C   9.8970   25.7470   14.8340
H   9.2600   26.2100   14.0700
H   10.9030   26.1810   14.8020
H   9.4340   25.9280   15.8120
C   10.1050   24.2760   14.5480
C   9.4830   23.4020   15.4380
H   8.7910   23.7840   16.1820
C   9.7180   22.0020   15.3700
H   9.2880   21.4530   16.2030
C   10.5190   21.4980   14.3610
H   10.5880   20.4200   14.2480
C   11.0160   22.3430   13.3520
H   11.7280   21.9650   12.6240
C   10.8610   23.7380   13.4830
H   11.4610   24.3570   12.8230
C   21.4460   7.1060   12.4470
H   20.6860   6.3340   12.6150
H   22.2500   6.4780   12.0440
H   21.0510   7.7230   11.6300
C   21.6030   8.0210   13.6490
C   21.7540   7.6760   14.9780
H   21.7640   6.6430   15.3150
C   21.9350   8.6230   16.0550
H   22.0640   8.3230   17.0910
C   22.1380   9.9860   15.6920
H   22.3350   10.8010   16.3830
C   22.0340   10.3260   14.3310
H   22.1590   11.3300   13.9360
C   21.6750   9.3700   13.3830
H   21.5590   9.7230   12.3630
C   22.9880   17.6800   12.2810
H   22.9180   16.8740   13.0210
H   23.7730   18.3620   12.6300
H   23.2480   17.2650   11.3000
C   21.6550   18.3490   12.1870
C   20.6220   18.0880   13.0570
H   20.7970   17.3350   13.8210
C   19.4340   18.7990   13.0450
H   18.7570   18.7330   13.8920
C   19.1760   19.7760   12.0220
H   18.2920   20.4060   12.0440
C   20.1570   19.9410   11.0580
H   19.9550   20.5700   10.1960
C   21.4170   19.2580   11.1840
H   22.2080   19.5330   10.4920
C   11.5670   16.9320   9.5720
H   12.2140   17.1360   8.7100
H   11.2820   15.8920   9.3700
H   12.1900   17.0270   10.4710
C   10.3380   17.8120   9.7330
C   9.4070   17.9080   8.6630
H   9.2760   17.1270   7.9200
C   8.4820   18.9870   8.6270
H   7.7350   19.0310   7.8400
C   8.4710   19.9600   9.6310
H   7.7480   20.7700   9.6540
C   9.3540   19.8350   10.7390
H   9.3650   20.4890   11.6050
C   10.1940   18.7130   10.7970
H   10.9300   18.6810   11.5950
C   12.7180   16.6050   23.0210
H   12.8130   16.8270   21.9510
H   13.7280   16.3210   23.3450
H   12.5000   17.5290   23.5710
C   11.8010   15.4010   23.1530
C   10.6200   15.4240   22.3970
H   10.4520   16.2470   21.7090
C   9.7560   14.2780   22.4410
H   8.8510   14.2660   21.8410
C   10.0090   13.2210   23.3230
H   9.3460   12.3640   23.2430
C   11.1890   13.1930   24.0600
H   11.5060   12.4190   24.7520
C   12.1210   14.2630   23.8890
H   13.0670   14.1720   24.4150
C   18.8420   17.6350   27.7520
H   18.1240   17.0240   28.3120
H   18.2540   18.2490   27.0590
H   19.3830   18.2440   28.4880
C   19.7860   16.8740   26.9420
C   20.9230   17.5130   26.3330
H   21.0460   18.5910   26.2770
C   21.9600   16.7460   25.6900
H   22.7590   17.2130   25.1220
C   21.8200   15.3540   25.7340
H   22.5620   14.8350   25.1340
C   20.7780   14.7860   26.4240
H   20.6730   13.7070   26.4980
C   19.7540   15.4920   26.9560
H   18.9700   15.0490   27.5620
C   25.2430   22.7500   18.9430
H   24.6510   23.3730   19.6240
H   24.6070   22.0920   18.3390
H   25.7690   23.4530   18.2840
C   26.2890   22.0890   19.8050
C   27.6530   22.5380   19.7650
H   27.8930   23.3990   19.1490
C   28.6720   21.9360   20.4790
H   29.6960   22.2960   20.4470
C   28.3120   20.9270   21.3620
H   29.1140   20.5670   22.0000
C   26.9480   20.4890   21.5060
H   26.7050   19.7450   22.2580
C   25.9360   21.0700   20.7010
H   24.8820   20.8350   20.8180
C   8.6660   14.0750   6.3660
H   9.5670   14.3180   5.7890
H   8.3130   15.1000   6.5330
H   8.0120   13.6260   5.6080
C   8.9520   13.1750   7.5700
C   9.2520   13.8780   8.7390
H   9.0790   14.9490   8.7860
C   9.7250   13.1670   9.8870
H   10.1540   13.6370   10.7670
C   9.7320   11.7360   9.9480
H   9.9080   11.1180   10.8230
C   9.4160   11.0830   8.7270
H   9.5500   10.0100   8.6190
C   9.0570   11.7790   7.5340
H   8.9280   11.2640   6.5870
C   8.9500   11.1620   20.3870
H   9.6770   10.3770   20.1430
H   8.1570   10.6850   20.9760
H   9.5010   11.9120   20.9680
C   8.2120   11.8340   19.2710
C   8.5700   13.1620   18.8940
H   9.3950   13.6460   19.4100
C   7.8880   13.7660   17.8650
H   8.0520   14.7920   17.5510
C   6.8730   13.0430   17.1600
H   6.3940   13.5060   16.3020
C   6.6020   11.7170   17.5240
H   5.9300   11.0650   16.9750
C   7.2670   11.0920   18.5130
H   6.9380   10.1170   18.8610
C   26.4570   12.4450   13.5550
H   27.1280   12.9590   14.2540
H   26.8800   12.5280   12.5470
H   26.3480   11.3870   13.8240
C   25.0650   13.0040   13.5080
C   24.3200   13.0670   12.3170
H   24.6950   12.4320   11.5200
C   23.1080   13.7070   12.1810
H   22.5800   13.8270   11.2400
C   22.5170   14.2950   13.4070
H   21.5280   14.7440   13.3850
C   23.1780   14.0720   14.6700
H   22.7680   14.3710   15.6300
C   24.4820   13.4620   14.6840
H   25.0670   13.3620   15.5930
C   17.5710   21.2480   6.8890
H   18.6510   21.3700   6.7390
H   17.1030   22.0750   7.4370
H   17.0720   21.3190   5.9150
C   17.2290   19.8820   7.3990
C   18.1980   19.0800   7.9940
H   19.2050   19.4850   8.0050
C   17.9790   17.8310   8.6610
H   18.7330   17.2870   9.2230
C   16.6260   17.3740   8.6220
H   16.3320   16.4460   9.1030
C   15.6520   18.0670   7.8430
H   14.6170   17.7430   7.7980
C   15.9210   19.3400   7.2650
H   15.0810   19.8910   6.8510
C   21.3760   21.0260   23.7240
H   20.4220   20.4870   23.7730
H   21.7020   21.4030   24.7020
H   22.0140   20.1900   23.4130
C   21.3200   22.2390   22.7430
C   21.4220   21.9180   21.3730
H   21.5590   20.8770   21.0950
C   21.1640   22.8820   20.4680
H   21.2420   22.6310   19.4150
C   20.8980   24.2170   20.9180
H   20.7360   25.0150   20.1990
C   20.8810   24.5300   22.2790
H   20.7390   25.5510   22.6190
C   21.0600   23.5250   23.2330
H   21.0710   23.7440   24.2960
C   13.4980   11.9160   9.8290
H   12.9760   11.0440   9.4180
H   12.8920   12.3220   10.6480
H   14.4620   11.6150   10.2580
C   13.7160   13.0320   8.7680
C   15.0200   13.6160   8.6070
H   15.8970   13.3430   9.1870
C   15.2000   14.6260   7.6390
H   16.2250   14.9300   7.4480
C   14.1260   14.9630   6.7830
H   14.1730   15.7170   6.0030
C   12.8520   14.5840   7.1130
H   12.0640   15.0130   6.5020
C   12.6470   13.5090   8.0450
H   11.7110   12.9710   8.1580
C   19.7440   10.5210   20.4450
H   19.1710   11.4550   20.4980
H   19.2620   9.7620   21.0740
H   19.7140   10.3290   19.3650
C   21.1430   10.7570   21.0140
C   22.2290   10.3180   20.2850
H   22.1500   9.9270   19.2750
C   23.5250   10.5680   20.8390
H   24.4000   10.2310   20.2920
C   23.7170   11.1630   22.0780
H   24.7300   11.2050   22.4680
C   22.5380   11.3930   22.8610
H   22.7390   11.7980   23.8480
C   21.2670   11.2310   22.2990
H   20.3950   11.6100   22.8240
C   29.8070   21.0370   16.6750
H   29.7320   22.0770   16.3350
H   30.3810   20.5460   15.8790
H   30.3680   20.9570   17.6140
C   28.4450   20.3010   16.9690
C   28.2260   19.5640   18.1860
H   29.0220   19.4550   18.9170
C   26.8940   19.1050   18.4470
H   26.6720   18.4880   19.3130
C   25.8510   19.3550   17.6180
H   24.8790   18.9520   17.8890
C   26.0900   20.0720   16.3750
H   25.2500   20.2200   15.7020
C   27.3720   20.5830   16.0780
H   27.4500   21.3560   15.3190
C   18.5500   10.0140   11.4130
H   18.7830   9.7570   12.4530
H   19.3500   9.5800   10.8000
H   17.6150   9.5640   11.0570
C   18.6360   11.5680   11.2050
C   19.5130   12.2330   10.3370
H   20.2410   11.5850   9.8580
C   19.5720   13.6310   10.2560
H   20.3650   14.1740   9.7510
C   18.5680   14.3480   10.9390
H   18.6520   15.4260   10.8390
C   17.6480   13.7120   11.7250
H   17.1040   14.3100   12.4500
C   17.7060   12.3240   11.9490
H   17.2340   11.8230   12.7890
C   22.1020   25.4310   5.5970
H   21.4160   26.2880   5.5930
H   21.7860   24.8510   4.7220
H   23.1330   25.7650   5.4260
C   21.9980   24.6230   6.8970
C   21.0770   23.5600   6.9970
H   20.5490   23.2000   6.1180
C   20.8770   22.8840   8.2000
H   20.2320   22.0110   8.2230
C   21.4880   23.3510   9.3830
H   21.2750   22.8260   10.3090
C   22.4070   24.4640   9.3180
H   22.8440   24.9190   10.2020
C   22.7460   25.0220   8.0470
H   23.4980   25.8030   7.9750
C   19.3742   18.5207   21.4612
H   20.1325   18.5009   22.2424
H   18.7620   19.4073   21.5678
H   19.9300   18.6441   20.5394
C   18.5124   17.2736   21.4524
C   17.1068   17.2982   21.2383
H   16.6320   18.2591   21.0378
C   16.3700   16.1020   21.2216
H   15.3035   16.1481   21.0190
C   16.9949   14.8735   21.4118
H   16.4022   13.9708   21.4455
C   18.3758   14.8463   21.6393
H   18.8644   13.8918   21.7732
C   19.1212   16.0214   21.6420
H   20.1945   15.9140   21.7655
562
Frame 28
C   16.2489   16.0006   17.2545
C   18.6067   16.6543   16.8063
C   15.7825   17.5130   17.4419
C   19.2963   16.0245   18.0080
C   19.5294   16.7819   15.6168
N   17.4400   15.8991   16.4712
N   15.2166   15.1839   16.6995
O   15.2563   18.1085   16.2625
H   14.3182   17.9379   16.2522
H   17.2594   15.7451   15.4975
H   16.5252   15.6891   18.2658
H   18.3426   17.6743   17.0526
H   14.3800   14.9536   17.2190
H   15.2615   15.0610   15.7026
H   16.6135   18.1259   17.8025
H   15.0463   17.4929   18.2682
H   20.1050   16.6924   18.3651
H   18.9722   16.8461   14.6957
H   19.7151   15.0535   17.7263
H   18.5581   15.8609   18.7866
H   20.1394   17.6733   15.7029
H   20.2390   15.9384   15.5154
C   31.0130   13.4690   20.5000
H   31.2490   12.6100   21.1410
H   31.6000   14.3580   20.7590
H   31.3090   13.1730   19.4860
C   29.5240   13.6930   20.5110
C   28.9490   14.9820   20.4600
H   29.6230   15.8190   20.3030
C   27.5460   15.1780   20.4020
H   27.1240   16.1710   20.2790
C   26.7510   14.0910   20.7820
H   25.6720   14.1250   20.8970
C   27.2930   12.7880   20.7300
H   26.5470   12.0120   20.8740
C   28.6890   12.5880   20.6520
H   29.0430   11.5650   20.7440
C   9.2210   14.9750   13.0480
H   9.9180   14.2170   12.6700
H   8.7250   15.4390   12.1860
H   8.5460   14.3880   13.6810
C   9.9500   16.0790   13.9260
C   11.1730   16.6700   13.5290
H   11.6950   16.2330   12.6830
C   11.7790   17.6500   14.3810
H   12.6890   18.1940   14.1470
C   11.0580   18.1190   15.4870
H   11.4490   19.0070   15.9740
C   9.8790   17.5550   15.8260
H   9.3990   17.9040   16.7360
C   9.3470   16.4720   15.1090
H   8.3400   16.1840   15.3940
C   13.1040   20.9490   22.1230
H   12.1100   21.0700   22.5720
H   13.3280   19.8760   22.1570
H   12.9300   21.4440   21.1600
C   14.1720   21.7290   22.9410
C   13.9780   23.0550   23.3640
H   12.9880   23.4780   23.2220
C   14.9570   23.7090   24.0980
H   14.8720   24.7370   24.4370
C   16.0910   23.0190   24.4910
H   16.8240   23.5570   25.0840
C   16.3390   21.7000   24.0260
H   17.2960   21.2060   24.1580
C   15.3480   21.0720   23.2660
H   15.4870   20.1110   22.7800
C   22.3270   16.0930   8.4030
H   22.3260   16.2600   9.4870
H   21.4310   15.6720   7.9300
H   22.4190   17.0690   7.9110
C   23.4930   15.2320   7.9250
C   24.6760   15.8080   7.3600
H   24.7170   16.8840   7.2220
C   25.8340   15.0550   7.0100
H   26.7290   15.6050   6.7360
C   25.7140   13.6410   7.1510
H   26.5440   12.9840   6.9070
C   24.5170   13.0840   7.6510
H   24.4140   12.0140   7.8020
C   23.4280   13.8620   7.9640
H   22.4620   13.4500   8.2420
C   13.3770   8.3710   11.1840
H   13.9280   8.9300   11.9500
H   12.7730   7.5980   11.6750
H   12.7470   9.0620   10.6100
C   14.2950   7.7300   10.0940
C   14.0090   6.4760   9.6240
H   13.0770   6.0180   9.9390
C   14.8900   5.7890   8.7340
H   14.6040   4.8470   8.2740
C   16.0940   6.4030   8.4280
H   16.8170   5.9830   7.7360
C   16.3240   7.7020   8.8800
H   17.2290   8.1990   8.5440
C   15.3900   8.3770   9.6670
H   15.4990   9.4410   9.8550
C   22.3720   27.5750   12.3440
H   22.6740   28.6260   12.2520
H   21.8660   27.2750   11.4180
H   23.3360   27.0640   12.4640
C   21.5860   27.1640   13.5380
C   20.6270   26.1270   13.4710
H   20.5230   25.5770   12.5400
C   19.8190   25.9080   14.6070
H   19.0410   25.1530   14.6740
C   19.8330   26.8130   15.6810
H   19.1800   26.6280   16.5280
C   20.7150   27.8320   15.6880
H   20.6750   28.5050   16.5390
C   21.6510   27.9300   14.6880
H   22.3640   28.7490   14.7160
C   26.3230   15.1720   24.4190
H   27.1730   15.7810   24.7530
H   26.9100   14.3730   23.9500
H   25.8350   14.6810   25.2700
C   25.2980   15.8310   23.5700
C   25.3310   17.2270   23.3880
H   26.0260   17.7850   24.0090
C   24.4240   17.8360   22.4700
H   24.3120   18.9080   22.3350
C   23.4800   16.9710   21.8510
H   22.7300   17.3880   21.1860
C   23.4350   15.6140   22.0990
H   22.6180   15.0160   21.7070
C   24.3990   15.0550   22.9540
H   24.2710   14.0400   23.3190
C   12.5310   21.3930   17.8850
H   13.2140   21.0900   17.0820
H   11.5950   21.6280   17.3640
H   12.3060   20.6590   18.6680
C   13.0320   22.5830   18.7360
C   12.2150   23.1990   19.6560
H   11.1450   23.0160   19.6540
C   12.8150   24.0790   20.5840
H   12.1470   24.6520   21.2210
C   14.2070   24.1490   20.7110
H   14.6570   24.8010   21.4530
C   15.0790   23.3670   19.9600
H   16.1550   23.3650   20.1040
C   14.4560   22.6230   18.9390
H   15.0290   21.9490   18.3100
C   14.8830   6.8570   21.3950
H   14.5830   5.8040   21.4680
H   14.1110   7.5640   21.0690
H   14.9540   7.1620   22.4460
C   16.2700   6.9730   20.7720
C   17.3370   6.4110   21.5060
H   17.0910   5.8820   22.4210
C   18.6390   6.6200   20.9560
H   19.4860   6.2070   21.4970
C   18.8360   7.1840   19.6870
H   19.8020   7.2850   19.2010
C   17.7740   7.7920   19.0310
H   17.9360   8.3530   18.1150
C   16.4720   7.7040   19.5680
H   15.6290   8.1750   19.0710
C   14.8160   10.5740   15.3720
H   14.3440   11.0040   14.4800
H   15.1400   11.3900   16.0290
H   13.9830   10.0440   15.8500
C   15.8760   9.5730   14.9300
C   15.5810   8.3740   14.2260
H   14.5360   8.2410   13.9630
C   16.5460   7.4790   13.7060
H   16.2100   6.6290   13.1200
C   17.8520   7.6230   14.2370
H   18.6540   6.9360   13.9850
C   18.1870   8.7030   14.9950
H   19.2350   8.8200   15.2580
C   17.2460   9.6850   15.4350
H   17.6780   10.4650   16.0550
C   8.0650   7.4040   17.5740
H   8.1270   8.0850   16.7160
H   7.5600   7.9240   18.3970
H   7.4880   6.4980   17.3480
C   9.4790   7.0660   18.0080
C   10.5440   7.9760   17.7650
H   10.3730   8.9450   17.3060
C   11.8290   7.6370   18.2640
H   12.7100   8.2510   18.1010
C   12.0090   6.4900   19.0190
H   13.0130   6.2290   19.3400
C   10.9610   5.6080   19.2070
H   11.1880   4.6980   19.7550
C   9.6610   5.8390   18.6640
H   8.8970   5.0800   18.8040
C   18.2400   9.3350   23.8980
H   18.4220   9.0030   24.9280
H   18.8890   10.1800   23.6390
H   18.3460   8.4310   23.2860
C   16.8430   9.7990   23.8620
C   16.4750   10.9760   23.2580
H   17.2340   11.5320   22.7170
C   15.1310   11.3650   23.2170
H   14.8330   12.3010   22.7540
C   14.1480   10.5800   23.8790
H   13.1240   10.9410   23.8510
C   14.5070   9.3760   24.4910
H   13.6960   8.7620   24.8720
C   15.8380   9.0020   24.5510
H   16.1540   8.1380   25.1280
C   10.9060   11.5230   15.8000
H   10.2660   12.1380   16.4450
H   11.8110   12.1010   15.5760
H   11.3030   10.7560   16.4760
C   10.1450   10.8230   14.6590
C   8.8800   11.1470   14.2680
H   8.3050   11.8430   14.8720
C   8.2310   10.3560   13.3000
H   7.1860   10.6060   13.1480
C   8.9080   9.2900   12.6040
H   8.3580   8.8160   11.7960
C   10.2410   9.0790   12.9680
H   10.7620   8.2900   12.4330
C   10.8540   9.7140   14.0870
H   11.8650   9.4940   14.4180
C   12.4900   20.4970   8.7300
H   11.7150   20.4740   7.9540
H   12.2270   19.9760   9.6590
H   13.3460   20.0150   8.2410
C   12.8650   21.9680   8.9270
C   12.1420   22.7970   9.8120
H   11.2610   22.4200   10.3220
C   12.3840   24.1720   9.8850
H   11.8920   24.7890   10.6310
C   13.4520   24.6990   9.1480
H   13.6750   25.7620   9.1740
C   14.2260   23.9500   8.2820
H   15.0110   24.4020   7.6830
C   13.8970   22.5400   8.1400
H   14.4070   21.9210   7.4080
C   25.2240   23.2580   12.7270
H   25.5120   24.3000   12.9180
H   24.9920   23.1420   11.6620
H   26.0960   22.6100   12.8790
C   24.1020   22.8110   13.7090
C   24.1040   23.2240   14.9730
H   24.9610   23.8230   15.2650
C   23.1140   22.7650   15.8740
H   23.0750   23.1170   16.9010
C   22.0540   21.9550   15.3630
H   21.3500   21.5740   16.0970
C   21.9790   21.6570   14.0120
H   21.2210   20.9940   13.6040
C   22.9780   22.0850   13.1860
H   22.9530   21.7500   12.1530
C   15.9690   24.2190   11.3740
H   16.8540   24.6850   11.8250
H   15.3350   25.1120   11.4330
H   16.1270   23.9390   10.3250
C   15.4160   23.1270   12.1800
C   15.0320   21.8940   11.5900
H   15.1170   21.7510   10.5170
C   14.4730   20.9160   12.4130
H   14.1800   19.9440   12.0280
C   14.3810   21.0610   13.7930
H   14.0500   20.2450   14.4290
C   14.8220   22.2110   14.4320
H   14.6700   22.2620   15.5060
C   15.2630   23.2580   13.6150
H   15.6250   24.2030   14.0110
C   7.9820   23.6640   20.2210
H   7.6700   24.1780   19.3030
H   8.8810   24.2110   20.5300
H   7.2090   23.8760   20.9700
C   8.2150   22.1450   20.0450
C   8.9820   21.3660   20.9660
H   9.4280   21.8310   21.8400
C   9.3410   20.0110   20.7260
H   9.9200   19.4750   21.4720
C   8.8720   19.3730   19.6080
H   9.2540   18.3910   19.3440
C   8.1140   20.1330   18.6130
H   7.8040   19.7260   17.6550
C   7.8120   21.5360   18.8670
H   7.2650   22.1110   18.1260
C   16.6400   17.6150   24.7630
H   16.2880   18.1500   25.6540
H   16.0580   17.8970   23.8770
H   17.6690   17.9180   24.5330
C   16.4320   16.1690   24.9640
C   17.4700   15.2850   24.7630
H   18.3820   15.6110   24.2700
C   17.2870   13.9420   25.1470
H   18.0430   13.2190   24.8550
C   16.0500   13.5080   25.7080
H   15.9690   12.4530   25.9550
C   15.0160   14.4460   25.9100
H   14.0840   14.0850   26.3350
C   15.2290   15.7710   25.5010
H   14.4230   16.4770   25.6750
C   9.8970   25.7470   14.8340
H   9.2600   26.2100   14.0700
H   10.9030   26.1810   14.8020
H   9.4340   25.9280   15.8120
C   10.1050   24.2760   14.5480
C   9.4830   23.4020   15.4380
H   8.7910   23.7840   16.1820
C   9.7180   22.0020   15.3700
H   9.2880   21.4530   16.2030
C   10.5190   21.4980   14.3610
H   10.5880   20.4200   14.2480
C   11.0160   22.3430   13.3520
H   11.7280   21.9650   12.6240
C   10.8610   23.7380   13.4830
H   11.4610   24.3570   12.8230
C   21.4460   7.1060   12.4470
H   20.6860   6.3340   12.6150
H   22.2500   6.4780   12.0440
H   21.0510   7.7230   11.6300
C   21.6030   8.0210   13.6490
C   21.7540   7.6760   14.9780
H   21.7640   6.6430   15.3150
C   21.9350   8.6230   16.0550
H   22.0640   8.3230   17.0910
C   22.1380   9.9860   15.6920
H   22.3350   10.8010   16.3830
C   22.0340   10.3260   14.3310
H   22.1590   11.3300   13.9360
C   21.6750   9.3700   13.3830
H   21.5590   9.7230   12.3630
C   22.9880   17.6800   12.2810
H   22.9180   16.8740   13.0210
H   23.7730   18.3620   12.6300
H   23.2480   17.2650   11.3000
C   21.6550   18.3490   12.1870
C   20.6220   18.0880   13.0570
H   20.7970   17.3350   13.8210
C   19.4340   18.7990   13.0450
H   18.7570   18.7330   13.8920
C   19.1760   19.7760   12.0220
H   18.2920   20.4060   12.0440
C   20.1570   19.9410   11.0580
H   19.9550   20.5700   10.1960
C   21.4170   19.2580   11.1840
H   22.2080   19.5330   10.4920
C   11.5670   16.9320   9.5720
H   12.2140   17.1360   8.7100
H   11.2820   15.8920   9.3700
H   12.1900   17.0270   10.4710
C   10.3380   17.8120   9.7330
C   9.4070   17.9080   8.6630
H   9.2760   17.1270   7.9200
C   8.4820   18.9870   8.6270
H   7.7350   19.0310   7.8400
C   8.4710   19.9600   9.6310
H   7.7480   20.7700   9.6540
C   9.3540   19.8350   10.7390
H   9.3650   20.4890   11.6050
C   10.1940   18.7130   10.7970
H   10.9300   18.6810   11.5950
C   12.7180   16.6050   23.0210
H   12.8130   16.8270   21.9510
H   13.7280   16.3210   23.3450
H   12.5000   17.5290   23.5710
C   11.8010   15.4010   23.1530
C   10.6200   15.4240   22.3970
H   10.4520   16.2470   21.7090
C   9.7560   14.2780   22.4410
H   8.8510   14.2660   21.8410
C   10.0090   13.2210   23.3230
H   9.3460   12.3640   23.2430
C   11.1890   13.1930   24.0600
H   11.5060   12.4190   24.7520
C   12.1210   14.2630   23.8890
H   13.0670   14.1720   24.4150
C   18.8420   17.6350   27.7520
H   18.1240   17.0240   28.3120
H   18.2540   18.2490   27.0590
H   19.3830   18.2440   28.4880
C   19.7860   16.8740   26.9420
C   20.9230   17.5130   26.3330
H   21.0460   18.5910   26.2770
C   21.9600   16.7460   25.6900
H   22.7590   17.2130   25.1220
C   21.8200   15.3540   25.7340
H   22.5620   14.8350   25.1340
C   20.7780   14.7860   26.4240
H   20.6730   13.7070   26.4980
C   19.7540   15.4920   26.9560
H   18.9700   15.0490   27.5620
C   25.2430   22.7500   18.9430
H   24.6510   23.3730   19.6240
H   24.6070   22.0920   18.3390
H   25.7690   23.4530   18.2840
C   26.2890   22.0890   19.8050
C   27.6530   22.5380   19.7650
H   27.8930   23.3990   19.1490
C   28.6720   21.9360   20.4790
H   29.6960   22.2960   20.4470
C   28.3120   20.9270   21.3620
H   29.1140   20.5670   22.0000
C   26.9480   20.4890   21.5060
H   26.7050   19.7450   22.2580
C   25.9360   21.0700   20.7010
H   24.8820   20.8350   20.8180
C   8.6660   14.0750   6.3660
H   9.5670   14.3180   5.7890
H   8.3130   15.1000   6.5330
H   8.0120   13.6260   5.6080
C   8.9520   13.1750   7.5700
C   9.2520   13.8780   8.7390
H   9.0790   14.9490   8.7860
C   9.7250   13.1670   9.8870
H   10.1540   13.6370   10.7670
C   9.7320   11.7360   9.9480
H   9.9080   11.1180   10.8230
C   9.4160   11.0830   8.7270
H   9.5500   10.0100   8.6190
C   9.0570   11.7790   7.5340
H   8.9280   11.2640   6.5870
C   8.9500   11.1620   20.3870
H   9.6770   10.3770   20.1430
H   8.1570   10.6850   20.9760
H   9.5010   11.9120   20.9680
C   8.2120   11.8340   19.2710
C   8.5700   13.1620   18.8940
H   9.3950   13.6460   19.4100
C   7.8880   13.7660   17.8650
H   8.0520   14.7920   17.5510
C   6.8730   13.0430   17.1600
H   6.3940   13.5060   16.3020
C   6.6020   11.7170   17.5240
H   5.9300   11.0650   16.9750
C   7.2670   11.0920   18.5130
H   6.9380   10.1170   18.8610
C   26.4570   12.4450   13.5550
H   27.1280   12.9590   14.2540
H   26.8800   12.5280   12.5470
H   26.3480   11.3870   13.8240
C   25.0650   13.0040   13.5080
C   24.3200   13.0670   12.3170
H   24.6950   12.4320   11.5200
C   23.1080   13.7070   12.1810
H   22.5800   13.8270   11.2400
C   22.5170   14.2950   13.4070
H   21.5280   14.7440   13.3850
C   23.1780   14.0720   14.6700
H   22.7680   14.3710   15.6300
C   24.4820   13.4620   14.6840
H   25.0670   13.3620   15.5930
C   17.5710   21.2480   6.8890
H   18.6510   21.3700   6.7390
H   17.1030   22.0750   7.4370
H   17.0720   21.3190   5.9150
C   17.2290   19.8820   7.3990
C   18.1980   19.0800   7.9940
H   19.2050   19.4850   8.0050
C   17.9790   17.8310   8.6610
H   18.7330   17.2870   9.2230
C   16.6260   17.3740   8.6220
H   16.3320   16.4460   9.1030
C   15.6520   18.0670   7.8430
H   14.6170   17.7430   7.7980
C   15.9210   19.3400   7.2650
H   15.0810   19.8910   6.8510
C   21.3760   21.0260   23.7240
H   20.4220   20.4870   23.7730
H   21.7020   21.4030   24.7020
H   22.0140   20.1900   23.4130
C   21.3200   22.2390   22.7430
C   21.4220   21.9180   21.3730
H   21.5590   20.8770   21.0950
C   21.1640   22.8820   20.4680
H   21.2420   22.6310   19.4150
C   20.8980   24.2170   20.9180
H   20.7360   25.0150   20.1990
C   20.8810   24.5300   22.2790
H   20.7390   25.5510   22.6190
C   21.0600   23.5250   23.2330
H   21.0710   23.7440   24.2960
C   13.4980   11.9160   9.8290
H   12.9760   11.0440   9.4180
H   12.8920   12.3220   10.6480
H   14.4620   11.6150   10.2580
C   13.7160   13.0320   8.7680
C   15.0200   13.6160   8.6070
H   15.8970   13.3430   9.1870
C   15.2000   14.6260   7.6390
H   16.2250   14.9300   7.4480
C   14.1260   14.9630   6.7830
H   14.1730   15.7170   6.0030
C   12.8520   14.5840   7.1130
H   12.0640   15.0130   6.5020
C   12.6470   13.5090   8.0450
H   11.7110   12.9710   8.1580
C   19.7440   10.5210   20.4450
H   19.1710   11.4550   20.4980
H   19.2620   9.7620   21.0740
H   19.7140   10.3290   19.3650
C   21.1430   10.7570   21.0140
C   22.2290   10.3180   20.2850
H   22.1500   9.9270   19.2750
C   23.5250   10.5680   20.8390
H   24.4000   10.2310   20.2920
C   23.7170   11.1630   22.0780
H   24.7300   11.2050   22.4680
C   22.5380   11.3930   22.8610
H   22.7390   11.7980   23.8480
C   21.2670   11.2310   22.2990
H   20.3950   11.6100   22.8240
C   29.8070   21.0370   16.6750
H   29.7320   22.0770   16.3350
H   30.3810   20.5460   15.8790
H   30.3680   20.9570   17.6140
C   28.4450   20.3010   16.9690
C   28.2260   19.5640   18.1860
H   29.0220   19.4550   18.9170
C   26.8940   19.1050   18.4470
H   26.6720   18.4880   19.3130
C   25.8510   19.3550   17.6180
H   24.8790   18.9520   17.8890
C   26.0900   20.0720   16.3750
H   25.2500   20.2200   15.7020
C   27.3720   20.5830   16.0780
H   27.4500   21.3560   15.3190
C   18.5500   10.0140   11.4130
H   18.7830   9.7570   12.4530
H   19.3500   9.5800   10.8000
H   17.6150   9.5640   11.0570
C   18.6360   11.5680   11.2050
C   19.5130   12.2330   10.3370
H   20.2410   11.5850   9.8580
C   19.5720   13.6310   10.2560
H   20.3650   14.1740   9.7510
C   18.5680   14.3480   10.9390
H   18.6520   15.4260   10.8390
C   17.6480   13.7120   11.7250
H   17.1040   14.3100   12.4500
C   17.7060   12.3240   11.9490
H   17.2340   11.8230   12.7890
C   22.1020   25.4310   5.5970
H   21.4160   26.2880   5.5930
H   21.7860   24.8510   4.7220
H   23.1330   25.7650   5.4260
C   21.9980   24.6230   6.8970
C   21.0770   23.5600   6.9970
H   20.5490   23.2000   6.1180
C   20.8770   22.8840   8.2000
H   20.2320   22.0110   8.2230
C   21.4880   23.3510   9.3830
H   21.2750   22.8260   10.3090
C   22.4070   24.4640   9.3180
H   22.8440   24.9190   10.2020
C   22.7460   25.0220   8.0470
H   23.4980   25.8030   7.9750
C   19.3702   18.5181   21.4537
H   20.1100   18.5138   22.2456
H   18.7680   19.4182   21.5915
H   19.9244   18.6272   20.5300
C   18.5146   17.2689   21.4242
C   17.1375   17.2855   21.2422
H   16.6262   18.2627   21.0546
C   16.3745   16.1264   21.2118
H   15.3211   16.1579   21.0214
C   16.9904   14.8719   21.4230
H   16.4039   13.9620   21.4491
C   18.3581   14.8406   21.6352
H   18.8769   13.8834   21.7713
C   19.1132   15.9945   21.6305
H   20.1863   15.9392   21.7750
562
Frame 29
C   16.2482   16.0244   17.2653
C   18.6178   16.6544   16.8013
C   15.7830   17.4992   17.4515
C   19.2983   16.0253   18.0041
C   19.5401   16.7801   15.6097
N   17.4328   15.8948   16.4699
N   15.2255   15.1903   16.7031
O   15.2585   18.1080   16.2640
H   14.3167   17.9403   16.2520
H   17.2558   15.7368   15.4892
H   16.5218   15.6782   18.2631
H   18.3442   17.6788   17.0530
H   14.3843   14.9548   17.2104
H   15.2547   15.0544   15.7089
H   16.6030   18.1257   17.8012
H   15.0468   17.4993   18.2653
H   20.0977   16.6859   18.3675
H   18.9651   16.8468   14.6988
H   19.7158   15.0551   17.7295
H   18.5654   15.8629   18.7862
H   20.1384   17.6774   15.7061
H   20.2359   15.9352   15.5223
C   31.0130   13.4690   20.5000
H   31.2490   12.6100   21.1410
H   31.6000   14.3580   20.7590
H   31.3090   13.1730   19.4860
C   29.5240   13.6930   20.5110
C   28.9490   14.9820   20.4600
H   29.6230   15.8190   20.3030
C   27.5460   15.1780   20.4020
H   27.1240   16.1710   20.2790
C   26.7510   14.0910   20.7820
H   25.6720   14.1250   20.8970
C   27.2930   12.7880   20.7300
H   26.5470   12.0120   20.8740
C   28.6890   12.5880   20.6520
H   29.0430   11.5650   20.7440
C   9.2210   14.9750   13.0480
H   9.9180   14.2170   12.6700
H   8.7250   15.4390   12.1860
H   8.5460   14.3880   13.6810
C   9.9500   16.0790   13.9260
C   11.1730   16.6700   13.5290
H   11.6950   16.2330   12.6830
C   11.7790   17.6500   14.3810
H   12.6890   18.1940   14.1470
C   11.0580   18.1190   15.4870
H   11.4490   19.0070   15.9740
C   9.8790   17.5550   15.8260
H   9.3990   17.9040   16.7360
C   9.3470   16.4720   15.1090
H   8.3400   16.1840   15.3940
C   13.1040   20.9490   22.1230
H   12.1100   21.0700   22.5720
H   13.3280   19.8760   22.1570
H   12.9300   21.4440   21.1600
C   14.1720   21.7290   22.9410
C   13.9780   23.0550   23.3640
H   12.9880   23.4780   23.2220
C   14.9570   23.7090   24.0980
H   14.8720   24.7370   24.4370
C   16.0910   23.0190   24.4910
H   16.8240   23.5570   25.0840
C   16.3390   21.7000   24.0260
H   17.2960   21.2060   24.1580
C   15.3480   21.0720   23.2660
H   15.4870   20.1110   22.7800
C   22.3270   16.0930   8.4030
H   22.3260   16.2600   9.4870
H   21.4310   15.6720   7.9300
H   22.4190   17.0690   7.9110
C   23.4930   15.2320   7.9250
C   24.6760   15.8080   7.3600
H   24.7170   16.8840   7.2220
C   25.8340   15.0550   7.0100
H   26.7290   15.6050   6.7360
C   25.7140   13.6410   7.1510
H   26.5440   12.9840   6.9070
C   24.5170   13.0840   7.6510
H   24.4140   12.0140   7.8020
C   23.4280   13.8620   7.9640
H   22.4620   13.4500   8.2420
C   13.3770   8.3710   11.1840
H   13.9280   8.9300   11.9500
H   12.7730   7.5980   11.6750
H   12.7470   9.0620   10.6100
C   14.2950   7.7300   10.0940
C   14.0090   6.4760   9.6240
H   13.0770   6.0180   9.9390
C   14.8900   5.7890   8.7340
H   14.6040   4.8470   8.2740
C   16.0940   6.4030   8.4280
H   16.8170   5.9830   7.7360
C   16.3240   7.7020   8.8800
H   17.2290   8.1990   8.5440
C   15.3900   8.3770   9.6670
H   15.4990   9.4410   9.8550
C   22.3720   27.5750   12.3440
H   22.6740   28.6260   12.2520
H   21.8660   27.2750   11.4180
H   23.3360   27.0640   12.4640
C   21.5860   27.1640   13.5380
C   20.6270   26.1270   13.4710
H   20.5230   25.5770   12.5400
C   19.8190   25.9080   14.6070
H   19.0410   25.1530   14.6740
C   19.8330   26.8130   15.6810
H   19.1800   26.6280   16.5280
C   20.7150   27.8320   15.6880
H   20.6750   28.5050   16.5390
C   21.6510   27.9300   14.6880
H   22.3640   28.7490   14.7160
C   26.3230   15.1720   24.4190
H   27.1730   15.7810   24.7530
H   26.9100   14.3730   23.9500
H   25.8350   14.6810   25.2700
C   25.2980   15.8310   23.5700
C   25.3310   17.2270   23.3880
H   26.0260   17.7850   24.0090
C   24.4240   17.8360   22.4700
H   24.3120   18.9080   22.3350
C   23.4800   16.9710   21.8510
H   22.7300   17.3880   21.1860
C   23.4350   15.6140   22.0990
H   22.6180   15.0160   21.7070
C   24.3990   15.0550   22.9540
H   24.2710   14.0400   23.3190
C   12.5310   21.3930   17.8850
H   13.2140   21.0900   17.0820
H   11.5950   21.6280   17.3640
H   12.3060   20.6590   18.6680
C   13.0320   22.5830   18.7360
C   12.2150   23.1990   19.6560
H   11.1450   23.0160   19.6540
C   12.8150   24.0790   20.5840
H   12.1470   24.6520   21.2210
C   14.2070   24.1490   20.7110
H   14.6570   24.8010   21.4530
C   15.0790   23.3670   19.9600
H   16.1550   23.3650   20.1040
C   14.4560   22.6230   18.9390
H   15.0290   21.9490   18.3100
C   14.8830   6.8570   21.3950
H   14.5830   5.8040   21.4680
H   14.1110   7.5640   21.0690
H   14.9540   7.1620   22.4460
C   16.2700   6.9730   20.7720
C   17.3370   6.4110   21.5060
H   17.0910   5.8820   22.4210
C   18.6390   6.6200   20.9560
H   19.4860   6.2070   21.4970
C   18.8360   7.1840   19.6870
H   19.8020   7.2850   19.2010
C   17.7740   7.7920   19.0310
H   17.9360   8.3530   18.1150
C   16.4720   7.7040   19.5680
H   15.6290   8.1750   19.0710
C   14.8160   10.5740   15.3720
H   14.3440   11.0040   14.4800
H   15.1400   11.3900   16.0290
H   13.9830   10.0440   15.8500
C   15.8760   9.5730   14.9300
C   15.5810   8.3740   14.2260
H   14.5360   8.2410   13.9630
C   16.5460   7.4790   13.7060
H   16.2100   6.6290   13.1200
C   17.8520   7.6230   14.2370
H   18.6540   6.9360   13.9850
C   18.1870   8.7030   14.9950
H   19.2350   8.8200   15.2580
C   17.2460   9.6850   15.4350
H   17.6780   10.4650   16.0550
C   8.0650   7.4040   17.5740
H   8.1270   8.0850   16.7160
H   7.5600   7.9240   18.3970
H   7.4880   6.4980   17.3480
C   9.4790   7.0660   18.0080
C   10.5440   7.9760   17.7650
H   10.3730   8.9450   17.3060
C   11.8290   7.6370   18.2640
H   12.7100   8.2510   18.1010
C   12.0090   6.4900   19.0190
H   13.0130   6.2290   19.3400
C   10.9610   5.6080   19.2070
H   11.1880   4.6980   19.7550
C   9.6610   5.8390   18.6640
H   8.8970   5.0800   18.8040
C   18.2400   9.3350   23.8980
H   18.4220   9.0030   24.9280
H   18.8890   10.1800   23.6390
H   18.3460   8.4310   23.2860
C   16.8430   9.7990   23.8620
C   16.4750   10.9760   23.2580
H   17.2340   11.5320   22.7170
C   15.1310   11.3650   23.2170
H   14.8330   12.3010   22.7540
C   14.1480   10.5800   23.8790
H   13.1240   10.9410   23.8510
C   14.5070   9.3760   24.4910
H   13.6960   8.7620   24.8720
C   15.8380   9.0020   24.5510
H   16.1540   8.1380   25.1280
C   10.9060   11.5230   15.8000
H   10.2660   12.1380   16.4450
H   11.8110   12.1010   15.5760
H   11.3030   10.7560   16.4760
C   10.1450   10.8230   14.6590
C   8.8800   11.1470   14.2680
H   8.3050   11.8430   14.8720
C   8.2310   10.3560   13.3000
H   7.1860   10.6060   13.1480
C   8.9080   9.2900   12.6040
H   8.3580   8.8160   11.7960
C   10.2410   9.0790   12.9680
H   10.7620   8.2900   12.4330
C   10.8540   9.7140   14.0870
H   11.8650   9.4940   14.4180
C   12.4900   20.4970   8.7300
H   11.7150   20.4740   7.9540
H   12.2270   19.9760   9.6590
H   13.3460   20.0150   8.2410
C   12.8650   21.9680   8.9270
C   12.1420   22.7970   9.8120
H   11.2610   22.4200   10.3220
C   12.3840   24.1720   9.8850
H   11.8920   24.7890   10.6310
C   13.4520   24.6990   9.1480
H   13.6750   25.7620   9.1740
C   14.2260   23.9500   8.2820
H   15.0110   24.4020   7.6830
C   13.8970   22.5400   8.1400
H   14.4070   21.9210   7.4080
C   25.2240   23.2580   12.7270
H   25.5120   24.3000   12.9180
H   24.9920   23.1420   11.6620
H   26.0960   22.6100   12.8790
C   24.1020   22.8110   13.7090
C   24.1040   23.2240   14.9730
H   24.9610   23.8230   15.2650
C   23.1140   22.7650   15.8740
H   23.0750   23.1170   16.9010
C   22.0540   21.9550   15.3630
H   21.3500   21.5740   16.0970
C   21.9790   21.6570   14.0120
H   21.2210   20.9940   13.6040
C   22.9780   22.0850   13.1860
H   22.9530   21.7500   12.1530
C   15.9690   24.2190   11.3740
H   16.8540   24.6850   11.8250
H   15.3350   25.1120   11.4330
H   16.1270   23.9390   10.3250
C   15.4160   23.1270   12.1800
C   15.0320   21.8940   11.5900
H   15.1170   21.7510   10.5170
C   14.4730   20.9160   12.4130
H   14.1800   19.9440   12.0280
C   14.3810   21.0610   13.7930
H   14.0500   20.2450   14.4290
C   14.8220   22.2110   14.4320
H   14.6700   22.2620   15.5060
C   15.2630   23.2580   13.6150
H   15.6250   24.2030   14.0110
C   7.9820   23.6640   20.2210
H   7.6700   24.1780   19.3030
H   8.8810   24.2110   20.5300
H   7.2090   23.8760   20.9700
C   8.2150   22.1450   20.0450
C   8.9820   21.3660   20.9660
H   9.4280   21.8310   21.8400
C   9.3410   20.0110   20.7260
H   9.9200   19.4750   21.4720
C   8.8720   19.3730   19.6080
H   9.2540   18.3910   19.3440
C   8.1140   20.1330   18.6130
H   7.8040   19.7260   17.6550
C   7.8120   21.5360   18.8670
H   7.2650   22.1110   18.1260
C   16.6400   17.6150   24.7630
H   16.2880   18.1500   25.6540
H   16.0580   17.8970   23.8770
H   17.6690   17.9180   24.5330
C   16.4320   16.1690   24.9640
C   17.4700   15.2850   24.7630
H   18.3820   15.6110   24.2700
C   17.2870   13.9420   25.1470
H   18.0430   13.2190   24.8550
C   16.0500   13.5080   25.7080
H   15.9690   12.4530   25.9550
C   15.0160   14.4460   25.9100
H   14.0840   14.0850   26.3350
C   15.2290   15.7710   25.5010
H   14.4230   16.4770   25.6750
C   9.8970   25.7470   14.8340
H   9.2600   26.2100   14.0700
H   10.9030   26.1810   14.8020
H   9.4340   25.9280   15.8120
C   10.1050   24.2760   14.5480
C   9.4830   23.4020   15.4380
H   8.7910   23.7840   16.1820
C   9.7180   22.0020   15.3700
H   9.2880   21.4530   16.2030
C   10.5190   21.4980   14.3610
H   10.5880   20.4200   14.2480
C   11.0160   22.3430   13.3520
H   11.7280   21.9650   12.6240
C   10.8610   23.7380   13.4830
H   11.4610   24.3570   12.8230
C   21.4460   7.1060   12.4470
H   20.6860   6.3340   12.6150
H   22.2500   6.4780   12.0440
H   21.0510   7.7230   11.6300
C   21.6030   8.0210   13.6490
C   21.7540   7.6760   14.9780
H   21.7640   6.6430   15.3150
C   21.9350   8.6230   16.0550
H   22.0640   8.3230   17.0910
C   22.1380   9.9860   15.6920
H   22.3350   10.8010   16.3830
C   22.0340   10.3260   14.3310
H   22.1590   11.3300   13.9360
C   21.6750   9.3700   13.3830
H   21.5590   9.7230   12.3630
C   22.9880   17.6800   12.2810
H   22.9180   16.8740   13.0210
H   23.7730   18.3620   12.6300
H   23.2480   17.2650   11.3000
C   21.6550   18.3490   12.1870
C   20.6220   18.0880   13.0570
H   20.7970   17.3350   13.8210
C   19.4340   18.7990   13.0450
H   18.7570   18.7330   13.8920
C   19.1760   19.7760   12.0220
H   18.2920   20.4060   12.0440
C   20.1570   19.9410   11.0580
H   19.9550   20.5700   10.1960
C   21.4170   19.2580   11.1840
H   22.2080   19.5330   10.4920
C   11.5670   16.9320   9.5720
H   12.2140   17.1360   8.7100
H   11.2820   15.8920   9.3700
H   12.1900   17.0270   10.4710
C   10.3380   17.8120   9.7330
C   9.4070   17.9080   8.6630
H   9.2760   17.1270   7.9200
C   8.4820   18.9870   8.6270
H   7.7350   19.0310   7.8400
C   8.4710   19.9600   9.6310
H   7.7480   20.7700   9.6540
C   9.3540   19.8350   10.7390
H   9.3650   20.4890   11.6050
C   10.1940   18.7130   10.7970
H   10.9300   18.6810   11.5950
C   12.7180   16.6050   23.0210
H   12.8130   16.8270   21.9510
H   13.7280   16.3210   23.3450
H   12.5000   17.5290   23.5710
C   11.8010   15.4010   23.1530
C   10.6200   15.4240   22.3970
H   10.4520   16.2470   21.7090
C   9.7560   14.2780   22.4410
H   8.8510   14.2660   21.8410
C   10.0090   13.2210   23.3230
H   9.3460   12.3640   23.2430
C   11.1890   13.1930   24.0600
H   11.5060   12.4190   24.7520
C   12.1210   14.2630   23.8890
H   13.0670   14.1720   24.4150
C   18.8420   17.6350   27.7520
H   18.1240   17.0240   28.3120
H   18.2540   18.2490   27.0590
H   19.3830   18.2440   28.4880
C   19.7860   16.8740   26.9420
C   20.9230   17.5130   26.3330
H   21.0460   18.5910   26.2770
C   21.9600   16.7460   25.6900
H   22.7590   17.2130   25.1220
C   21.8200   15.3540   25.7340
H   22.5620   14.8350   25.1340
C   20.7780   14.7860   26.4240
H   20.6730   13.7070   26.4980
C   19.7540   15.4920   26.9560
H   18.9700   15.0490   27.5620
C   25.2430   22.7500   18.9430
H   24.6510   23.3730   19.6240
H   24.6070   22.0920   18.3390
H   25.7690   23.4530   18.2840
C   26.2890   22.0890   19.8050
C   27.6530   22.5380   19.7650
H   27.8930   23.3990   19.1490
C   28.6720   21.9360   20.4790
H   29.6960   22.2960   20.4470
C   28.3120   20.9270   21.3620
H   29.1140   20.5670   22.0000
C   26.9480   20.4890   21.5060
H   26.7050   19.7450   22.2580
C   25.9360   21.0700   20.7010
H   24.8820   20.8350   20.8180
C   8.6660   14.0750   6.3660
H   9.5670   14.3180   5.7890
H   8.3130   15.1000   6.5330
H   8.0120   13.6260   5.6080
C   8.9520   13.1750   7.5700
C   9.2520   13.8780   8.7390
H   9.0790   14.9490   8.7860
C   9.7250   13.1670   9.8870
H   10.1540   13.6370   10.7670
C   9.7320   11.7360   9.9480
H   9.9080   11.1180   10.8230
C   9.4160   11.0830   8.7270
H   9.5500   10.0100   8.6190
C   9.0570   11.7790   7.5340
H   8.9280   11.2640   6.5870
C   8.9500   11.1620   20.3870
H   9.6770   10.3770   20.1430
H   8.1570   10.6850   20.9760
H   9.5010   11.9120   20.9680
C   8.2120   11.8340   19.2710
C   8.5700   13.1620   18.8940
H   9.3950   13.6460   19.4100
C   7.8880   13.7660   17.8650
H   8.0520   14.7920   17.5510
C   6.8730   13.0430   17.1600
H   6.3940   13.5060   16.3020
C   6.6020   11.7170   17.5240
H   5.9300   11.0650   16.9750
C   7.2670   11.0920   18.5130
H   6.9380   10.1170   18.8610
C   26.4570   12.4450   13.5550
H   27.1280   12.9590   14.2540
H   26.8800   12.5280   12.5470
H   26.3480   11.3870   13.8240
C   25.0650   13.0040   13.5080
C   24.3200   13.0670   12.3170
H   24.6950   12.4320   11.5200
C   23.1080   13.7070   12.1810
H   22.5800   13.8270   11.2400
C   22.5170   14.2950   13.4070
H   21.5280   14.7440   13.3850
C   23.1780   14.0720   14.6700
H   22.7680   14.3710   15.6300
C   24.4820   13.4620   14.6840
H   25.0670   13.3620   15.5930
C   17.5710   21.2480   6.8890
H   18.6510   21.3700   6.7390
H   17.1030   22.0750   7.4370
H   17.0720   21.3190   5.9150
C   17.2290   19.8820   7.3990
C   18.1980   19.0800   7.9940
H   19.2050   19.4850   8.0050
C   17.9790   17.8310   8.6610
H   18.7330   17.2870   9.2230
C   16.6260   17.3740   8.6220
H   16.3320   16.4460   9.1030
C   15.6520   18.0670   7.8430
H   14.6170   17.7430   7.7980
C   15.9210   19.3400   7.2650
H   15.0810   19.8910   6.8510
C   21.3760   21.0260   23.7240
H   20.4220   20.4870   23.7730
H   21.7020   21.4030   24.7020
H   22.0140   20.1900   23.4130
C   21.3200   22.2390   22.7430
C   21.4220   21.9180   21.3730
H   21.5590   20.8770   21.0950
C   21.1640   22.8820   20.4680
H   21.2420   22.6310   19.4150
C   20.8980   24.2170   20.9180
H   20.7360   25.0150   20.1990
C   20.8810   24.5300   22.2790
H   20.7390   25.5510   22.6190
C   21.0600   23.5250   23.2330
H   21.0710   23.7440   24.2960
C   13.4980   11.9160   9.8290
H   12.9760   11.0440   9.4180
H   12.8920   12.3220   10.6480
H   14.4620   11.6150   10.2580
C   13.7160   13.0320   8.7680
C   15.0200   13.6160   8.6070
H   15.8970   13.3430   9.1870
C   15.2000   14.6260   7.6390
H   16.2250   14.9300   7.4480
C   14.1260   14.9630   6.7830
H   14.1730   15.7170   6.0030
C   12.8520   14.5840   7.1130
H   12.0640   15.0130   6.5020
C   12.6470   13.5090   8.0450
H   11.7110   12.9710   8.1580
C   19.7440   10.5210   20.4450
H   19.1710   11.4550   20.4980
H   19.2620   9.7620   21.0740
H   19.7140   10.3290   19.3650
C   21.1430   10.7570   21.0140
C   22.2290   10.3180   20.2850
H   22.1500   9.9270   19.2750
C   23.5250   10.5680   20.8390
H   24.4000   10.2310   20.2920
C   23.7170   11.1630   22.0780
H   24.7300   11.2050   22.4680
C   22.5380   11.3930   22.8610
H   22.7390   11.7980   23.8480
C   21.2670   11.2310   22.2990
H   20.3950   11.6100   22.8240
C   29.8070   21.0370   16.6750
H   29.7320   22.0770   16.3350
H   30.3810   20.5460   15.8790
H   30.3680   20.9570   17.6140
C   28.4450   20.3010   16.9690
C   28.2260   19.5640   18.1860
H   29.0220   19.4550   18.9170
C   26.8940   19.1050   18.4470
H   26.6720   18.4880   19.3130
C   25.8510   19.3550   17.6180
H   24.8790   18.9520   17.8890
C   26.0900   20.0720   16.3750
H   25.2500   20.2200   15.7020
C   27.3720   20.5830   16.0780
H   27.4500   21.3560   15.3190
C   18.5500   10.0140   11.4130
H   18.7830   9.7570   12.4530
H   19.3500   9.5800   10.8000
H   17.6150   9.5640   11.0570
C   18.6360   11.5680   11.2050
C   19.5130   12.2330   10.3370
H   20.2410   11.5850   9.8580
C   19.5720   13.6310   10.2560
H   20.3650   14.1740   9.7510
C   18.5680   14.3480   10.9390
H   18.6520   15.4260   10.8390
C   17.6480   13.7120   11.7250
H   17.1040   14.3100   12.4500
C   17.7060   12.3240   11.9490
H   17.2340   11.8230   12.7890
C   22.1020   25.4310   5.5970
H   21.4160   26.2880   5.5930
H   21.7860   24.8510   4.7220
H   23.1330   25.7650   5.4260
C   21.9980   24.6230   6.8970
C   21.0770   23.5600   6.9970
H   20.5490   23.2000   6.1180
C   20.8770   22.8840   8.2000
H   20.2320   22.0110   8.2230
C   21.4880   23.3510   9.3830
H   21.2750   22.8260   10.3090
C   22.4070   24.4640   9.3180
H   22.8440   24.9190   10.2020
C   22.7460   25.0220   8.0470
H   23.4980   25.8030   7.9750
C   19.3712   18.5220   21.4575
H   20.1124   18.5069   22.2442
H   18.7665   19.4151   21.5848
H   19.9248   18.6330   20.5301
C   18.5186   17.2680   21.4357
C   17.1246   17.2898   21.2384
H   16.6316   18.2482   21.0547
C   16.3828   16.1232   21.2158
H   15.3153   16.1543   21.0204
C   16.9830   14.8774   21.4200
H   16.4056   13.9674   21.4493
C   18.3611   14.8389   21.6338
H   18.8721   13.8911   21.7722
C   19.1226   15.9990   21.6345
H   20.1805   15.9370   21.7717
562
Frame 30
C   16.2456   16.0322   17.2649
C   18.6212   16.6588   16.8020
C   15.7803   17.4885   17.4561
C   19.2994   16.0258   18.0042
C   19.5449   16.7765   15.6074
N   17.4317   15.8906   16.4679
N   15.2251   15.1910   16.7099
O   15.2637   18.1020   16.2656
H   14.3143   17.9357   16.2517
H   17.2583   15.7467   15.4874
H   16.5163   15.6873   18.2660
H   18.3437   17.6798   17.0597
H   14.3848   14.9629   17.2100
H   15.2478   15.0595   15.7124
H   16.6052   18.1125   17.7957
H   15.0413   17.4895   18.2630
H   20.0960   16.6830   18.3697
H   18.9637   16.8441   14.6968
H   19.7146   15.0575   17.7308
H   18.5692   15.8629   18.7896
H   20.1416   17.6766   15.7058
H   20.2336   15.9326   15.5238
C   31.0130   13.4690   20.5000
H   31.2490   12.6100   21.1410
H   31.6000   14.3580   20.7590
H   31.3090   13.1730   19.4860
C   29.5240   13.6930   20.5110
C   28.9490   14.9820   20.4600
H   29.6230   15.8190   20.3030
C   27.5460   15.1780   20.4020
H   27.1240   16.1710   20.2790
C   26.7510   14.0910   20.7820
H   25.6720   14.1250   20.8970
C   27.2930   12.7880   20.7300
H   26.5470   12.0120   20.8740
C   28.6890   12.5880   20.6520
H   29.0430   11.5650   20.7440
C   9.2210   14.9750   13.0480
H   9.9180   14.2170   12.6700
H   8.7250   15.4390   12.1860
H   8.5460   14.3880   13.6810
C   9.9500   16.0790   13.9260
C   11.1730   16.6700   13.5290
H   11.6950   16.2330   12.6830
C   11.7790   17.6500   14.3810
H   12.6890   18.1940   14.1470
C   11.0580   18.1190   15.4870
H   11.4490   19.0070   15.9740
C   9.8790   17.5550   15.8260
H   9.3990   17.9040   16.7360
C   9.3470   16.4720   15.1090
H   8.3400   16.1840   15.3940
C   13.1040   20.9490   22.1230
H   12.1100   21.0700   22.5720
H   13.3280   19.8760   22.1570
H   12.9300   21.4440   21.1600
C   14.1720   21.7290   22.9410
C   13.9780   23.0550   23.3640
H   12.9880   23.4780   23.2220
C   14.9570   23.7090   24.0980
H   14.8720   24.7370   24.4370
C   16.0910   23.0190   24.4910
H   16.8240   23.5570   25.0840
C   16.3390   21.7000   24.0260
H   17.2960   21.2060   24.1580
C   15.3480   21.0720   23.2660
H   15.4870   20.1110   22.7800
C   22.3270   16.0930   8.4030
H   22.3260   16.2600   9.4870
H   21.4310   15.6720   7.9300
H   22.4190   17.0690   7.9110
C   23.4930   15.2320   7.9250
C   24.6760   15.8080   7.3600
H   24.7170   16.8840   7.2220
C   25.8340   15.0550   7.0100
H   26.7290   15.6050   6.7360
C   25.7140   13.6410   7.1510
H   26.5440   12.9840   6.9070
C   24.5170   13.0840   7.6510
H   24.4140   12.0140   7.8020
C   23.4280   13.8620   7.9640
H   22.4620   13.4500   8.2420
C   13.3770   8.3710   11.1840
H   13.9280   8.9300   11.9500
H   12.7730   7.5980   11.6750
H   12.7470   9.0620   10.6100
C   14.2950   7.7300   10.0940
C   14.0090   6.4760   9.6240
H   13.0770   6.0180   9.9390
C   14.8900   5.7890   8.7340
H   14.6040   4.8470   8.2740
C   16.0940   6.4030   8.4280
H   16.8170   5.9830   7.7360
C   16.3240   7.7020   8.8800
H   17.2290   8.1990   8.5440
C   15.3900   8.3770   9.6670
H   15.4990   9.4410   9.8550
C   22.3720   27.5750   12.3440
H   22.6740   28.6260   12.2520
H   21.8660   27.2750   11.4180
H   23.3360   27.0640   12.4640
C   21.5860   27.1640   13.5380
C   20.6270   26.1270   13.4710
H   20.5230   25.5770   12.5400
C   19.8190   25.9080   14.6070
H   19.0410   25.1530   14.6740
C   19.8330   26.8130   15.6810
H   19.1800   26.6280   16.5280
C   20.7150   27.8320   15.6880
H   20.6750   28.5050   16.5390
C   21.6510   27.9300   14.6880
H   22.3640   28.7490   14.7160
C   26.3230   15.1720   24.4190
H   27.1730   15.7810   24.7530
H   26.9100   14.3730   23.9500
H   25.8350   14.6810   25.2700
C   25.2980   15.8310   23.5700
C   25.3310   17.2270   23.3880
H   26.0260   17.7850   24.0090
C   24.4240   17.8360   22.4700
H   24.3120   18.9080   22.3350
C   23.4800   16.9710   21.8510
H   22.7300   17.3880   21.1860
C   23.4350   15.6140   22.0990
H   22.6180   15.0160   21.7070
C   24.3990   15.0550   22.9540
H   24.2710   14.0400   23.3190
C   12.5310   21.3930   17.8850
H   13.2140   21.0900   17.0820
H   11.5950   21.6280   17.3640
H   12.3060   20.6590   18.6680
C   13.0320   22.5830   18.7360
C   12.2150   23.1990   19.6560
H   11.1450   23.0160   19.6540
C   12.8150   24.0790   20.5840
H   12.1470   24.6520   21.2210
C   14.2070   24.1490   20.7110
H   14.6570   24.8010   21.4530
C   15.0790   23.3670   19.9600
H   16.1550   23.3650   20.1040
C   14.4560   22.6230   18.9390
H   15.0290   21.9490   18.3100
C   14.8830   6.8570   21.3950
H   14.5830   5.8040   21.4680
H   14.1110   7.5640   21.0690
H   14.9540   7.1620   22.4460
C   16.2700   6.9730   20.7720
C   17.3370   6.4110   21.5060
H   17.0910   5.8820   22.4210
C   18.6390   6.6200   20.9560
H   19.4860   6.2070   21.4970
C   18.8360   7.1840   19.6870
H   19.8020   7.2850   19.2010
C   17.7740   7.7920   19.0310
H   17.9360   8.3530   18.1150
C   16.4720   7.7040   19.5680
H   15.6290   8.1750   19.0710
C   14.8160   10.5740   15.3720
H   14.3440   11.0040   14.4800
H   15.1400   11.3900   16.0290
H   13.9830   10.0440   15.8500
C   15.8760   9.5730   14.9300
C   15.5810   8.3740   14.2260
H   14.5360   8.2410   13.9630
C   16.5460   7.4790   13.7060
H   16.2100   6.6290   13.1200
C   17.8520   7.6230   14.2370
H   18.6540   6.9360   13.9850
C   18.1870   8.7030   14.9950
H   19.2350   8.8200   15.2580
C   17.2460   9.6850   15.4350
H   17.6780   10.4650   16.0550
C   8.0650   7.4040   17.5740
H   8.1270   8.0850   16.7160
H   7.5600   7.9240   18.3970
H   7.4880   6.4980   17.3480
C   9.4790   7.0660   18.0080
C   10.5440   7.9760   17.7650
H   10.3730   8.9450   17.3060
C   11.8290   7.6370   18.2640
H   12.7100   8.2510   18.1010
C   12.0090   6.4900   19.0190
H   13.0130   6.2290   19.3400
C   10.9610   5.6080   19.2070
H   11.1880   4.6980   19.7550
C   9.6610   5.8390   18.6640
H   8.8970   5.0800   18.8040
C   18.2400   9.3350   23.8980
H   18.4220   9.0030   24.9280
H   18.8890   10.1800   23.6390
H   18.3460   8.4310   23.2860
C   16.8430   9.7990   23.8620
C   16.4750   10.9760   23.2580
H   17.2340   11.5320   22.7170
C   15.1310   11.3650   23.2170
H   14.8330   12.3010   22.7540
C   14.1480   10.5800   23.8790
H   13.1240   10.9410   23.8510
C   14.5070   9.3760   24.4910
H   13.6960   8.7620   24.8720
C   15.8380   9.0020   24.5510
H   16.1540   8.1380   25.1280
C   10.9060   11.5230   15.8000
H   10.2660   12.1380   16.4450
H   11.8110   12.1010   15.5760
H   11.3030   10.7560   16.4760
C   10.1450   10.8230   14.6590
C   8.8800   11.1470   14.2680
H   8.3050   11.8430   14.8720
C   8.2310   10.3560   13.3000
H   7.1860   10.6060   13.1480
C   8.9080   9.2900   12.6040
H   8.3580   8.8160   11.7960
C   10.2410   9.0790   12.9680
H   10.7620   8.2900   12.4330
C   10.8540   9.7140   14.0870
H   11.8650   9.4940   14.4180
C   12.4900   20.4970   8.7300
H   11.7150   20.4740   7.9540
H   12.2270   19.9760   9.6590
H   13.3460   20.0150   8.2410
C   12.8650   21.9680   8.9270
C   12.1420   22.7970   9.8120
H   11.2610   22.4200   10.3220
C   12.3840   24.1720   9.8850
H   11.8920   24.7890   10.6310
C   13.4520   24.6990   9.1480
H   13.6750   25.7620   9.1740
C   14.2260   23.9500   8.2820
H   15.0110   24.4020   7.6830
C   13.8970   22.5400   8.1400
H   14.4070   21.9210   7.4080
C   25.2240   23.2580   12.7270
H   25.5120   24.3000   12.9180
H   24.9920   23.1420   11.6620
H   26.0960   22.6100   12.8790
C   24.1020   22.8110   13.7090
C   24.1040   23.2240   14.9730
H   24.9610   23.8230   15.2650
C   23.1140   22.7650   15.8740
H   23.0750   23.1170   16.9010
C   22.0540   21.9550   15.3630
H   21.3500   21.5740   16.0970
C   21.9790   21.6570   14.0120
H   21.2210   20.9940   13.6040
C   22.9780   22.0850   13.1860
H   22.9530   21.7500   12.1530
C   15.9690   24.2190   11.3740
H   16.8540   24.6850   11.8250
H   15.3350   25.1120   11.4330
H   16.1270   23.9390   10.3250
C   15.4160   23.1270   12.1800
C   15.0320   21.8940   11.5900
H   15.1170   21.7510   10.5170
C   14.4730   20.9160   12.4130
H   14.1800   19.9440   12.0280
C   14.3810   21.0610   13.7930
H   14.0500   20.2450   14.4290
C   14.8220   22.2110   14.4320
H   14.6700   22.2620   15.5060
C   15.2630   23.2580   13.6150
H   15.6250   24.2030   14.0110
C   7.9820   23.6640   20.2210
H   7.6700   24.1780   19.3030
H   8.8810   24.2110   20.5300
H   7.2090   23.8760   20.9700
C   8.2150   22.1450   20.0450
C   8.9820   21.3660   20.9660
H   9.4280   21.8310   21.8400
C   9.3410   20.0110   20.7260
H   9.9200   19.4750   21.4720
C   8.8720   19.3730   19.6080
H   9.2540   18.3910   19.3440
C   8.1140   20.1330   18.6130
H   7.8040   19.7260   17.6550
C   7.8120   21.5360   18.8670
H   7.2650   22.1110   18.1260
C   16.6400   17.6150   24.7630
H   16.2880   18.1500   25.6540
H   16.0580   17.8970   23.8770
H   17.6690   17.9180   24.5330
C   16.4320   16.1690   24.9640
C   17.4700   15.2850   24.7630
H   18.3820   15.6110   24.2700
C   17.2870   13.9420   25.1470
H   18.0430   13.2190   24.8550
C   16.0500   13.5080   25.7080
H   15.9690   12.4530   25.9550
C   15.0160   14.4460   25.9100
H   14.0840   14.0850   26.3350
C   15.2290   15.7710   25.5010
H   14.4230   16.4770   25.6750
C   9.8970   25.7470   14.8340
H   9.2600   26.2100   14.0700
H   10.9030   26.1810   14.8020
H   9.4340   25.9280   15.8120
C   10.1050   24.2760   14.5480
C   9.4830   23.4020   15.4380
H   8.7910   23.7840   16.1820
C   9.7180   22.0020   15.3700
H   9.2880   21.4530   16.2030
C   10.5190   21.4980   14.3610
H   10.5880   20.4200   14.2480
C   11.0160   22.3430   13.3520
H   11.7280   21.9650   12.6240
C   10.8610   23.7380   13.4830
H   11.4610   24.3570   12.8230
C   21.4460   7.1060   12.4470
H   20.6860   6.3340   12.6150
H   22.2500   6.4780   12.0440
H   21.0510   7.7230   11.6300
C   21.6030   8.0210   13.6490
C   21.7540   7.6760   14.9780
H   21.7640   6.6430   15.3150
C   21.9350   8.6230   16.0550
H   22.0640   8.3230   17.0910
C   22.1380   9.9860   15.6920
H   22.3350   10.8010   16.3830
C   22.0340   10.3260   14.3310
H   22.1590   11.3300   13.9360
C   21.6750   9.3700   13.3830
H   21.5590   9.7230   12.3630
C   22.9880   17.6800   12.2810
H   22.9180   16.8740   13.0210
H   23.7730   18.3620   12.6300
H   23.2480   17.2650   11.3000
C   21.6550   18.3490   12.1870
C   20.6220   18.0880   13.0570
H   20.7970   17.3350   13.8210
C   19.4340   18.7990   13.0450
H   18.7570   18.7330   13.8920
C   19.1760   19.7760   12.0220
H   18.2920   20.4060   12.0440
C   20.1570   19.9410   11.0580
H   19.9550   20.5700   10.1960
C   21.4170   19.2580   11.1840
H   22.2080   19.5330   10.4920
C   11.5670   16.9320   9.5720
H   12.2140   17.1360   8.7100
H   11.2820   15.8920   9.3700
H   12.1900   17.0270   10.4710
C   10.3380   17.8120   9.7330
C   9.4070   17.9080   8.6630
H   9.2760   17.1270   7.9200
C   8.4820   18.9870   8.6270
H   7.7350   19.0310   7.8400
C   8.4710   19.9600   9.6310
H   7.7480   20.7700   9.6540
C   9.3540   19.8350   10.7390
H   9.3650   20.4890   11.6050
C   10.1940   18.7130   10.7970
H   10.9300   18.6810   11.5950
C   12.7180   16.6050   23.0210
H   12.8130   16.8270   21.9510
H   13.7280   16.3210   23.3450
H   12.5000   17.5290   23.5710
C   11.8010   15.4010   23.1530
C   10.6200   15.4240   22.3970
H   10.4520   16.2470   21.7090
C   9.7560   14.2780   22.4410
H   8.8510   14.2660   21.8410
C   10.0090   13.2210   23.3230
H   9.3460   12.3640   23.2430
C   11.1890   13.1930   24.0600
H   11.5060   12.4190   24.7520
C   12.1210   14.2630   23.8890
H   13.0670   14.1720   24.4150
C   18.8420   17.6350   27.7520
H   18.1240   17.0240   28.3120
H   18.2540   18.2490   27.0590
H   19.3830   18.2440   28.4880
C   19.7860   16.8740   26.9420
C   20.9230   17.5130   26.3330
H   21.0460   18.5910   26.2770
C   21.9600   16.7460   25.6900
H   22.7590   17.2130   25.1220
C   21.8200   15.3540   25.7340
H   22.5620   14.8350   25.1340
C   20.7780   14.7860   26.4240
H   20.6730   13.7070   26.4980
C   19.7540   15.4920   26.9560
H   18.9700   15.0490   27.5620
C   25.2430   22.7500   18.9430
H   24.6510   23.3730   19.6240
H   24.6070   22.0920   18.3390
H   25.7690   23.4530   18.2840
C   26.2890   22.0890   19.8050
C   27.6530   22.5380   19.7650
H   27.8930   23.3990   19.1490
C   28.6720   21.9360   20.4790
H   29.6960   22.2960   20.4470
C   28.3120   20.9270   21.3620
H   29.1140   20.5670   22.0000
C   26.9480   20.4890   21.5060
H   26.7050   19.7450   22.2580
C   25.9360   21.0700   20.7010
H   24.8820   20.8350   20.8180
C   8.6660   14.0750   6.3660
H   9.5670   14.3180   5.7890
H   8.3130   15.1000   6.5330
H   8.0120   13.6260   5.6080
C   8.9520   13.1750   7.5700
C   9.2520   13.8780   8.7390
H   9.0790   14.9490   8.7860
C   9.7250   13.1670   9.8870
H   10.1540   13.6370   10.7670
C   9.7320   11.7360   9.9480
H   9.9080   11.1180   10.8230
C   9.4160   11.0830   8.7270
H   9.5500   10.0100   8.6190
C   9.0570   11.7790   7.5340
H   8.9280   11.2640   6.5870
C   8.9500   11.1620   20.3870
H   9.6770   10.3770   20.1430
H   8.1570   10.6850   20.9760
H   9.5010   11.9120   20.9680
C   8.2120   11.8340   19.2710
C   8.5700   13.1620   18.8940
H   9.3950   13.6460   19.4100
C   7.8880   13.7660   17.8650
H   8.0520   14.7920   17.5510
C   6.8730   13.0430   17.1600
H   6.3940   13.5060   16.3020
C   6.6020   11.7170   17.5240
H   5.9300   11.0650   16.9750
C   7.2670   11.0920   18.5130
H   6.9380   10.1170   18.8610
C   26.4570   12.4450   13.5550
H   27.1280   12.9590   14.2540
H   26.8800   12.5280   12.5470
H   26.3480   11.3870   13.8240
C   25.0650   13.0040   13.5080
C   24.3200   13.0670   12.3170
H   24.6950   12.4320   11.5200
C   23.1080   13.7070   12.1810
H   22.5800   13.8270   11.2400
C   22.5170   14.2950   13.4070
H   21.5280   14.7440   13.3850
C   23.1780   14.0720   14.6700
H   22.7680   14.3710   15.6300
C   24.4820   13.4620   14.6840
H   25.0670   13.3620   15.5930
C   17.5710   21.2480   6.8890
H   18.6510   21.3700   6.7390
H   17.1030   22.0750   7.4370
H   17.0720   21.3190   5.9150
C   17.2290   19.8820   7.3990
C   18.1980   19.0800   7.9940
H   19.2050   19.4850   8.0050
C   17.9790   17.8310   8.6610
H   18.7330   17.2870   9.2230
C   16.6260   17.3740   8.6220
H   16.3320   16.4460   9.1030
C   15.6520   18.0670   7.8430
H   14.6170   17.7430   7.7980
C   15.9210   19.3400   7.2650
H   15.0810   19.8910   6.8510
C   21.3760   21.0260   23.7240
H   20.4220   20.4870   23.7730
H   21.7020   21.4030   24.7020
H   22.0140   20.1900   23.4130
C   21.3200   22.2390   22.7430
C   21.4220   21.9180   21.3730
H   21.5590   20.8770   21.0950
C   21.1640   22.8820   20.4680
H   21.2420   22.6310   19.4150
C   20.8980   24.2170   20.9180
H   20.7360   25.0150   20.1990
C   20.8810   24.5300   22.2790
H   20.7390   25.5510   22.6190
C   21.0600   23.5250   23.2330
H   21.0710   23.7440   24.2960
C   13.4980   11.9160   9.8290
H   12.9760   11.0440   9.4180
H   12.8920   12.3220   10.6480
H   14.4620   11.6150   10.2580
C   13.7160   13.0320   8.7680
C   15.0200   13.6160   8.6070
H   15.8970   13.3430   9.1870
C   15.2000   14.6260   7.6390
H   16.2250   14.9300   7.4480
C   14.1260   14.9630   6.7830
H   14.1730   15.7170   6.0030
C   12.8520   14.5840   7.1130
H   12.0640   15.0130   6.5020
C   12.6470   13.5090   8.0450
H   11.7110   12.9710   8.1580
C   19.7440   10.5210   20.4450
H   19.1710   11.4550   20.4980
H   19.2620   9.7620   21.0740
H   19.7140   10.3290   19.3650
C   21.1430   10.7570   21.0140
C   22.2290   10.3180   20.2850
H   22.1500   9.9270   19.2750
C   23.5250   10.5680   20.8390
H   24.4000   10.2310   20.2920
C   23.7170   11.1630   22.0780
H   24.7300   11.2050   22.4680
C   22.5380   11.3930   22.8610
H   22.7390   11.7980   23.8480
C   21.2670   11.2310   22.2990
H   20.3950   11.6100   22.8240
C   29.8070   21.0370   16.6750
H   29.7320   22.0770   16.3350
H   30.3810   20.5460   15.8790
H   30.3680   20.9570   17.6140
C   28.4450   20.3010   16.9690
C   28.2260   19.5640   18.1860
H   29.0220   19.4550   18.9170
C   26.8940   19.1050   18.4470
H   26.6720   18.4880   19.3130
C   25.8510   19.3550   17.6180
H   24.8790   18.9520   17.8890
C   26.0900   20.0720   16.3750
H   25.2500   20.2200   15.7020
C   27.3720   20.5830   16.0780
H   27.4500   21.3560   15.3190
C   18.5500   10.0140   11.4130
H   18.7830   9.7570   12.4530
H   19.3500   9.5800   10.8000
H   17.6150   9.5640   11.0570
C   18.6360   11.5680   11.2050
C   19.5130   12.2330   10.3370
H   20.2410   11.5850   9.8580
C   19.5720   13.6310   10.2560
H   20.3650   14.1740   9.7510
C   18.5680   14.3480   10.9390
H   18.6520   15.4260   10.8390
C   17.6480   13.7120   11.7250
H   17.1040   14.3100   12.4500
C   17.7060   12.3240   11.9490
H   17.2340   11.8230   12.7890
C   22.1020   25.4310   5.5970
H   21.4160   26.2880   5.5930
H   21.7860   24.8510   4.7220
H   23.1330   25.7650   5.4260
C   21.9980   24.6230   6.8970
C   21.0770   23.5600   6.9970
H   20.5490   23.2000   6.1180
C   20.8770   22.8840   8.2000
H   20.2320   22.0110   8.2230
C   21.4880   23.3510   9.3830
H   21.2750   22.8260   10.3090
C   22.4070   24.4640   9.3180
H   22.8440   24.9190   10.2020
C   22.7460   25.0220   8.0470
H   23.4980   25.8030   7.9750
C   19.3698   18.5242   21.4558
H   20.1097   18.5061   22.2447
H   18.7682   19.4155   21.5881
H   19.9235   18.6337   20.5286
C   18.5206   17.2645   21.4360
C   17.1267   17.2925   21.2359
H   16.6338   18.2406   21.0572
C   16.3818   16.1211   21.2171
H   15.3170   16.1562   21.0246
C   16.9806   14.8799   21.4204
H   16.4063   13.9684   21.4486
C   18.3613   14.8362   21.6324
H   18.8714   13.8934   21.7733
C   19.1189   16.0019   21.6323
H   20.1792   15.9400   21.7746
562
Frame 31
C   16.2431   16.0336   17.2633
C   18.6232   16.6633   16.8042
C   15.7768   17.4775   17.4599
C   19.2993   16.0273   18.0058
C   19.5479   16.7738   15.6058
N   17.4336   15.8844   16.4673
N   15.2265   15.1879   16.7138
O   15.2673   18.0902   16.2681
H   14.3162   17.9266   16.2515
H   17.2642   15.7677   15.4825
H   16.5086   15.7054   18.2699
H   18.3397   17.6798   17.0715
H   14.3826   14.9765   17.2142
H   15.2365   15.0707   15.7178
H   16.6117   18.0920   17.7877
H   15.0308   17.4750   18.2610
H   20.0956   16.6802   18.3732
H   18.9640   16.8392   14.6928
H   19.7123   15.0605   17.7314
H   18.5740   15.8623   18.7957
H   20.1474   17.6736   15.7036
H   20.2308   15.9280   15.5245
C   31.0130   13.4690   20.5000
H   31.2490   12.6100   21.1410
H   31.6000   14.3580   20.7590
H   31.3090   13.1730   19.4860
C   29.5240   13.6930   20.5110
C   28.9490   14.9820   20.4600
H   29.6230   15.8190   20.3030
C   27.5460   15.1780   20.4020
H   27.1240   16.1710   20.2790
C   26.7510   14.0910   20.7820
H   25.6720   14.1250   20.8970
C   27.2930   12.7880   20.7300
H   26.5470   12.0120   20.8740
C   28.6890   12.5880   20.6520
H   29.0430   11.5650   20.7440
C   9.2210   14.9750   13.0480
H   9.9180   14.2170   12.6700
H   8.7250   15.4390   12.1860
H   8.5460   14.3880   13.6810
C   9.9500   16.0790   13.9260
C   11.1730   16.6700   13.5290
H   11.6950   16.2330   12.6830
C   11.7790   17.6500   14.3810
H   12.6890   18.1940   14.1470
C   11.0580   18.1190   15.4870
H   11.4490   19.0070   15.9740
C   9.8790   17.5550   15.8260
H   9.3990   17.9040   16.7360
C   9.3470   16.4720   15.1090
H   8.3400   16.1840   15.3940
C   13.1040   20.9490   22.1230
H   12.1100   21.0700   22.5720
H   13.3280   19.8760   22.1570
H   12.9300   21.4440   21.1600
C   14.1720   21.7290   22.9410
C   13.9780   23.0550   23.3640
H   12.9880   23.4780   23.2220
C   14.9570   23.7090   24.0980
H   14.8720   24.7370   24.4370
C   16.0910   23.0190   24.4910
H   16.8240   23.5570   25.0840
C   16.3390   21.7000   24.0260
H   17.2960   21.2060   24.1580
C   15.3480   21.0720   23.2660
H   15.4870   20.1110   22.7800
C   22.3270   16.0930   8.4030
H   22.3260   16.2600   9.4870
H   21.4310   15.6720   7.9300
H   22.4190   17.0690   7.9110
C   23.4930   15.2320   7.9250
C   24.6760   15.8080   7.3600
H   24.7170   16.8840   7.2220
C   25.8340   15.0550   7.0100
H   26.7290   15.6050   6.7360
C   25.7140   13.6410   7.1510
H   26.5440   12.9840   6.9070
C   24.5170   13.0840   7.6510
H   24.4140   12.0140   7.8020
C   23.4280   13.8620   7.9640
H   22.4620   13.4500   8.2420
C   13.3770   8.3710   11.1840
H   13.9280   8.9300   11.9500
H   12.7730   7.5980   11.6750
H   12.7470   9.0620   10.6100
C   14.2950   7.7300   10.0940
C   14.0090   6.4760   9.6240
H   13.0770   6.0180   9.9390
C   14.8900   5.7890   8.7340
H   14.6040   4.8470   8.2740
C   16.0940   6.4030   8.4280
H   16.8170   5.9830   7.7360
C   16.3240   7.7020   8.8800
H   17.2290   8.1990   8.5440
C   15.3900   8.3770   9.6670
H   15.4990   9.4410   9.8550
C   22.3720   27.5750   12.3440
H   22.6740   28.6260   12.2520
H   21.8660   27.2750   11.4180
H   23.3360   27.0640   12.4640
C   21.5860   27.1640   13.5380
C   20.6270   26.1270   13.4710
H   20.5230   25.5770   12.5400
C   19.8190   25.9080   14.6070
H   19.0410   25.1530   14.6740
C   19.8330   26.8130   15.6810
H   19.1800   26.6280   16.5280
C   20.7150   27.8320   15.6880
H   20.6750   28.5050   16.5390
C   21.6510   27.9300   14.6880
H   22.3640   28.7490   14.7160
C   26.3230   15.1720   24.4190
H   27.1730   15.7810   24.7530
H   26.9100   14.3730   23.9500
H   25.8350   14.6810   25.2700
C   25.2980   15.8310   23.5700
C   25.3310   17.2270   23.3880
H   26.0260   17.7850   24.0090
C   24.4240   17.8360   22.4700
H   24.3120   18.9080   22.3350
C   23.4800   16.9710   21.8510
H   22.7300   17.3880   21.1860
C   23.4350   15.6140   22.0990
H   22.6180   15.0160   21.7070
C   24.3990   15.0550   22.9540
H   24.2710   14.0400   23.3190
C   12.5310   21.3930   17.8850
H   13.2140   21.0900   17.0820
H   11.5950   21.6280   17.3640
H   12.3060   20.6590   18.6680
C   13.0320   22.5830   18.7360
C   12.2150   23.1990   19.6560
H   11.1450   23.0160   19.6540
C   12.8150   24.0790   20.5840
H   12.1470   24.6520   21.2210
C   14.2070   24.1490   20.7110
H   14.6570   24.8010   21.4530
C   15.0790   23.3670   19.9600
H   16.1550   23.3650   20.1040
C   14.4560   22.6230   18.9390
H   15.0290   21.9490   18.3100
C   14.8830   6.8570   21.3950
H   14.5830   5.8040   21.4680
H   14.1110   7.5640   21.0690
H   14.9540   7.1620   22.4460
C   16.2700   6.9730   20.7720
C   17.3370   6.4110   21.5060
H   17.0910   5.8820   22.4210
C   18.6390   6.6200   20.9560
H   19.4860   6.2070   21.4970
C   18.8360   7.1840   19.6870
H   19.8020   7.2850   19.2010
C   17.7740   7.7920   19.0310
H   17.9360   8.3530   18.1150
C   16.4720   7.7040   19.5680
H   15.6290   8.1750   19.0710
C   14.8160   10.5740   15.3720
H   14.3440   11.0040   14.4800
H   15.1400   11.3900   16.0290
H   13.9830   10.0440   15.8500
C   15.8760   9.5730   14.9300
C   15.5810   8.3740   14.2260
H   14.5360   8.2410   13.9630
C   16.5460   7.4790   13.7060
H   16.2100   6.6290   13.1200
C   17.8520   7.6230   14.2370
H   18.6540   6.9360   13.9850
C   18.1870   8.7030   14.9950
H   19.2350   8.8200   15.2580
C   17.2460   9.6850   15.4350
H   17.6780   10.4650   16.0550
C   8.0650   7.4040   17.5740
H   8.1270   8.0850   16.7160
H   7.5600   7.9240   18.3970
H   7.4880   6.4980   17.3480
C   9.4790   7.0660   18.0080
C   10.5440   7.9760   17.7650
H   10.3730   8.9450   17.3060
C   11.8290   7.6370   18.2640
H   12.7100   8.2510   18.1010
C   12.0090   6.4900   19.0190
H   13.0130   6.2290   19.3400
C   10.9610   5.6080   19.2070
H   11.1880   4.6980   19.7550
C   9.6610   5.8390   18.6640
H   8.8970   5.0800   18.8040
C   18.2400   9.3350   23.8980
H   18.4220   9.0030   24.9280
H   18.8890   10.1800   23.6390
H   18.3460   8.4310   23.2860
C   16.8430   9.7990   23.8620
C   16.4750   10.9760   23.2580
H   17.2340   11.5320   22.7170
C   15.1310   11.3650   23.2170
H   14.8330   12.3010   22.7540
C   14.1480   10.5800   23.8790
H   13.1240   10.9410   23.8510
C   14.5070   9.3760   24.4910
H   13.6960   8.7620   24.8720
C   15.8380   9.0020   24.5510
H   16.1540   8.1380   25.1280
C   10.9060   11.5230   15.8000
H   10.2660   12.1380   16.4450
H   11.8110   12.1010   15.5760
H   11.3030   10.7560   16.4760
C   10.1450   10.8230   14.6590
C   8.8800   11.1470   14.2680
H   8.3050   11.8430   14.8720
C   8.2310   10.3560   13.3000
H   7.1860   10.6060   13.1480
C   8.9080   9.2900   12.6040
H   8.3580   8.8160   11.7960
C   10.2410   9.0790   12.9680
H   10.7620   8.2900   12.4330
C   10.8540   9.7140   14.0870
H   11.8650   9.4940   14.4180
C   12.4900   20.4970   8.7300
H   11.7150   20.4740   7.9540
H   12.2270   19.9760   9.6590
H   13.3460   20.0150   8.2410
C   12.8650   21.9680   8.9270
C   12.1420   22.7970   9.8120
H   11.2610   22.4200   10.3220
C   12.3840   24.1720   9.8850
H   11.8920   24.7890   10.6310
C   13.4520   24.6990   9.1480
H   13.6750   25.7620   9.1740
C   14.2260   23.9500   8.2820
H   15.0110   24.4020   7.6830
C   13.8970   22.5400   8.1400
H   14.4070   21.9210   7.4080
C   25.2240   23.2580   12.7270
H   25.5120   24.3000   12.9180
H   24.9920   23.1420   11.6620
H   26.0960   22.6100   12.8790
C   24.1020   22.8110   13.7090
C   24.1040   23.2240   14.9730
H   24.9610   23.8230   15.2650
C   23.1140   22.7650   15.8740
H   23.0750   23.1170   16.9010
C   22.0540   21.9550   15.3630
H   21.3500   21.5740   16.0970
C   21.9790   21.6570   14.0120
H   21.2210   20.9940   13.6040
C   22.9780   22.0850   13.1860
H   22.9530   21.7500   12.1530
C   15.9690   24.2190   11.3740
H   16.8540   24.6850   11.8250
H   15.3350   25.1120   11.4330
H   16.1270   23.9390   10.3250
C   15.4160   23.1270   12.1800
C   15.0320   21.8940   11.5900
H   15.1170   21.7510   10.5170
C   14.4730   20.9160   12.4130
H   14.1800   19.9440   12.0280
C   14.3810   21.0610   13.7930
H   14.0500   20.2450   14.4290
C   14.8220   22.2110   14.4320
H   14.6700   22.2620   15.5060
C   15.2630   23.2580   13.6150
H   15.6250   24.2030   14.0110
C   7.9820   23.6640   20.2210
H   7.6700   24.1780   19.3030
H   8.8810   24.2110   20.5300
H   7.2090   23.8760   20.9700
C   8.2150   22.1450   20.0450
C   8.9820   21.3660   20.9660
H   9.4280   21.8310   21.8400
C   9.3410   20.0110   20.7260
H   9.9200   19.4750   21.4720
C   8.8720   19.3730   19.6080
H   9.2540   18.3910   19.3440
C   8.1140   20.1330   18.6130
H   7.8040   19.7260   17.6550
C   7.8120   21.5360   18.8670
H   7.2650   22.1110   18.1260
C   16.6400   17.6150   24.7630
H   16.2880   18.1500   25.6540
H   16.0580   17.8970   23.8770
H   17.6690   17.9180   24.5330
C   16.4320   16.1690   24.9640
C   17.4700   15.2850   24.7630
H   18.3820   15.6110   24.2700
C   17.2870   13.9420   25.1470
H   18.0430   13.2190   24.8550
C   16.0500   13.5080   25.7080
H   15.9690   12.4530   25.9550
C   15.0160   14.4460   25.9100
H   14.0840   14.0850   26.3350
C   15.2290   15.7710   25.5010
H   14.4230   16.4770   25.6750
C   9.8970   25.7470   14.8340
H   9.2600   26.2100   14.0700
H   10.9030   26.1810   14.8020
H   9.4340   25.9280   15.8120
C   10.1050   24.2760   14.5480
C   9.4830   23.4020   15.4380
H   8.7910   23.7840   16.1820
C   9.7180   22.0020   15.3700
H   9.2880   21.4530   16.2030
C   10.5190   21.4980   14.3610
H   10.5880   20.4200   14.2480
C   11.0160   22.3430   13.3520
H   11.7280   21.9650   12.6240
C   10.8610   23.7380   13.4830
H   11.4610   24.3570   12.8230
C   21.4460   7.1060   12.4470
H   20.6860   6.3340   12.6150
H   22.2500   6.4780   12.0440
H   21.0510   7.7230   11.6300
C   21.6030   8.0210   13.6490
C   21.7540   7.6760   14.9780
H   21.7640   6.6430   15.3150
C   21.9350   8.6230   16.0550
H   22.0640   8.3230   17.0910
C   22.1380   9.9860   15.6920
H   22.3350   10.8010   16.3830
C   22.0340   10.3260   14.3310
H   22.1590   11.3300   13.9360
C   21.6750   9.3700   13.3830
H   21.5590   9.7230   12.3630
C   22.9880   17.6800   12.2810
H   22.9180   16.8740   13.0210
H   23.7730   18.3620   12.6300
H   23.2480   17.2650   11.3000
C   21.6550   18.3490   12.1870
C   20.6220   18.0880   13.0570
H   20.7970   17.3350   13.8210
C   19.4340   18.7990   13.0450
H   18.7570   18.7330   13.8920
C   19.1760   19.7760   12.0220
H   18.2920   20.4060   12.0440
C   20.1570   19.9410   11.0580
H   19.9550   20.5700   10.1960
C   21.4170   19.2580   11.1840
H   22.2080   19.5330   10.4920
C   11.5670   16.9320   9.5720
H   12.2140   17.1360   8.7100
H   11.2820   15.8920   9.3700
H   12.1900   17.0270   10.4710
C   10.3380   17.8120   9.7330
C   9.4070   17.9080   8.6630
H   9.2760   17.1270   7.9200
C   8.4820   18.9870   8.6270
H   7.7350   19.0310   7.8400
C   8.4710   19.9600   9.6310
H   7.7480   20.7700   9.6540
C   9.3540   19.8350   10.7390
H   9.3650   20.4890   11.6050
C   10.1940   18.7130   10.7970
H   10.9300   18.6810   11.5950
C   12.7180   16.6050   23.0210
H   12.8130   16.8270   21.9510
H   13.7280   16.3210   23.3450
H   12.5000   17.5290   23.5710
C   11.8010   15.4010   23.1530
C   10.6200   15.4240   22.3970
H   10.4520   16.2470   21.7090
C   9.7560   14.2780   22.4410
H   8.8510   14.2660   21.8410
C   10.0090   13.2210   23.3230
H   9.3460   12.3640   23.2430
C   11.1890   13.1930   24.0600
H   11.5060   12.4190   24.7520
C   12.1210   14.2630   23.8890
H   13.0670   14.1720   24.4150
C   18.8420   17.6350   27.7520
H   18.1240   17.0240   28.3120
H   18.2540   18.2490   27.0590
H   19.3830   18.2440   28.4880
C   19.7860   16.8740   26.9420
C   20.9230   17.5130   26.3330
H   21.0460   18.5910   26.2770
C   21.9600   16.7460   25.6900
H   22.7590   17.2130   25.1220
C   21.8200   15.3540   25.7340
H   22.5620   14.8350   25.1340
C   20.7780   14.7860   26.4240
H   20.6730   13.7070   26.4980
C   19.7540   15.4920   26.9560
H   18.9700   15.0490   27.5620
C   25.2430   22.7500   18.9430
H   24.6510   23.3730   19.6240
H   24.6070   22.0920   18.3390
H   25.7690   23.4530   18.2840
C   26.2890   22.0890   19.8050
C   27.6530   22.5380   19.7650
H   27.8930   23.3990   19.1490
C   28.6720   21.9360   20.4790
H   29.6960   22.2960   20.4470
C   28.3120   20.9270   21.3620
H   29.1140   20.5670   22.0000
C   26.9480   20.4890   21.5060
H   26.7050   19.7450   22.2580
C   25.9360   21.0700   20.7010
H   24.8820   20.8350   20.8180
C   8.6660   14.0750   6.3660
H   9.5670   14.3180   5.7890
H   8.3130   15.1000   6.5330
H   8.0120   13.6260   5.6080
C   8.9520   13.1750   7.5700
C   9.2520   13.8780   8.7390
H   9.0790   14.9490   8.7860
C   9.7250   13.1670   9.8870
H   10.1540   13.6370   10.7670
C   9.7320   11.7360   9.9480
H   9.9080   11.1180   10.8230
C   9.4160   11.0830   8.7270
H   9.5500   10.0100   8.6190
C   9.0570   11.7790   7.5340
H   8.9280   11.2640   6.5870
C   8.9500   11.1620   20.3870
H   9.6770   10.3770   20.1430
H   8.1570   10.6850   20.9760
H   9.5010   11.9120   20.9680
C   8.2120   11.8340   19.2710
C   8.5700   13.1620   18.8940
H   9.3950   13.6460   19.4100
C   7.8880   13.7660   17.8650
H   8.0520   14.7920   17.5510
C   6.8730   13.0430   17.1600
H   6.3940   13.5060   16.3020
C   6.6020   11.7170   17.5240
H   5.9300   11.0650   16.9750
C   7.2670   11.0920   18.5130
H   6.9380   10.1170   18.8610
C   26.4570   12.4450   13.5550
H   27.1280   12.9590   14.2540
H   26.8800   12.5280   12.5470
H   26.3480   11.3870   13.8240
C   25.0650   13.0040   13.5080
C   24.3200   13.0670   12.3170
H   24.6950   12.4320   11.5200
C   23.1080   13.7070   12.1810
H   22.5800   13.8270   11.2400
C   22.5170   14.2950   13.4070
H   21.5280   14.7440   13.3850
C   23.1780   14.0720   14.6700
H   22.7680   14.3710   15.6300
C   24.4820   13.4620   14.6840
H   25.0670   13.3620   15.5930
C   17.5710   21.2480   6.8890
H   18.6510   21.3700   6.7390
H   17.1030   22.0750   7.4370
H   17.0720   21.3190   5.9150
C   17.2290   19.8820   7.3990
C   18.1980   19.0800   7.9940
H   19.2050   19.4850   8.0050
C   17.9790   17.8310   8.6610
H   18.7330   17.2870   9.2230
C   16.6260   17.3740   8.6220
H   16.3320   16.4460   9.1030
C   15.6520   18.0670   7.8430
H   14.6170   17.7430   7.7980
C   15.9210   19.3400   7.2650
H   15.0810   19.8910   6.8510
C   21.3760   21.0260   23.7240
H   20.4220   20.4870   23.7730
H   21.7020   21.4030   24.7020
H   22.0140   20.1900   23.4130
C   21.3200   22.2390   22.7430
C   21.4220   21.9180   21.3730
H   21.5590   20.8770   21.0950
C   21.1640   22.8820   20.4680
H   21.2420   22.6310   19.4150
C   20.8980   24.2170   20.9180
H   20.7360   25.0150   20.1990
C   20.8810   24.5300   22.2790
H   20.7390   25.5510   22.6190
C   21.0600   23.5250   23.2330
H   21.0710   23.7440   24.2960
C   13.4980   11.9160   9.8290
H   12.9760   11.0440   9.4180
H   12.8920   12.3220   10.6480
H   14.4620   11.6150   10.2580
C   13.7160   13.0320   8.7680
C   15.0200   13.6160   8.6070
H   15.8970   13.3430   9.1870
C   15.2000   14.6260   7.6390
H   16.2250   14.9300   7.4480
C   14.1260   14.9630   6.7830
H   14.1730   15.7170   6.0030
C   12.8520   14.5840   7.1130
H   12.0640   15.0130   6.5020
C   12.6470   13.5090   8.0450
H   11.7110   12.9710   8.1580
C   19.7440   10.5210   20.4450
H   19.1710   11.4550   20.4980
H   19.2620   9.7620   21.0740
H   19.7140   10.3290   19.3650
C   21.1430   10.7570   21.0140
C   22.2290   10.3180   20.2850
H   22.1500   9.9270   19.2750
C   23.5250   10.5680   20.8390
H   24.4000   10.2310   20.2920
C   23.7170   11.1630   22.0780
H   24.7300   11.2050   22.4680
C   22.5380   11.3930   22.8610
H   22.7390   11.7980   23.8480
C   21.2670   11.2310   22.2990
H   20.3950   11.6100   22.8240
C   29.8070   21.0370   16.6750
H   29.7320   22.0770   16.3350
H   30.3810   20.5460   15.8790
H   30.3680   20.9570   17.6140
C   28.4450   20.3010   16.9690
C   28.2260   19.5640   18.1860
H   29.0220   19.4550   18.9170
C   26.8940   19.1050   18.4470
H   26.6720   18.4880   19.3130
C   25.8510   19.3550   17.6180
H   24.8790   18.9520   17.8890
C   26.0900   20.0720   16.3750
H   25.2500   20.2200   15.7020
C   27.3720   20.5830   16.0780
H   27.4500   21.3560   15.3190
C   18.5500   10.0140   11.4130
H   18.7830   9.7570   12.4530
H   19.3500   9.5800   10.8000
H   17.6150   9.5640   11.0570
C   18.6360   11.5680   11.2050
C   19.5130   12.2330   10.3370
H   20.2410   11.5850   9.8580
C   19.5720   13.6310   10.2560
H   20.3650   14.1740   9.7510
C   18.5680   14.3480   10.9390
H   18.6520   15.4260   10.8390
C   17.6480   13.7120   11.7250
H   17.1040   14.3100   12.4500
C   17.7060   12.3240   11.9490
H   17.2340   11.8230   12.7890
C   22.1020   25.4310   5.5970
H   21.4160   26.2880   5.5930
H   21.7860   24.8510   4.7220
H   23.1330   25.7650   5.4260
C   21.9980   24.6230   6.8970
C   21.0770   23.5600   6.9970
H   20.5490   23.2000   6.1180
C   20.8770   22.8840   8.2000
H   20.2320   22.0110   8.2230
C   21.4880   23.3510   9.3830
H   21.2750   22.8260   10.3090
C   22.4070   24.4640   9.3180
H   22.8440   24.9190   10.2020
C   22.7460   25.0220   8.0470
H   23.4980   25.8030   7.9750
C   19.3675   18.5252   21.4526
H   20.1037   18.5067   22.2457
H   18.7709   19.4175   21.5957
H   19.9211   18.6331   20.5253
C   18.5226   17.2633   21.4324
C   17.1293   17.2902   21.2326
H   16.6358   18.2343   21.0626
C   16.3845   16.1211   21.2189
H   15.3190   16.1614   21.0310
C   16.9794   14.8807   21.4218
H   16.4062   13.9686   21.4477
C   18.3596   14.8362   21.6297
H   18.8717   13.8940   21.7746
C   19.1152   16.0002   21.6282
H   20.1761   15.9464   21.7804
562
Frame 32
C   16.2444   16.0280   17.2620
C   18.6237   16.6633   16.8102
C   15.7713   17.4565   17.4612
C   19.2943   16.0331   18.0047
C   19.5473   16.7759   15.6030
N   17.4430   15.8744   16.4648
N   15.2343   15.1707   16.7337
O   15.2712   18.0629   16.2708
H   14.3278   17.8996   16.2508
H   17.2742   15.8227   15.4682
H   16.4942   15.7330   18.2786
H   18.3283   17.6775   17.0952
H   14.3816   15.0139   17.2191
H   15.2007   15.0977   15.7217
H   16.6198   18.0516   17.7758
H   15.0101   17.4512   18.2566
H   20.0973   16.6755   18.3854
H   18.9643   16.8293   14.6884
H   19.7086   15.0634   17.7328
H   18.5877   15.8635   18.8101
H   20.1613   17.6673   15.6976
H   20.2246   15.9107   15.5296
C   31.0130   13.4690   20.5000
H   31.2490   12.6100   21.1410
H   31.6000   14.3580   20.7590
H   31.3090   13.1730   19.4860
C   29.5240   13.6930   20.5110
C   28.9490   14.9820   20.4600
H   29.6230   15.8190   20.3030
C   27.5460   15.1780   20.4020
H   27.1240   16.1710   20.2790
C   26.7510   14.0910   20.7820
H   25.6720   14.1250   20.8970
C   27.2930   12.7880   20.7300
H   26.5470   12.0120   20.8740
C   28.6890   12.5880   20.6520
H   29.0430   11.5650   20.7440
C   9.2210   14.9750   13.0480
H   9.9180   14.2170   12.6700
H   8.7250   15.4390   12.1860
H   8.5460   14.3880   13.6810
C   9.9500   16.0790   13.9260
C   11.1730   16.6700   13.5290
H   11.6950   16.2330   12.6830
C   11.7790   17.6500   14.3810
H   12.6890   18.1940   14.1470
C   11.0580   18.1190   15.4870
H   11.4490   19.0070   15.9740
C   9.8790   17.5550   15.8260
H   9.3990   17.9040   16.7360
C   9.3470   16.4720   15.1090
H   8.3400   16.1840   15.3940
C   13.1040   20.9490   22.1230
H   12.1100   21.0700   22.5720
H   13.3280   19.8760   22.1570
H   12.9300   21.4440   21.1600
C   14.1720   21.7290   22.9410
C   13.9780   23.0550   23.3640
H   12.9880   23.4780   23.2220
C   14.9570   23.7090   24.0980
H   14.8720   24.7370   24.4370
C   16.0910   23.0190   24.4910
H   16.8240   23.5570   25.0840
C   16.3390   21.7000   24.0260
H   17.2960   21.2060   24.1580
C   15.3480   21.0720   23.2660
H   15.4870   20.1110   22.7800
C   22.3270   16.0930   8.4030
H   22.3260   16.2600   9.4870
H   21.4310   15.6720   7.9300
H   22.4190   17.0690   7.9110
C   23.4930   15.2320   7.9250
C   24.6760   15.8080   7.3600
H   24.7170   16.8840   7.2220
C   25.8340   15.0550   7.0100
H   26.7290   15.6050   6.7360
C   25.7140   13.6410   7.1510
H   26.5440   12.9840   6.9070
C   24.5170   13.0840   7.6510
H   24.4140   12.0140   7.8020
C   23.4280   13.8620   7.9640
H   22.4620   13.4500   8.2420
C   13.3770   8.3710   11.1840
H   13.9280   8.9300   11.9500
H   12.7730   7.5980   11.6750
H   12.7470   9.0620   10.6100
C   14.2950   7.7300   10.0940
C   14.0090   6.4760   9.6240
H   13.0770   6.0180   9.9390
C   14.8900   5.7890   8.7340
H   14.6040   4.8470   8.2740
C   16.0940   6.4030   8.4280
H   16.8170   5.9830   7.7360
C   16.3240   7.7020   8.8800
H   17.2290   8.1990   8.5440
C   15.3900   8.3770   9.6670
H   15.4990   9.4410   9.8550
C   22.3720   27.5750   12.3440
H   22.6740   28.6260   12.2520
H   21.8660   27.2750   11.4180
H   23.3360   27.0640   12.4640
C   21.5860   27.1640   13.5380
C   20.6270   26.1270   13.4710
H   20.5230   25.5770   12.5400
C   19.8190   25.9080   14.6070
H   19.0410   25.1530   14.6740
C   19.8330   26.8130   15.6810
H   19.1800   26.6280   16.5280
C   20.7150   27.8320   15.6880
H   20.6750   28.5050   16.5390
C   21.6510   27.9300   14.6880
H   22.3640   28.7490   14.7160
C   26.3230   15.1720   24.4190
H   27.1730   15.7810   24.7530
H   26.9100   14.3730   23.9500
H   25.8350   14.6810   25.2700
C   25.2980   15.8310   23.5700
C   25.3310   17.2270   23.3880
H   26.0260   17.7850   24.0090
C   24.4240   17.8360   22.4700
H   24.3120   18.9080   22.3350
C   23.4800   16.9710   21.8510
H   22.7300   17.3880   21.1860
C   23.4350   15.6140   22.0990
H   22.6180   15.0160   21.7070
C   24.3990   15.0550   22.9540
H   24.2710   14.0400   23.3190
C   12.5310   21.3930   17.8850
H   13.2140   21.0900   17.0820
H   11.5950   21.6280   17.3640
H   12.3060   20.6590   18.6680
C   13.0320   22.5830   18.7360
C   12.2150   23.1990   19.6560
H   11.1450   23.0160   19.6540
C   12.8150   24.0790   20.5840
H   12.1470   24.6520   21.2210
C   14.2070   24.1490   20.7110
H   14.6570   24.8010   21.4530
C   15.0790   23.3670   19.9600
H   16.1550   23.3650   20.1040
C   14.4560   22.6230   18.9390
H   15.0290   21.9490   18.3100
C   14.8830   6.8570   21.3950
H   14.5830   5.8040   21.4680
H   14.1110   7.5640   21.0690
H   14.9540   7.1620   22.4460
C   16.2700   6.9730   20.7720
C   17.3370   6.4110   21.5060
H   17.0910   5.8820   22.4210
C   18.6390   6.6200   20.9560
H   19.4860   6.2070   21.4970
C   18.8360   7.1840   19.6870
H   19.8020   7.2850   19.2010
C   17.7740   7.7920   19.0310
H   17.9360   8.3530   18.1150
C   16.4720   7.7040   19.5680
H   15.6290   8.1750   19.0710
C   14.8160   10.5740   15.3720
H   14.3440   11.0040   14.4800
H   15.1400   11.3900   16.0290
H   13.9830   10.0440   15.8500
C   15.8760   9.5730   14.9300
C   15.5810   8.3740   14.2260
H   14.5360   8.2410   13.9630
C   16.5460   7.4790   13.7060
H   16.2100   6.6290   13.1200
C   17.8520   7.6230   14.2370
H   18.6540   6.9360   13.9850
C   18.1870   8.7030   14.9950
H   19.2350   8.8200   15.2580
C   17.2460   9.6850   15.4350
H   17.6780   10.4650   16.0550
C   8.0650   7.4040   17.5740
H   8.1270   8.0850   16.7160
H   7.5600   7.9240   18.3970
H   7.4880   6.4980   17.3480
C   9.4790   7.0660   18.0080
C   10.5440   7.9760   17.7650
H   10.3730   8.9450   17.3060
C   11.8290   7.6370   18.2640
H   12.7100   8.2510   18.1010
C   12.0090   6.4900   19.0190
H   13.0130   6.2290   19.3400
C   10.9610   5.6080   19.2070
H   11.1880   4.6980   19.7550
C   9.6610   5.8390   18.6640
H   8.8970   5.0800   18.8040
C   18.2400   9.3350   23.8980
H   18.4220   9.0030   24.9280
H   18.8890   10.1800   23.6390
H   18.3460   8.4310   23.2860
C   16.8430   9.7990   23.8620
C   16.4750   10.9760   23.2580
H   17.2340   11.5320   22.7170
C   15.1310   11.3650   23.2170
H   14.8330   12.3010   22.7540
C   14.1480   10.5800   23.8790
H   13.1240   10.9410   23.8510
C   14.5070   9.3760   24.4910
H   13.6960   8.7620   24.8720
C   15.8380   9.0020   24.5510
H   16.1540   8.1380   25.1280
C   10.9060   11.5230   15.8000
H   10.2660   12.1380   16.4450
H   11.8110   12.1010   15.5760
H   11.3030   10.7560   16.4760
C   10.1450   10.8230   14.6590
C   8.8800   11.1470   14.2680
H   8.3050   11.8430   14.8720
C   8.2310   10.3560   13.3000
H   7.1860   10.6060   13.1480
C   8.9080   9.2900   12.6040
H   8.3580   8.8160   11.7960
C   10.2410   9.0790   12.9680
H   10.7620   8.2900   12.4330
C   10.8540   9.7140   14.0870
H   11.8650   9.4940   14.4180
C   12.4900   20.4970   8.7300
H   11.7150   20.4740   7.9540
H   12.2270   19.9760   9.6590
H   13.3460   20.0150   8.2410
C   12.8650   21.9680   8.9270
C   12.1420   22.7970   9.8120
H   11.2610   22.4200   10.3220
C   12.3840   24.1720   9.8850
H   11.8920   24.7890   10.6310
C   13.4520   24.6990   9.1480
H   13.6750   25.7620   9.1740
C   14.2260   23.9500   8.2820
H   15.0110   24.4020   7.6830
C   13.8970   22.5400   8.1400
H   14.4070   21.9210   7.4080
C   25.2240   23.2580   12.7270
H   25.5120   24.3000   12.9180
H   24.9920   23.1420   11.6620
H   26.0960   22.6100   12.8790
C   24.1020   22.8110   13.7090
C   24.1040   23.2240   14.9730
H   24.9610   23.8230   15.2650
C   23.1140   22.7650   15.8740
H   23.0750   23.1170   16.9010
C   22.0540   21.9550   15.3630
H   21.3500   21.5740   16.0970
C   21.9790   21.6570   14.0120
H   21.2210   20.9940   13.6040
C   22.9780   22.0850   13.1860
H   22.9530   21.7500   12.1530
C   15.9690   24.2190   11.3740
H   16.8540   24.6850   11.8250
H   15.3350   25.1120   11.4330
H   16.1270   23.9390   10.3250
C   15.4160   23.1270   12.1800
C   15.0320   21.8940   11.5900
H   15.1170   21.7510   10.5170
C   14.4730   20.9160   12.4130
H   14.1800   19.9440   12.0280
C   14.3810   21.0610   13.7930
H   14.0500   20.2450   14.4290
C   14.8220   22.2110   14.4320
H   14.6700   22.2620   15.5060
C   15.2630   23.2580   13.6150
H   15.6250   24.2030   14.0110
C   7.9820   23.6640   20.2210
H   7.6700   24.1780   19.3030
H   8.8810   24.2110   20.5300
H   7.2090   23.8760   20.9700
C   8.2150   22.1450   20.0450
C   8.9820   21.3660   20.9660
H   9.4280   21.8310   21.8400
C   9.3410   20.0110   20.7260
H   9.9200   19.4750   21.4720
C   8.8720   19.3730   19.6080
H   9.2540   18.3910   19.3440
C   8.1140   20.1330   18.6130
H   7.8040   19.7260   17.6550
C   7.8120   21.5360   18.8670
H   7.2650   22.1110   18.1260
C   16.6400   17.6150   24.7630
H   16.2880   18.1500   25.6540
H   16.0580   17.8970   23.8770
H   17.6690   17.9180   24.5330
C   16.4320   16.1690   24.9640
C   17.4700   15.2850   24.7630
H   18.3820   15.6110   24.2700
C   17.2870   13.9420   25.1470
H   18.0430   13.2190   24.8550
C   16.0500   13.5080   25.7080
H   15.9690   12.4530   25.9550
C   15.0160   14.4460   25.9100
H   14.0840   14.0850   26.3350
C   15.2290   15.7710   25.5010
H   14.4230   16.4770   25.6750
C   9.8970   25.7470   14.8340
H   9.2600   26.2100   14.0700
H   10.9030   26.1810   14.8020
H   9.4340   25.9280   15.8120
C   10.1050   24.2760   14.5480
C   9.4830   23.4020   15.4380
H   8.7910   23.7840   16.1820
C   9.7180   22.0020   15.3700
H   9.2880   21.4530   16.2030
C   10.5190   21.4980   14.3610
H   10.5880   20.4200   14.2480
C   11.0160   22.3430   13.3520
H   11.7280   21.9650   12.6240
C   10.8610   23.7380   13.4830
H   11.4610   24.3570   12.8230
C   21.4460   7.1060   12.4470
H   20.6860   6.3340   12.6150
H   22.2500   6.4780   12.0440
H   21.0510   7.7230   11.6300
C   21.6030   8.0210   13.6490
C   21.7540   7.6760   14.9780
H   21.7640   6.6430   15.3150
C   21.9350   8.6230   16.0550
H   22.0640   8.3230   17.0910
C   22.1380   9.9860   15.6920
H   22.3350   10.8010   16.3830
C   22.0340   10.3260   14.3310
H   22.1590   11.3300   13.9360
C   21.6750   9.3700   13.3830
H   21.5590   9.7230   12.3630
C   22.9880   17.6800   12.2810
H   22.9180   16.8740   13.0210
H   23.7730   18.3620   12.6300
H   23.2480   17.2650   11.3000
C   21.6550   18.3490   12.1870
C   20.6220   18.0880   13.0570
H   20.7970   17.3350   13.8210
C   19.4340   18.7990   13.0450
H   18.7570   18.7330   13.8920
C   19.1760   19.7760   12.0220
H   18.2920   20.4060   12.0440
C   20.1570   19.9410   11.0580
H   19.9550   20.5700   10.1960
C   21.4170   19.2580   11.1840
H   22.2080   19.5330   10.4920
C   11.5670   16.9320   9.5720
H   12.2140   17.1360   8.7100
H   11.2820   15.8920   9.3700
H   12.1900   17.0270   10.4710
C   10.3380   17.8120   9.7330
C   9.4070   17.9080   8.6630
H   9.2760   17.1270   7.9200
C   8.4820   18.9870   8.6270
H   7.7350   19.0310   7.8400
C   8.4710   19.9600   9.6310
H   7.7480   20.7700   9.6540
C   9.3540   19.8350   10.7390
H   9.3650   20.4890   11.6050
C   10.1940   18.7130   10.7970
H   10.9300   18.6810   11.5950
C   12.7180   16.6050   23.0210
H   12.8130   16.8270   21.9510
H   13.7280   16.3210   23.3450
H   12.5000   17.5290   23.5710
C   11.8010   15.4010   23.1530
C   10.6200   15.4240   22.3970
H   10.4520   16.2470   21.7090
C   9.7560   14.2780   22.4410
H   8.8510   14.2660   21.8410
C   10.0090   13.2210   23.3230
H   9.3460   12.3640   23.2430
C   11.1890   13.1930   24.0600
H   11.5060   12.4190   24.7520
C   12.1210   14.2630   23.8890
H   13.0670   14.1720   24.4150
C   18.8420   17.6350   27.7520
H   18.1240   17.0240   28.3120
H   18.2540   18.2490   27.0590
H   19.3830   18.2440   28.4880
C   19.7860   16.8740   26.9420
C   20.9230   17.5130   26.3330
H   21.0460   18.5910   26.2770
C   21.9600   16.7460   25.6900
H   22.7590   17.2130   25.1220
C   21.8200   15.3540   25.7340
H   22.5620   14.8350   25.1340
C   20.7780   14.7860   26.4240
H   20.6730   13.7070   26.4980
C   19.7540   15.4920   26.9560
H   18.9700   15.0490   27.5620
C   25.2430   22.7500   18.9430
H   24.6510   23.3730   19.6240
H   24.6070   22.0920   18.3390
H   25.7690   23.4530   18.2840
C   26.2890   22.0890   19.8050
C   27.6530   22.5380   19.7650
H   27.8930   23.3990   19.1490
C   28.6720   21.9360   20.4790
H   29.6960   22.2960   20.4470
C   28.3120   20.9270   21.3620
H   29.1140   20.5670   22.0000
C   26.9480   20.4890   21.5060
H   26.7050   19.7450   22.2580
C   25.9360   21.0700   20.7010
H   24.8820   20.8350   20.8180
C   8.6660   14.0750   6.3660
H   9.5670   14.3180   5.7890
H   8.3130   15.1000   6.5330
H   8.0120   13.6260   5.6080
C   8.9520   13.1750   7.5700
C   9.2520   13.8780   8.7390
H   9.0790   14.9490   8.7860
C   9.7250   13.1670   9.8870
H   10.1540   13.6370   10.7670
C   9.7320   11.7360   9.9480
H   9.9080   11.1180   10.8230
C   9.4160   11.0830   8.7270
H   9.5500   10.0100   8.6190
C   9.0570   11.7790   7.5340
H   8.9280   11.2640   6.5870
C   8.9500   11.1620   20.3870
H   9.6770   10.3770   20.1430
H   8.1570   10.6850   20.9760
H   9.5010   11.9120   20.9680
C   8.2120   11.8340   19.2710
C   8.5700   13.1620   18.8940
H   9.3950   13.6460   19.4100
C   7.8880   13.7660   17.8650
H   8.0520   14.7920   17.5510
C   6.8730   13.0430   17.1600
H   6.3940   13.5060   16.3020
C   6.6020   11.7170   17.5240
H   5.9300   11.0650   16.9750
C   7.2670   11.0920   18.5130
H   6.9380   10.1170   18.8610
C   26.4570   12.4450   13.5550
H   27.1280   12.9590   14.2540
H   26.8800   12.5280   12.5470
H   26.3480   11.3870   13.8240
C   25.0650   13.0040   13.5080
C   24.3200   13.0670   12.3170
H   24.6950   12.4320   11.5200
C   23.1080   13.7070   12.1810
H   22.5800   13.8270   11.2400
C   22.5170   14.2950   13.4070
H   21.5280   14.7440   13.3850
C   23.1780   14.0720   14.6700
H   22.7680   14.3710   15.6300
C   24.4820   13.4620   14.6840
H   25.0670   13.3620   15.5930
C   17.5710   21.2480   6.8890
H   18.6510   21.3700   6.7390
H   17.1030   22.0750   7.4370
H   17.0720   21.3190   5.9150
C   17.2290   19.8820   7.3990
C   18.1980   19.0800   7.9940
H   19.2050   19.4850   8.0050
C   17.9790   17.8310   8.6610
H   18.7330   17.2870   9.2230
C   16.6260   17.3740   8.6220
H   16.3320   16.4460   9.1030
C   15.6520   18.0670   7.8430
H   14.6170   17.7430   7.7980
C   15.9210   19.3400   7.2650
H   15.0810   19.8910   6.8510
C   21.3760   21.0260   23.7240
H   20.4220   20.4870   23.7730
H   21.7020   21.4030   24.7020
H   22.0140   20.1900   23.4130
C   21.3200   22.2390   22.7430
C   21.4220   21.9180   21.3730
H   21.5590   20.8770   21.0950
C   21.1640   22.8820   20.4680
H   21.2420   22.6310   19.4150
C   20.8980   24.2170   20.9180
H   20.7360   25.0150   20.1990
C   20.8810   24.5300   22.2790
H   20.7390   25.5510   22.6190
C   21.0600   23.5250   23.2330
H   21.0710   23.7440   24.2960
C   13.4980   11.9160   9.8290
H   12.9760   11.0440   9.4180
H   12.8920   12.3220   10.6480
H   14.4620   11.6150   10.2580
C   13.7160   13.0320   8.7680
C   15.0200   13.6160   8.6070
H   15.8970   13.3430   9.1870
C   15.2000   14.6260   7.6390
H   16.2250   14.9300   7.4480
C   14.1260   14.9630   6.7830
H   14.1730   15.7170   6.0030
C   12.8520   14.5840   7.1130
H   12.0640   15.0130   6.5020
C   12.6470   13.5090   8.0450
H   11.7110   12.9710   8.1580
C   19.7440   10.5210   20.4450
H   19.1710   11.4550   20.4980
H   19.2620   9.7620   21.0740
H   19.7140   10.3290   19.3650
C   21.1430   10.7570   21.0140
C   22.2290   10.3180   20.2850
H   22.1500   9.9270   19.2750
C   23.5250   10.5680   20.8390
H   24.4000   10.2310   20.2920
C   23.7170   11.1630   22.0780
H   24.7300   11.2050   22.4680
C   22.5380   11.3930   22.8610
H   22.7390   11.7980   23.8480
C   21.2670   11.2310   22.2990
H   20.3950   11.6100   22.8240
C   29.8070   21.0370   16.6750
H   29.7320   22.0770   16.3350
H   30.3810   20.5460   15.8790
H   30.3680   20.9570   17.6140
C   28.4450   20.3010   16.9690
C   28.2260   19.5640   18.1860
H   29.0220   19.4550   18.9170
C   26.8940   19.1050   18.4470
H   26.6720   18.4880   19.3130
C   25.8510   19.3550   17.6180
H   24.8790   18.9520   17.8890
C   26.0900   20.0720   16.3750
H   25.2500   20.2200   15.7020
C   27.3720   20.5830   16.0780
H   27.4500   21.3560   15.3190
C   18.5500   10.0140   11.4130
H   18.7830   9.7570   12.4530
H   19.3500   9.5800   10.8000
H   17.6150   9.5640   11.0570
C   18.6360   11.5680   11.2050
C   19.5130   12.2330   10.3370
H   20.2410   11.5850   9.8580
C   19.5720   13.6310   10.2560
H   20.3650   14.1740   9.7510
C   18.5680   14.3480   10.9390
H   18.6520   15.4260   10.8390
C   17.6480   13.7120   11.7250
H   17.1040   14.3100   12.4500
C   17.7060   12.3240   11.9490
H   17.2340   11.8230   12.7890
C   22.1020   25.4310   5.5970
H   21.4160   26.2880   5.5930
H   21.7860   24.8510   4.7220
H   23.1330   25.7650   5.4260
C   21.9980   24.6230   6.8970
C   21.0770   23.5600   6.9970
H   20.5490   23.2000   6.1180
C   20.8770   22.8840   8.2000
H   20.2320   22.0110   8.2230
C   21.4880   23.3510   9.3830
H   21.2750   22.8260   10.3090
C   22.4070   24.4640   9.3180
H   22.8440   24.9190   10.2020
C   22.7460   25.0220   8.0470
H   23.4980   25.8030   7.9750
C   19.3651   18.5245   21.4485
H   20.0920   18.5026   22.2465
H   18.7741   19.4207   21.6077
H   19.9153   18.6359   20.5181
C   18.5196   17.2642   21.4271
C   17.1372   17.2828   21.2267
H   16.6374   18.2269   21.0753
C   16.3907   16.1137   21.2248
H   15.3173   16.1758   21.0464
C   16.9779   14.8764   21.4217
H   16.4037   13.9721   21.4462
C   18.3604   14.8321   21.6228
H   18.8675   13.8986   21.7762
C   19.1183   16.0092   21.6217
H   20.1698   15.9556   21.7938
562
Frame 33
C   16.2485   16.0207   17.2625
C   18.6212   16.6656   16.8119
C   15.7681   17.4466   17.4592
C   19.2957   16.0339   18.0071
C   19.5481   16.7740   15.6049
N   17.4458   15.8706   16.4618
N   15.2469   15.1532   16.7327
O   15.2770   18.0498   16.2688
H   14.3304   17.8802   16.2491
H   17.2762   15.8577   15.4627
H   16.4896   15.7404   18.2843
H   18.3240   17.6733   17.1053
H   14.3745   15.0380   17.2248
H   15.1759   15.1162   15.7318
H   16.6213   18.0324   17.7733
H   15.0042   17.4388   18.2517
H   20.0979   16.6730   18.3922
H   18.9633   16.8254   14.6876
H   19.7066   15.0651   17.7343
H   18.5951   15.8657   18.8177
H   20.1688   17.6639   15.6945
H   20.2179   15.9028   15.5343
C   31.0130   13.4690   20.5000
H   31.2490   12.6100   21.1410
H   31.6000   14.3580   20.7590
H   31.3090   13.1730   19.4860
C   29.5240   13.6930   20.5110
C   28.9490   14.9820   20.4600
H   29.6230   15.8190   20.3030
C   27.5460   15.1780   20.4020
H   27.1240   16.1710   20.2790
C   26.7510   14.0910   20.7820
H   25.6720   14.1250   20.8970
C   27.2930   12.7880   20.7300
H   26.5470   12.0120   20.8740
C   28.6890   12.5880   20.6520
H   29.0430   11.5650   20.7440
C   9.2210   14.9750   13.0480
H   9.9180   14.2170   12.6700
H   8.7250   15.4390   12.1860
H   8.5460   14.3880   13.6810
C   9.9500   16.0790   13.9260
C   11.1730   16.6700   13.5290
H   11.6950   16.2330   12.6830
C   11.7790   17.6500   14.3810
H   12.6890   18.1940   14.1470
C   11.0580   18.1190   15.4870
H   11.4490   19.0070   15.9740
C   9.8790   17.5550   15.8260
H   9.3990   17.9040   16.7360
C   9.3470   16.4720   15.1090
H   8.3400   16.1840   15.3940
C   13.1040   20.9490   22.1230
H   12.1100   21.0700   22.5720
H   13.3280   19.8760   22.1570
H   12.9300   21.4440   21.1600
C   14.1720   21.7290   22.9410
C   13.9780   23.0550   23.3640
H   12.9880   23.4780   23.2220
C   14.9570   23.7090   24.0980
H   14.8720   24.7370   24.4370
C   16.0910   23.0190   24.4910
H   16.8240   23.5570   25.0840
C   16.3390   21.7000   24.0260
H   17.2960   21.2060   24.1580
C   15.3480   21.0720   23.2660
H   15.4870   20.1110   22.7800
C   22.3270   16.0930   8.4030
H   22.3260   16.2600   9.4870
H   21.4310   15.6720   7.9300
H   22.4190   17.0690   7.9110
C   23.4930   15.2320   7.9250
C   24.6760   15.8080   7.3600
H   24.7170   16.8840   7.2220
C   25.8340   15.0550   7.0100
H   26.7290   15.6050   6.7360
C   25.7140   13.6410   7.1510
H   26.5440   12.9840   6.9070
C   24.5170   13.0840   7.6510
H   24.4140   12.0140   7.8020
C   23.4280   13.8620   7.9640
H   22.4620   13.4500   8.2420
C   13.3770   8.3710   11.1840
H   13.9280   8.9300   11.9500
H   12.7730   7.5980   11.6750
H   12.7470   9.0620   10.6100
C   14.2950   7.7300   10.0940
C   14.0090   6.4760   9.6240
H   13.0770   6.0180   9.9390
C   14.8900   5.7890   8.7340
H   14.6040   4.8470   8.2740
C   16.0940   6.4030   8.4280
H   16.8170   5.9830   7.7360
C   16.3240   7.7020   8.8800
H   17.2290   8.1990   8.5440
C   15.3900   8.3770   9.6670
H   15.4990   9.4410   9.8550
C   22.3720   27.5750   12.3440
H   22.6740   28.6260   12.2520
H   21.8660   27.2750   11.4180
H   23.3360   27.0640   12.4640
C   21.5860   27.1640   13.5380
C   20.6270   26.1270   13.4710
H   20.5230   25.5770   12.5400
C   19.8190   25.9080   14.6070
H   19.0410   25.1530   14.6740
C   19.8330   26.8130   15.6810
H   19.1800   26.6280   16.5280
C   20.7150   27.8320   15.6880
H   20.6750   28.5050   16.5390
C   21.6510   27.9300   14.6880
H   22.3640   28.7490   14.7160
C   26.3230   15.1720   24.4190
H   27.1730   15.7810   24.7530
H   26.9100   14.3730   23.9500
H   25.8350   14.6810   25.2700
C   25.2980   15.8310   23.5700
C   25.3310   17.2270   23.3880
H   26.0260   17.7850   24.0090
C   24.4240   17.8360   22.4700
H   24.3120   18.9080   22.3350
C   23.4800   16.9710   21.8510
H   22.7300   17.3880   21.1860
C   23.4350   15.6140   22.0990
H   22.6180   15.0160   21.7070
C   24.3990   15.0550   22.9540
H   24.2710   14.0400   23.3190
C   12.5310   21.3930   17.8850
H   13.2140   21.0900   17.0820
H   11.5950   21.6280   17.3640
H   12.3060   20.6590   18.6680
C   13.0320   22.5830   18.7360
C   12.2150   23.1990   19.6560
H   11.1450   23.0160   19.6540
C   12.8150   24.0790   20.5840
H   12.1470   24.6520   21.2210
C   14.2070   24.1490   20.7110
H   14.6570   24.8010   21.4530
C   15.0790   23.3670   19.9600
H   16.1550   23.3650   20.1040
C   14.4560   22.6230   18.9390
H   15.0290   21.9490   18.3100
C   14.8830   6.8570   21.3950
H   14.5830   5.8040   21.4680
H   14.1110   7.5640   21.0690
H   14.9540   7.1620   22.4460
C   16.2700   6.9730   20.7720
C   17.3370   6.4110   21.5060
H   17.0910   5.8820   22.4210
C   18.6390   6.6200   20.9560
H   19.4860   6.2070   21.4970
C   18.8360   7.1840   19.6870
H   19.8020   7.2850   19.2010
C   17.7740   7.7920   19.0310
H   17.9360   8.3530   18.1150
C   16.4720   7.7040   19.5680
H   15.6290   8.1750   19.0710
C   14.8160   10.5740   15.3720
H   14.3440   11.0040   14.4800
H   15.1400   11.3900   16.0290
H   13.9830   10.0440   15.8500
C   15.8760   9.5730   14.9300
C   15.5810   8.3740   14.2260
H   14.5360   8.2410   13.9630
C   16.5460   7.4790   13.7060
H   16.2100   6.6290   13.1200
C   17.8520   7.6230   14.2370
H   18.6540   6.9360   13.9850
C   18.1870   8.7030   14.9950
H   19.2350   8.8200   15.2580
C   17.2460   9.6850   15.4350
H   17.6780   10.4650   16.0550
C   8.0650   7.4040   17.5740
H   8.1270   8.0850   16.7160
H   7.5600   7.9240   18.3970
H   7.4880   6.4980   17.3480
C   9.4790   7.0660   18.0080
C   10.5440   7.9760   17.7650
H   10.3730   8.9450   17.3060
C   11.8290   7.6370   18.2640
H   12.7100   8.2510   18.1010
C   12.0090   6.4900   19.0190
H   13.0130   6.2290   19.3400
C   10.9610   5.6080   19.2070
H   11.1880   4.6980   19.7550
C   9.6610   5.8390   18.6640
H   8.8970   5.0800   18.8040
C   18.2400   9.3350   23.8980
H   18.4220   9.0030   24.9280
H   18.8890   10.1800   23.6390
H   18.3460   8.4310   23.2860
C   16.8430   9.7990   23.8620
C   16.4750   10.9760   23.2580
H   17.2340   11.5320   22.7170
C   15.1310   11.3650   23.2170
H   14.8330   12.3010   22.7540
C   14.1480   10.5800   23.8790
H   13.1240   10.9410   23.8510
C   14.5070   9.3760   24.4910
H   13.6960   8.7620   24.8720
C   15.8380   9.0020   24.5510
H   16.1540   8.1380   25.1280
C   10.9060   11.5230   15.8000
H   10.2660   12.1380   16.4450
H   11.8110   12.1010   15.5760
H   11.3030   10.7560   16.4760
C   10.1450   10.8230   14.6590
C   8.8800   11.1470   14.2680
H   8.3050   11.8430   14.8720
C   8.2310   10.3560   13.3000
H   7.1860   10.6060   13.1480
C   8.9080   9.2900   12.6040
H   8.3580   8.8160   11.7960
C   10.2410   9.0790   12.9680
H   10.7620   8.2900   12.4330
C   10.8540   9.7140   14.0870
H   11.8650   9.4940   14.4180
C   12.4900   20.4970   8.7300
H   11.7150   20.4740   7.9540
H   12.2270   19.9760   9.6590
H   13.3460   20.0150   8.2410
C   12.8650   21.9680   8.9270
C   12.1420   22.7970   9.8120
H   11.2610   22.4200   10.3220
C   12.3840   24.1720   9.8850
H   11.8920   24.7890   10.6310
C   13.4520   24.6990   9.1480
H   13.6750   25.7620   9.1740
C   14.2260   23.9500   8.2820
H   15.0110   24.4020   7.6830
C   13.8970   22.5400   8.1400
H   14.4070   21.9210   7.4080
C   25.2240   23.2580   12.7270
H   25.5120   24.3000   12.9180
H   24.9920   23.1420   11.6620
H   26.0960   22.6100   12.8790
C   24.1020   22.8110   13.7090
C   24.1040   23.2240   14.9730
H   24.9610   23.8230   15.2650
C   23.1140   22.7650   15.8740
H   23.0750   23.1170   16.9010
C   22.0540   21.9550   15.3630
H   21.3500   21.5740   16.0970
C   21.9790   21.6570   14.0120
H   21.2210   20.9940   13.6040
C   22.9780   22.0850   13.1860
H   22.9530   21.7500   12.1530
C   15.9690   24.2190   11.3740
H   16.8540   24.6850   11.8250
H   15.3350   25.1120   11.4330
H   16.1270   23.9390   10.3250
C   15.4160   23.1270   12.1800
C   15.0320   21.8940   11.5900
H   15.1170   21.7510   10.5170
C   14.4730   20.9160   12.4130
H   14.1800   19.9440   12.0280
C   14.3810   21.0610   13.7930
H   14.0500   20.2450   14.4290
C   14.8220   22.2110   14.4320
H   14.6700   22.2620   15.5060
C   15.2630   23.2580   13.6150
H   15.6250   24.2030   14.0110
C   7.9820   23.6640   20.2210
H   7.6700   24.1780   19.3030
H   8.8810   24.2110   20.5300
H   7.2090   23.8760   20.9700
C   8.2150   22.1450   20.0450
C   8.9820   21.3660   20.9660
H   9.4280   21.8310   21.8400
C   9.3410   20.0110   20.7260
H   9.9200   19.4750   21.4720
C   8.8720   19.3730   19.6080
H   9.2540   18.3910   19.3440
C   8.1140   20.1330   18.6130
H   7.8040   19.7260   17.6550
C   7.8120   21.5360   18.8670
H   7.2650   22.1110   18.1260
C   16.6400   17.6150   24.7630
H   16.2880   18.1500   25.6540
H   16.0580   17.8970   23.8770
H   17.6690   17.9180   24.5330
C   16.4320   16.1690   24.9640
C   17.4700   15.2850   24.7630
H   18.3820   15.6110   24.2700
C   17.2870   13.9420   25.1470
H   18.0430   13.2190   24.8550
C   16.0500   13.5080   25.7080
H   15.9690   12.4530   25.9550
C   15.0160   14.4460   25.9100
H   14.0840   14.0850   26.3350
C   15.2290   15.7710   25.5010
H   14.4230   16.4770   25.6750
C   9.8970   25.7470   14.8340
H   9.2600   26.2100   14.0700
H   10.9030   26.1810   14.8020
H   9.4340   25.9280   15.8120
C   10.1050   24.2760   14.5480
C   9.4830   23.4020   15.4380
H   8.7910   23.7840   16.1820
C   9.7180   22.0020   15.3700
H   9.2880   21.4530   16.2030
C   10.5190   21.4980   14.3610
H   10.5880   20.4200   14.2480
C   11.0160   22.3430   13.3520
H   11.7280   21.9650   12.6240
C   10.8610   23.7380   13.4830
H   11.4610   24.3570   12.8230
C   21.4460   7.1060   12.4470
H   20.6860   6.3340   12.6150
H   22.2500   6.4780   12.0440
H   21.0510   7.7230   11.6300
C   21.6030   8.0210   13.6490
C   21.7540   7.6760   14.9780
H   21.7640   6.6430   15.3150
C   21.9350   8.6230   16.0550
H   22.0640   8.3230   17.0910
C   22.1380   9.9860   15.6920
H   22.3350   10.8010   16.3830
C   22.0340   10.3260   14.3310
H   22.1590   11.3300   13.9360
C   21.6750   9.3700   13.3830
H   21.5590   9.7230   12.3630
C   22.9880   17.6800   12.2810
H   22.9180   16.8740   13.0210
H   23.7730   18.3620   12.6300
H   23.2480   17.2650   11.3000
C   21.6550   18.3490   12.1870
C   20.6220   18.0880   13.0570
H   20.7970   17.3350   13.8210
C   19.4340   18.7990   13.0450
H   18.7570   18.7330   13.8920
C   19.1760   19.7760   12.0220
H   18.2920   20.4060   12.0440
C   20.1570   19.9410   11.0580
H   19.9550   20.5700   10.1960
C   21.4170   19.2580   11.1840
H   22.2080   19.5330   10.4920
C   11.5670   16.9320   9.5720
H   12.2140   17.1360   8.7100
H   11.2820   15.8920   9.3700
H   12.1900   17.0270   10.4710
C   10.3380   17.8120   9.7330
C   9.4070   17.9080   8.6630
H   9.2760   17.1270   7.9200
C   8.4820   18.9870   8.6270
H   7.7350   19.0310   7.8400
C   8.4710   19.9600   9.6310
H   7.7480   20.7700   9.6540
C   9.3540   19.8350   10.7390
H   9.3650   20.4890   11.6050
C   10.1940   18.7130   10.7970
H   10.9300   18.6810   11.5950
C   12.7180   16.6050   23.0210
H   12.8130   16.8270   21.9510
H   13.7280   16.3210   23.3450
H   12.5000   17.5290   23.5710
C   11.8010   15.4010   23.1530
C   10.6200   15.4240   22.3970
H   10.4520   16.2470   21.7090
C   9.7560   14.2780   22.4410
H   8.8510   14.2660   21.8410
C   10.0090   13.2210   23.3230
H   9.3460   12.3640   23.2430
C   11.1890   13.1930   24.0600
H   11.5060   12.4190   24.7520
C   12.1210   14.2630   23.8890
H   13.0670   14.1720   24.4150
C   18.8420   17.6350   27.7520
H   18.1240   17.0240   28.3120
H   18.2540   18.2490   27.0590
H   19.3830   18.2440   28.4880
C   19.7860   16.8740   26.9420
C   20.9230   17.5130   26.3330
H   21.0460   18.5910   26.2770
C   21.9600   16.7460   25.6900
H   22.7590   17.2130   25.1220
C   21.8200   15.3540   25.7340
H   22.5620   14.8350   25.1340
C   20.7780   14.7860   26.4240
H   20.6730   13.7070   26.4980
C   19.7540   15.4920   26.9560
H   18.9700   15.0490   27.5620
C   25.2430   22.7500   18.9430
H   24.6510   23.3730   19.6240
H   24.6070   22.0920   18.3390
H   25.7690   23.4530   18.2840
C   26.2890   22.0890   19.8050
C   27.6530   22.5380   19.7650
H   27.8930   23.3990   19.1490
C   28.6720   21.9360   20.4790
H   29.6960   22.2960   20.4470
C   28.3120   20.9270   21.3620
H   29.1140   20.5670   22.0000
C   26.9480   20.4890   21.5060
H   26.7050   19.7450   22.2580
C   25.9360   21.0700   20.7010
H   24.8820   20.8350   20.8180
C   8.6660   14.0750   6.3660
H   9.5670   14.3180   5.7890
H   8.3130   15.1000   6.5330
H   8.0120   13.6260   5.6080
C   8.9520   13.1750   7.5700
C   9.2520   13.8780   8.7390
H   9.0790   14.9490   8.7860
C   9.7250   13.1670   9.8870
H   10.1540   13.6370   10.7670
C   9.7320   11.7360   9.9480
H   9.9080   11.1180   10.8230
C   9.4160   11.0830   8.7270
H   9.5500   10.0100   8.6190
C   9.0570   11.7790   7.5340
H   8.9280   11.2640   6.5870
C   8.9500   11.1620   20.3870
H   9.6770   10.3770   20.1430
H   8.1570   10.6850   20.9760
H   9.5010   11.9120   20.9680
C   8.2120   11.8340   19.2710
C   8.5700   13.1620   18.8940
H   9.3950   13.6460   19.4100
C   7.8880   13.7660   17.8650
H   8.0520   14.7920   17.5510
C   6.8730   13.0430   17.1600
H   6.3940   13.5060   16.3020
C   6.6020   11.7170   17.5240
H   5.9300   11.0650   16.9750
C   7.2670   11.0920   18.5130
H   6.9380   10.1170   18.8610
C   26.4570   12.4450   13.5550
H   27.1280   12.9590   14.2540
H   26.8800   12.5280   12.5470
H   26.3480   11.3870   13.8240
C   25.0650   13.0040   13.5080
C   24.3200   13.0670   12.3170
H   24.6950   12.4320   11.5200
C   23.1080   13.7070   12.1810
H   22.5800   13.8270   11.2400
C   22.5170   14.2950   13.4070
H   21.5280   14.7440   13.3850
C   23.1780   14.0720   14.6700
H   22.7680   14.3710   15.6300
C   24.4820   13.4620   14.6840
H   25.0670   13.3620   15.5930
C   17.5710   21.2480   6.8890
H   18.6510   21.3700   6.7390
H   17.1030   22.0750   7.4370
H   17.0720   21.3190   5.9150
C   17.2290   19.8820   7.3990
C   18.1980   19.0800   7.9940
H   19.2050   19.4850   8.0050
C   17.9790   17.8310   8.6610
H   18.7330   17.2870   9.2230
C   16.6260   17.3740   8.6220
H   16.3320   16.4460   9.1030
C   15.6520   18.0670   7.8430
H   14.6170   17.7430   7.7980
C   15.9210   19.3400   7.2650
H   15.0810   19.8910   6.8510
C   21.3760   21.0260   23.7240
H   20.4220   20.4870   23.7730
H   21.7020   21.4030   24.7020
H   22.0140   20.1900   23.4130
C   21.3200   22.2390   22.7430
C   21.4220   21.9180   21.3730
H   21.5590   20.8770   21.0950
C   21.1640   22.8820   20.4680
H   21.2420   22.6310   19.4150
C   20.8980   24.2170   20.9180
H   20.7360   25.0150   20.1990
C   20.8810   24.5300   22.2790
H   20.7390   25.5510   22.6190
C   21.0600   23.5250   23.2330
H   21.0710   23.7440   24.2960
C   13.4980   11.9160   9.8290
H   12.9760   11.0440   9.4180
H   12.8920   12.3220   10.6480
H   14.4620   11.6150   10.2580
C   13.7160   13.0320   8.7680
C   15.0200   13.6160   8.6070
H   15.8970   13.3430   9.1870
C   15.2000   14.6260   7.6390
H   16.2250   14.9300   7.4480
C   14.1260   14.9630   6.7830
H   14.1730   15.7170   6.0030
C   12.8520   14.5840   7.1130
H   12.0640   15.0130   6.5020
C   12.6470   13.5090   8.0450
H   11.7110   12.9710   8.1580
C   19.7440   10.5210   20.4450
H   19.1710   11.4550   20.4980
H   19.2620   9.7620   21.0740
H   19.7140   10.3290   19.3650
C   21.1430   10.7570   21.0140
C   22.2290   10.3180   20.2850
H   22.1500   9.9270   19.2750
C   23.5250   10.5680   20.8390
H   24.4000   10.2310   20.2920
C   23.7170   11.1630   22.0780
H   24.7300   11.2050   22.4680
C   22.5380   11.3930   22.8610
H   22.7390   11.7980   23.8480
C   21.2670   11.2310   22.2990
H   20.3950   11.6100   22.8240
C   29.8070   21.0370   16.6750
H   29.7320   22.0770   16.3350
H   30.3810   20.5460   15.8790
H   30.3680   20.9570   17.6140
C   28.4450   20.3010   16.9690
C   28.2260   19.5640   18.1860
H   29.0220   19.4550   18.9170
C   26.8940   19.1050   18.4470
H   26.6720   18.4880   19.3130
C   25.8510   19.3550   17.6180
H   24.8790   18.9520   17.8890
C   26.0900   20.0720   16.3750
H   25.2500   20.2200   15.7020
C   27.3720   20.5830   16.0780
H   27.4500   21.3560   15.3190
C   18.5500   10.0140   11.4130
H   18.7830   9.7570   12.4530
H   19.3500   9.5800   10.8000
H   17.6150   9.5640   11.0570
C   18.6360   11.5680   11.2050
C   19.5130   12.2330   10.3370
H   20.2410   11.5850   9.8580
C   19.5720   13.6310   10.2560
H   20.3650   14.1740   9.7510
C   18.5680   14.3480   10.9390
H   18.6520   15.4260   10.8390
C   17.6480   13.7120   11.7250
H   17.1040   14.3100   12.4500
C   17.7060   12.3240   11.9490
H   17.2340   11.8230   12.7890
C   22.1020   25.4310   5.5970
H   21.4160   26.2880   5.5930
H   21.7860   24.8510   4.7220
H   23.1330   25.7650   5.4260
C   21.9980   24.6230   6.8970
C   21.0770   23.5600   6.9970
H   20.5490   23.2000   6.1180
C   20.8770   22.8840   8.2000
H   20.2320   22.0110   8.2230
C   21.4880   23.3510   9.3830
H   21.2750   22.8260   10.3090
C   22.4070   24.4640   9.3180
H   22.8440   24.9190   10.2020
C   22.7460   25.0220   8.0470
H   23.4980   25.8030   7.9750
C   19.3633   18.5251   21.4467
H   20.0883   18.4976   22.2468
H   18.7749   19.4209   21.6115
H   19.9118   18.6400   20.5153
C   18.5200   17.2680   21.4255
C   17.1352   17.2785   21.2244
H   16.6372   18.2247   21.0817
C   16.3863   16.1126   21.2268
H   15.3175   16.1837   21.0570
C   16.9839   14.8704   21.4206
H   16.3995   13.9724   21.4453
C   18.3641   14.8416   21.6182
H   18.8658   13.8981   21.7773
C   19.1167   16.0076   21.6200
H   20.1708   15.9583   21.8019
562
Frame 34
C   16.2584   16.0070   17.2634
C   18.6163   16.6657   16.8136
C   15.7656   17.4364   17.4517
C   19.2982   16.0342   18.0110
C   19.5467   16.7729   15.6098
N   17.4505   15.8689   16.4581
N   15.2603   15.1197   16.7373
O   15.2816   18.0342   16.2619
H   14.3366   17.8516   16.2459
H   17.2745   15.9064   15.4564
H   16.4882   15.7384   18.2914
H   18.3185   17.6660   17.1145
H   14.3696   15.0732   17.2283
H   15.1395   15.1427   15.7414
H   16.6193   18.0142   17.7755
H   15.0010   17.4277   18.2449
H   20.0995   16.6709   18.4016
H   18.9622   16.8218   14.6898
H   19.7047   15.0654   17.7363
H   18.6045   15.8700   18.8269
H   20.1775   17.6589   15.6904
H   20.2073   15.8924   15.5425
C   31.0130   13.4690   20.5000
H   31.2490   12.6100   21.1410
H   31.6000   14.3580   20.7590
H   31.3090   13.1730   19.4860
C   29.5240   13.6930   20.5110
C   28.9490   14.9820   20.4600
H   29.6230   15.8190   20.3030
C   27.5460   15.1780   20.4020
H   27.1240   16.1710   20.2790
C   26.7510   14.0910   20.7820
H   25.6720   14.1250   20.8970
C   27.2930   12.7880   20.7300
H   26.5470   12.0120   20.8740
C   28.6890   12.5880   20.6520
H   29.0430   11.5650   20.7440
C   9.2210   14.9750   13.0480
H   9.9180   14.2170   12.6700
H   8.7250   15.4390   12.1860
H   8.5460   14.3880   13.6810
C   9.9500   16.0790   13.9260
C   11.1730   16.6700   13.5290
H   11.6950   16.2330   12.6830
C   11.7790   17.6500   14.3810
H   12.6890   18.1940   14.1470
C   11.0580   18.1190   15.4870
H   11.4490   19.0070   15.9740
C   9.8790   17.5550   15.8260
H   9.3990   17.9040   16.7360
C   9.3470   16.4720   15.1090
H   8.3400   16.1840   15.3940
C   13.1040   20.9490   22.1230
H   12.1100   21.0700   22.5720
H   13.3280   19.8760   22.1570
H   12.9300   21.4440   21.1600
C   14.1720   21.7290   22.9410
C   13.9780   23.0550   23.3640
H   12.9880   23.4780   23.2220
C   14.9570   23.7090   24.0980
H   14.8720   24.7370   24.4370
C   16.0910   23.0190   24.4910
H   16.8240   23.5570   25.0840
C   16.3390   21.7000   24.0260
H   17.2960   21.2060   24.1580
C   15.3480   21.0720   23.2660
H   15.4870   20.1110   22.7800
C   22.3270   16.0930   8.4030
H   22.3260   16.2600   9.4870
H   21.4310   15.6720   7.9300
H   22.4190   17.0690   7.9110
C   23.4930   15.2320   7.9250
C   24.6760   15.8080   7.3600
H   24.7170   16.8840   7.2220
C   25.8340   15.0550   7.0100
H   26.7290   15.6050   6.7360
C   25.7140   13.6410   7.1510
H   26.5440   12.9840   6.9070
C   24.5170   13.0840   7.6510
H   24.4140   12.0140   7.8020
C   23.4280   13.8620   7.9640
H   22.4620   13.4500   8.2420
C   13.3770   8.3710   11.1840
H   13.9280   8.9300   11.9500
H   12.7730   7.5980   11.6750
H   12.7470   9.0620   10.6100
C   14.2950   7.7300   10.0940
C   14.0090   6.4760   9.6240
H   13.0770   6.0180   9.9390
C   14.8900   5.7890   8.7340
H   14.6040   4.8470   8.2740
C   16.0940   6.4030   8.4280
H   16.8170   5.9830   7.7360
C   16.3240   7.7020   8.8800
H   17.2290   8.1990   8.5440
C   15.3900   8.3770   9.6670
H   15.4990   9.4410   9.8550
C   22.3720   27.5750   12.3440
H   22.6740   28.6260   12.2520
H   21.8660   27.2750   11.4180
H   23.3360   27.0640   12.4640
C   21.5860   27.1640   13.5380
C   20.6270   26.1270   13.4710
H   20.5230   25.5770   12.5400
C   19.8190   25.9080   14.6070
H   19.0410   25.1530   14.6740
C   19.8330   26.8130   15.6810
H   19.1800   26.6280   16.5280
C   20.7150   27.8320   15.6880
H   20.6750   28.5050   16.5390
C   21.6510   27.9300   14.6880
H   22.3640   28.7490   14.7160
C   26.3230   15.1720   24.4190
H   27.1730   15.7810   24.7530
H   26.9100   14.3730   23.9500
H   25.8350   14.6810   25.2700
C   25.2980   15.8310   23.5700
C   25.3310   17.2270   23.3880
H   26.0260   17.7850   24.0090
C   24.4240   17.8360   22.4700
H   24.3120   18.9080   22.3350
C   23.4800   16.9710   21.8510
H   22.7300   17.3880   21.1860
C   23.4350   15.6140   22.0990
H   22.6180   15.0160   21.7070
C   24.3990   15.0550   22.9540
H   24.2710   14.0400   23.3190
C   12.5310   21.3930   17.8850
H   13.2140   21.0900   17.0820
H   11.5950   21.6280   17.3640
H   12.3060   20.6590   18.6680
C   13.0320   22.5830   18.7360
C   12.2150   23.1990   19.6560
H   11.1450   23.0160   19.6540
C   12.8150   24.0790   20.5840
H   12.1470   24.6520   21.2210
C   14.2070   24.1490   20.7110
H   14.6570   24.8010   21.4530
C   15.0790   23.3670   19.9600
H   16.1550   23.3650   20.1040
C   14.4560   22.6230   18.9390
H   15.0290   21.9490   18.3100
C   14.8830   6.8570   21.3950
H   14.5830   5.8040   21.4680
H   14.1110   7.5640   21.0690
H   14.9540   7.1620   22.4460
C   16.2700   6.9730   20.7720
C   17.3370   6.4110   21.5060
H   17.0910   5.8820   22.4210
C   18.6390   6.6200   20.9560
H   19.4860   6.2070   21.4970
C   18.8360   7.1840   19.6870
H   19.8020   7.2850   19.2010
C   17.7740   7.7920   19.0310
H   17.9360   8.3530   18.1150
C   16.4720   7.7040   19.5680
H   15.6290   8.1750   19.0710
C   14.8160   10.5740   15.3720
H   14.3440   11.0040   14.4800
H   15.1400   11.3900   16.0290
H   13.9830   10.0440   15.8500
C   15.8760   9.5730   14.9300
C   15.5810   8.3740   14.2260
H   14.5360   8.2410   13.9630
C   16.5460   7.4790   13.7060
H   16.2100   6.6290   13.1200
C   17.8520   7.6230   14.2370
H   18.6540   6.9360   13.9850
C   18.1870   8.7030   14.9950
H   19.2350   8.8200   15.2580
C   17.2460   9.6850   15.4350
H   17.6780   10.4650   16.0550
C   8.0650   7.4040   17.5740
H   8.1270   8.0850   16.7160
H   7.5600   7.9240   18.3970
H   7.4880   6.4980   17.3480
C   9.4790   7.0660   18.0080
C   10.5440   7.9760   17.7650
H   10.3730   8.9450   17.3060
C   11.8290   7.6370   18.2640
H   12.7100   8.2510   18.1010
C   12.0090   6.4900   19.0190
H   13.0130   6.2290   19.3400
C   10.9610   5.6080   19.2070
H   11.1880   4.6980   19.7550
C   9.6610   5.8390   18.6640
H   8.8970   5.0800   18.8040
C   18.2400   9.3350   23.8980
H   18.4220   9.0030   24.9280
H   18.8890   10.1800   23.6390
H   18.3460   8.4310   23.2860
C   16.8430   9.7990   23.8620
C   16.4750   10.9760   23.2580
H   17.2340   11.5320   22.7170
C   15.1310   11.3650   23.2170
H   14.8330   12.3010   22.7540
C   14.1480   10.5800   23.8790
H   13.1240   10.9410   23.8510
C   14.5070   9.3760   24.4910
H   13.6960   8.7620   24.8720
C   15.8380   9.0020   24.5510
H   16.1540   8.1380   25.1280
C   10.9060   11.5230   15.8000
H   10.2660   12.1380   16.4450
H   11.8110   12.1010   15.5760
H   11.3030   10.7560   16.4760
C   10.1450   10.8230   14.6590
C   8.8800   11.1470   14.2680
H   8.3050   11.8430   14.8720
C   8.2310   10.3560   13.3000
H   7.1860   10.6060   13.1480
C   8.9080   9.2900   12.6040
H   8.3580   8.8160   11.7960
C   10.2410   9.0790   12.9680
H   10.7620   8.2900   12.4330
C   10.8540   9.7140   14.0870
H   11.8650   9.4940   14.4180
C   12.4900   20.4970   8.7300
H   11.7150   20.4740   7.9540
H   12.2270   19.9760   9.6590
H   13.3460   20.0150   8.2410
C   12.8650   21.9680   8.9270
C   12.1420   22.7970   9.8120
H   11.2610   22.4200   10.3220
C   12.3840   24.1720   9.8850
H   11.8920   24.7890   10.6310
C   13.4520   24.6990   9.1480
H   13.6750   25.7620   9.1740
C   14.2260   23.9500   8.2820
H   15.0110   24.4020   7.6830
C   13.8970   22.5400   8.1400
H   14.4070   21.9210   7.4080
C   25.2240   23.2580   12.7270
H   25.5120   24.3000   12.9180
H   24.9920   23.1420   11.6620
H   26.0960   22.6100   12.8790
C   24.1020   22.8110   13.7090
C   24.1040   23.2240   14.9730
H   24.9610   23.8230   15.2650
C   23.1140   22.7650   15.8740
H   23.0750   23.1170   16.9010
C   22.0540   21.9550   15.3630
H   21.3500   21.5740   16.0970
C   21.9790   21.6570   14.0120
H   21.2210   20.9940   13.6040
C   22.9780   22.0850   13.1860
H   22.9530   21.7500   12.1530
C   15.9690   24.2190   11.3740
H   16.8540   24.6850   11.8250
H   15.3350   25.1120   11.4330
H   16.1270   23.9390   10.3250
C   15.4160   23.1270   12.1800
C   15.0320   21.8940   11.5900
H   15.1170   21.7510   10.5170
C   14.4730   20.9160   12.4130
H   14.1800   19.9440   12.0280
C   14.3810   21.0610   13.7930
H   14.0500   20.2450   14.4290
C   14.8220   22.2110   14.4320
H   14.6700   22.2620   15.5060
C   15.2630   23.2580   13.6150
H   15.6250   24.2030   14.0110
C   7.9820   23.6640   20.2210
H   7.6700   24.1780   19.3030
H   8.8810   24.2110   20.5300
H   7.2090   23.8760   20.9700
C   8.2150   22.1450   20.0450
C   8.9820   21.3660   20.9660
H   9.4280   21.8310   21.8400
C   9.3410   20.0110   20.7260
H   9.9200   19.4750   21.4720
C   8.8720   19.3730   19.6080
H   9.2540   18.3910   19.3440
C   8.1140   20.1330   18.6130
H   7.8040   19.7260   17.6550
C   7.8120   21.5360   18.8670
H   7.2650   22.1110   18.1260
C   16.6400   17.6150   24.7630
H   16.2880   18.1500   25.6540
H   16.0580   17.8970   23.8770
H   17.6690   17.9180   24.5330
C   16.4320   16.1690   24.9640
C   17.4700   15.2850   24.7630
H   18.3820   15.6110   24.2700
C   17.2870   13.9420   25.1470
H   18.0430   13.2190   24.8550
C   16.0500   13.5080   25.7080
H   15.9690   12.4530   25.9550
C   15.0160   14.4460   25.9100
H   14.0840   14.0850   26.3350
C   15.2290   15.7710   25.5010
H   14.4230   16.4770   25.6750
C   9.8970   25.7470   14.8340
H   9.2600   26.2100   14.0700
H   10.9030   26.1810   14.8020
H   9.4340   25.9280   15.8120
C   10.1050   24.2760   14.5480
C   9.4830   23.4020   15.4380
H   8.7910   23.7840   16.1820
C   9.7180   22.0020   15.3700
H   9.2880   21.4530   16.2030
C   10.5190   21.4980   14.3610
H   10.5880   20.4200   14.2480
C   11.0160   22.3430   13.3520
H   11.7280   21.9650   12.6240
C   10.8610   23.7380   13.4830
H   11.4610   24.3570   12.8230
C   21.4460   7.1060   12.4470
H   20.6860   6.3340   12.6150
H   22.2500   6.4780   12.0440
H   21.0510   7.7230   11.6300
C   21.6030   8.0210   13.6490
C   21.7540   7.6760   14.9780
H   21.7640   6.6430   15.3150
C   21.9350   8.6230   16.0550
H   22.0640   8.3230   17.0910
C   22.1380   9.9860   15.6920
H   22.3350   10.8010   16.3830
C   22.0340   10.3260   14.3310
H   22.1590   11.3300   13.9360
C   21.6750   9.3700   13.3830
H   21.5590   9.7230   12.3630
C   22.9880   17.6800   12.2810
H   22.9180   16.8740   13.0210
H   23.7730   18.3620   12.6300
H   23.2480   17.2650   11.3000
C   21.6550   18.3490   12.1870
C   20.6220   18.0880   13.0570
H   20.7970   17.3350   13.8210
C   19.4340   18.7990   13.0450
H   18.7570   18.7330   13.8920
C   19.1760   19.7760   12.0220
H   18.2920   20.4060   12.0440
C   20.1570   19.9410   11.0580
H   19.9550   20.5700   10.1960
C   21.4170   19.2580   11.1840
H   22.2080   19.5330   10.4920
C   11.5670   16.9320   9.5720
H   12.2140   17.1360   8.7100
H   11.2820   15.8920   9.3700
H   12.1900   17.0270   10.4710
C   10.3380   17.8120   9.7330
C   9.4070   17.9080   8.6630
H   9.2760   17.1270   7.9200
C   8.4820   18.9870   8.6270
H   7.7350   19.0310   7.8400
C   8.4710   19.9600   9.6310
H   7.7480   20.7700   9.6540
C   9.3540   19.8350   10.7390
H   9.3650   20.4890   11.6050
C   10.1940   18.7130   10.7970
H   10.9300   18.6810   11.5950
C   12.7180   16.6050   23.0210
H   12.8130   16.8270   21.9510
H   13.7280   16.3210   23.3450
H   12.5000   17.5290   23.5710
C   11.8010   15.4010   23.1530
C   10.6200   15.4240   22.3970
H   10.4520   16.2470   21.7090
C   9.7560   14.2780   22.4410
H   8.8510   14.2660   21.8410
C   10.0090   13.2210   23.3230
H   9.3460   12.3640   23.2430
C   11.1890   13.1930   24.0600
H   11.5060   12.4190   24.7520
C   12.1210   14.2630   23.8890
H   13.0670   14.1720   24.4150
C   18.8420   17.6350   27.7520
H   18.1240   17.0240   28.3120
H   18.2540   18.2490   27.0590
H   19.3830   18.2440   28.4880
C   19.7860   16.8740   26.9420
C   20.9230   17.5130   26.3330
H   21.0460   18.5910   26.2770
C   21.9600   16.7460   25.6900
H   22.7590   17.2130   25.1220
C   21.8200   15.3540   25.7340
H   22.5620   14.8350   25.1340
C   20.7780   14.7860   26.4240
H   20.6730   13.7070   26.4980
C   19.7540   15.4920   26.9560
H   18.9700   15.0490   27.5620
C   25.2430   22.7500   18.9430
H   24.6510   23.3730   19.6240
H   24.6070   22.0920   18.3390
H   25.7690   23.4530   18.2840
C   26.2890   22.0890   19.8050
C   27.6530   22.5380   19.7650
H   27.8930   23.3990   19.1490
C   28.6720   21.9360   20.4790
H   29.6960   22.2960   20.4470
C   28.3120   20.9270   21.3620
H   29.1140   20.5670   22.0000
C   26.9480   20.4890   21.5060
H   26.7050   19.7450   22.2580
C   25.9360   21.0700   20.7010
H   24.8820   20.8350   20.8180
C   8.6660   14.0750   6.3660
H   9.5670   14.3180   5.7890
H   8.3130   15.1000   6.5330
H   8.0120   13.6260   5.6080
C   8.9520   13.1750   7.5700
C   9.2520   13.8780   8.7390
H   9.0790   14.9490   8.7860
C   9.7250   13.1670   9.8870
H   10.1540   13.6370   10.7670
C   9.7320   11.7360   9.9480
H   9.9080   11.1180   10.8230
C   9.4160   11.0830   8.7270
H   9.5500   10.0100   8.6190
C   9.0570   11.7790   7.5340
H   8.9280   11.2640   6.5870
C   8.9500   11.1620   20.3870
H   9.6770   10.3770   20.1430
H   8.1570   10.6850   20.9760
H   9.5010   11.9120   20.9680
C   8.2120   11.8340   19.2710
C   8.5700   13.1620   18.8940
H   9.3950   13.6460   19.4100
C   7.8880   13.7660   17.8650
H   8.0520   14.7920   17.5510
C   6.8730   13.0430   17.1600
H   6.3940   13.5060   16.3020
C   6.6020   11.7170   17.5240
H   5.9300   11.0650   16.9750
C   7.2670   11.0920   18.5130
H   6.9380   10.1170   18.8610
C   26.4570   12.4450   13.5550
H   27.1280   12.9590   14.2540
H   26.8800   12.5280   12.5470
H   26.3480   11.3870   13.8240
C   25.0650   13.0040   13.5080
C   24.3200   13.0670   12.3170
H   24.6950   12.4320   11.5200
C   23.1080   13.7070   12.1810
H   22.5800   13.8270   11.2400
C   22.5170   14.2950   13.4070
H   21.5280   14.7440   13.3850
C   23.1780   14.0720   14.6700
H   22.7680   14.3710   15.6300
C   24.4820   13.4620   14.6840
H   25.0670   13.3620   15.5930
C   17.5710   21.2480   6.8890
H   18.6510   21.3700   6.7390
H   17.1030   22.0750   7.4370
H   17.0720   21.3190   5.9150
C   17.2290   19.8820   7.3990
C   18.1980   19.0800   7.9940
H   19.2050   19.4850   8.0050
C   17.9790   17.8310   8.6610
H   18.7330   17.2870   9.2230
C   16.6260   17.3740   8.6220
H   16.3320   16.4460   9.1030
C   15.6520   18.0670   7.8430
H   14.6170   17.7430   7.7980
C   15.9210   19.3400   7.2650
H   15.0810   19.8910   6.8510
C   21.3760   21.0260   23.7240
H   20.4220   20.4870   23.7730
H   21.7020   21.4030   24.7020
H   22.0140   20.1900   23.4130
C   21.3200   22.2390   22.7430
C   21.4220   21.9180   21.3730
H   21.5590   20.8770   21.0950
C   21.1640   22.8820   20.4680
H   21.2420   22.6310   19.4150
C   20.8980   24.2170   20.9180
H   20.7360   25.0150   20.1990
C   20.8810   24.5300   22.2790
H   20.7390   25.5510   22.6190
C   21.0600   23.5250   23.2330
H   21.0710   23.7440   24.2960
C   13.4980   11.9160   9.8290
H   12.9760   11.0440   9.4180
H   12.8920   12.3220   10.6480
H   14.4620   11.6150   10.2580
C   13.7160   13.0320   8.7680
C   15.0200   13.6160   8.6070
H   15.8970   13.3430   9.1870
C   15.2000   14.6260   7.6390
H   16.2250   14.9300   7.4480
C   14.1260   14.9630   6.7830
H   14.1730   15.7170   6.0030
C   12.8520   14.5840   7.1130
H   12.0640   15.0130   6.5020
C   12.6470   13.5090   8.0450
H   11.7110   12.9710   8.1580
C   19.7440   10.5210   20.4450
H   19.1710   11.4550   20.4980
H   19.2620   9.7620   21.0740
H   19.7140   10.3290   19.3650
C   21.1430   10.7570   21.0140
C   22.2290   10.3180   20.2850
H   22.1500   9.9270   19.2750
C   23.5250   10.5680   20.8390
H   24.4000   10.2310   20.2920
C   23.7170   11.1630   22.0780
H   24.7300   11.2050   22.4680
C   22.5380   11.3930   22.8610
H   22.7390   11.7980   23.8480
C   21.2670   11.2310   22.2990
H   20.3950   11.6100   22.8240
C   29.8070   21.0370   16.6750
H   29.7320   22.0770   16.3350
H   30.3810   20.5460   15.8790
H   30.3680   20.9570   17.6140
C   28.4450   20.3010   16.9690
C   28.2260   19.5640   18.1860
H   29.0220   19.4550   18.9170
C   26.8940   19.1050   18.4470
H   26.6720   18.4880   19.3130
C   25.8510   19.3550   17.6180
H   24.8790   18.9520   17.8890
C   26.0900   20.0720   16.3750
H   25.2500   20.2200   15.7020
C   27.3720   20.5830   16.0780
H   27.4500   21.3560   15.3190
C   18.5500   10.0140   11.4130
H   18.7830   9.7570   12.4530
H   19.3500   9.5800   10.8000
H   17.6150   9.5640   11.0570
C   18.6360   11.5680   11.2050
C   19.5130   12.2330   10.3370
H   20.2410   11.5850   9.8580
C   19.5720   13.6310   10.2560
H   20.3650   14.1740   9.7510
C   18.5680   14.3480   10.9390
H   18.6520   15.4260   10.8390
C   17.6480   13.7120   11.7250
H   17.1040   14.3100   12.4500
C   17.7060   12.3240   11.9490
H   17.2340   11.8230   12.7890
C   22.1020   25.4310   5.5970
H   21.4160   26.2880   5.5930
H   21.7860   24.8510   4.7220
H   23.1330   25.7650   5.4260
C   21.9980   24.6230   6.8970
C   21.0770   23.5600   6.9970
H   20.5490   23.2000   6.1180
C   20.8770   22.8840   8.2000
H   20.2320   22.0110   8.2230
C   21.4880   23.3510   9.3830
H   21.2750   22.8260   10.3090
C   22.4070   24.4640   9.3180
H   22.8440   24.9190   10.2020
C   22.7460   25.0220   8.0470
H   23.4980   25.8030   7.9750
C   19.3622   18.5257   21.4458
H   20.0862   18.4882   22.2464
H   18.7741   19.4201   21.6128
H   19.9069   18.6477   20.5130
C   18.5183   17.2741   21.4246
C   17.1335   17.2695   21.2245
H   16.6336   18.2281   21.0891
C   16.3797   16.1111   21.2293
H   15.3155   16.1932   21.0716
C   16.9868   14.8579   21.4166
H   16.3950   13.9755   21.4433
C   18.3721   14.8518   21.6125
H   18.8627   13.8984   21.7780
C   19.1193   16.0119   21.6204
H   20.1746   15.9589   21.8119
562
Frame 35
C   16.2646   15.9948   17.2635
C   18.6139   16.6637   16.8141
C   15.7672   17.4340   17.4447
C   19.3019   16.0330   18.0140
C   19.5452   16.7722   15.6159
N   17.4527   15.8716   16.4544
N   15.2666   15.0927   16.7400
O   15.2807   18.0288   16.2533
H   14.3404   17.8351   16.2423
H   17.2678   15.9320   15.4571
H   16.4938   15.7238   18.2938
H   18.3170   17.6614   17.1137
H   14.3693   15.0935   17.2284
H   15.1188   15.1589   15.7460
H   16.6139   18.0140   17.7831
H   15.0053   17.4273   18.2400
H   20.1011   16.6711   18.4058
H   18.9618   16.8223   14.6945
H   19.7050   15.0637   17.7376
H   18.6074   15.8734   18.8305
H   20.1795   17.6552   15.6887
H   20.1993   15.8889   15.5489
C   31.0130   13.4690   20.5000
H   31.2490   12.6100   21.1410
H   31.6000   14.3580   20.7590
H   31.3090   13.1730   19.4860
C   29.5240   13.6930   20.5110
C   28.9490   14.9820   20.4600
H   29.6230   15.8190   20.3030
C   27.5460   15.1780   20.4020
H   27.1240   16.1710   20.2790
C   26.7510   14.0910   20.7820
H   25.6720   14.1250   20.8970
C   27.2930   12.7880   20.7300
H   26.5470   12.0120   20.8740
C   28.6890   12.5880   20.6520
H   29.0430   11.5650   20.7440
C   9.2210   14.9750   13.0480
H   9.9180   14.2170   12.6700
H   8.7250   15.4390   12.1860
H   8.5460   14.3880   13.6810
C   9.9500   16.0790   13.9260
C   11.1730   16.6700   13.5290
H   11.6950   16.2330   12.6830
C   11.7790   17.6500   14.3810
H   12.6890   18.1940   14.1470
C   11.0580   18.1190   15.4870
H   11.4490   19.0070   15.9740
C   9.8790   17.5550   15.8260
H   9.3990   17.9040   16.7360
C   9.3470   16.4720   15.1090
H   8.3400   16.1840   15.3940
C   13.1040   20.9490   22.1230
H   12.1100   21.0700   22.5720
H   13.3280   19.8760   22.1570
H   12.9300   21.4440   21.1600
C   14.1720   21.7290   22.9410
C   13.9780   23.0550   23.3640
H   12.9880   23.4780   23.2220
C   14.9570   23.7090   24.0980
H   14.8720   24.7370   24.4370
C   16.0910   23.0190   24.4910
H   16.8240   23.5570   25.0840
C   16.3390   21.7000   24.0260
H   17.2960   21.2060   24.1580
C   15.3480   21.0720   23.2660
H   15.4870   20.1110   22.7800
C   22.3270   16.0930   8.4030
H   22.3260   16.2600   9.4870
H   21.4310   15.6720   7.9300
H   22.4190   17.0690   7.9110
C   23.4930   15.2320   7.9250
C   24.6760   15.8080   7.3600
H   24.7170   16.8840   7.2220
C   25.8340   15.0550   7.0100
H   26.7290   15.6050   6.7360
C   25.7140   13.6410   7.1510
H   26.5440   12.9840   6.9070
C   24.5170   13.0840   7.6510
H   24.4140   12.0140   7.8020
C   23.4280   13.8620   7.9640
H   22.4620   13.4500   8.2420
C   13.3770   8.3710   11.1840
H   13.9280   8.9300   11.9500
H   12.7730   7.5980   11.6750
H   12.7470   9.0620   10.6100
C   14.2950   7.7300   10.0940
C   14.0090   6.4760   9.6240
H   13.0770   6.0180   9.9390
C   14.8900   5.7890   8.7340
H   14.6040   4.8470   8.2740
C   16.0940   6.4030   8.4280
H   16.8170   5.9830   7.7360
C   16.3240   7.7020   8.8800
H   17.2290   8.1990   8.5440
C   15.3900   8.3770   9.6670
H   15.4990   9.4410   9.8550
C   22.3720   27.5750   12.3440
H   22.6740   28.6260   12.2520
H   21.8660   27.2750   11.4180
H   23.3360   27.0640   12.4640
C   21.5860   27.1640   13.5380
C   20.6270   26.1270   13.4710
H   20.5230   25.5770   12.5400
C   19.8190   25.9080   14.6070
H   19.0410   25.1530   14.6740
C   19.8330   26.8130   15.6810
H   19.1800   26.6280   16.5280
C   20.7150   27.8320   15.6880
H   20.6750   28.5050   16.5390
C   21.6510   27.9300   14.6880
H   22.3640   28.7490   14.7160
C   26.3230   15.1720   24.4190
H   27.1730   15.7810   24.7530
H   26.9100   14.3730   23.9500
H   25.8350   14.6810   25.2700
C   25.2980   15.8310   23.5700
C   25.3310   17.2270   23.3880
H   26.0260   17.7850   24.0090
C   24.4240   17.8360   22.4700
H   24.3120   18.9080   22.3350
C   23.4800   16.9710   21.8510
H   22.7300   17.3880   21.1860
C   23.4350   15.6140   22.0990
H   22.6180   15.0160   21.7070
C   24.3990   15.0550   22.9540
H   24.2710   14.0400   23.3190
C   12.5310   21.3930   17.8850
H   13.2140   21.0900   17.0820
H   11.5950   21.6280   17.3640
H   12.3060   20.6590   18.6680
C   13.0320   22.5830   18.7360
C   12.2150   23.1990   19.6560
H   11.1450   23.0160   19.6540
C   12.8150   24.0790   20.5840
H   12.1470   24.6520   21.2210
C   14.2070   24.1490   20.7110
H   14.6570   24.8010   21.4530
C   15.0790   23.3670   19.9600
H   16.1550   23.3650   20.1040
C   14.4560   22.6230   18.9390
H   15.0290   21.9490   18.3100
C   14.8830   6.8570   21.3950
H   14.5830   5.8040   21.4680
H   14.1110   7.5640   21.0690
H   14.9540   7.1620   22.4460
C   16.2700   6.9730   20.7720
C   17.3370   6.4110   21.5060
H   17.0910   5.8820   22.4210
C   18.6390   6.6200   20.9560
H   19.4860   6.2070   21.4970
C   18.8360   7.1840   19.6870
H   19.8020   7.2850   19.2010
C   17.7740   7.7920   19.0310
H   17.9360   8.3530   18.1150
C   16.4720   7.7040   19.5680
H   15.6290   8.1750   19.0710
C   14.8160   10.5740   15.3720
H   14.3440   11.0040   14.4800
H   15.1400   11.3900   16.0290
H   13.9830   10.0440   15.8500
C   15.8760   9.5730   14.9300
C   15.5810   8.3740   14.2260
H   14.5360   8.2410   13.9630
C   16.5460   7.4790   13.7060
H   16.2100   6.6290   13.1200
C   17.8520   7.6230   14.2370
H   18.6540   6.9360   13.9850
C   18.1870   8.7030   14.9950
H   19.2350   8.8200   15.2580
C   17.2460   9.6850   15.4350
H   17.6780   10.4650   16.0550
C   8.0650   7.4040   17.5740
H   8.1270   8.0850   16.7160
H   7.5600   7.9240   18.3970
H   7.4880   6.4980   17.3480
C   9.4790   7.0660   18.0080
C   10.5440   7.9760   17.7650
H   10.3730   8.9450   17.3060
C   11.8290   7.6370   18.2640
H   12.7100   8.2510   18.1010
C   12.0090   6.4900   19.0190
H   13.0130   6.2290   19.3400
C   10.9610   5.6080   19.2070
H   11.1880   4.6980   19.7550
C   9.6610   5.8390   18.6640
H   8.8970   5.0800   18.8040
C   18.2400   9.3350   23.8980
H   18.4220   9.0030   24.9280
H   18.8890   10.1800   23.6390
H   18.3460   8.4310   23.2860
C   16.8430   9.7990   23.8620
C   16.4750   10.9760   23.2580
H   17.2340   11.5320   22.7170
C   15.1310   11.3650   23.2170
H   14.8330   12.3010   22.7540
C   14.1480   10.5800   23.8790
H   13.1240   10.9410   23.8510
C   14.5070   9.3760   24.4910
H   13.6960   8.7620   24.8720
C   15.8380   9.0020   24.5510
H   16.1540   8.1380   25.1280
C   10.9060   11.5230   15.8000
H   10.2660   12.1380   16.4450
H   11.8110   12.1010   15.5760
H   11.3030   10.7560   16.4760
C   10.1450   10.8230   14.6590
C   8.8800   11.1470   14.2680
H   8.3050   11.8430   14.8720
C   8.2310   10.3560   13.3000
H   7.1860   10.6060   13.1480
C   8.9080   9.2900   12.6040
H   8.3580   8.8160   11.7960
C   10.2410   9.0790   12.9680
H   10.7620   8.2900   12.4330
C   10.8540   9.7140   14.0870
H   11.8650   9.4940   14.4180
C   12.4900   20.4970   8.7300
H   11.7150   20.4740   7.9540
H   12.2270   19.9760   9.6590
H   13.3460   20.0150   8.2410
C   12.8650   21.9680   8.9270
C   12.1420   22.7970   9.8120
H   11.2610   22.4200   10.3220
C   12.3840   24.1720   9.8850
H   11.8920   24.7890   10.6310
C   13.4520   24.6990   9.1480
H   13.6750   25.7620   9.1740
C   14.2260   23.9500   8.2820
H   15.0110   24.4020   7.6830
C   13.8970   22.5400   8.1400
H   14.4070   21.9210   7.4080
C   25.2240   23.2580   12.7270
H   25.5120   24.3000   12.9180
H   24.9920   23.1420   11.6620
H   26.0960   22.6100   12.8790
C   24.1020   22.8110   13.7090
C   24.1040   23.2240   14.9730
H   24.9610   23.8230   15.2650
C   23.1140   22.7650   15.8740
H   23.0750   23.1170   16.9010
C   22.0540   21.9550   15.3630
H   21.3500   21.5740   16.0970
C   21.9790   21.6570   14.0120
H   21.2210   20.9940   13.6040
C   22.9780   22.0850   13.1860
H   22.9530   21.7500   12.1530
C   15.9690   24.2190   11.3740
H   16.8540   24.6850   11.8250
H   15.3350   25.1120   11.4330
H   16.1270   23.9390   10.3250
C   15.4160   23.1270   12.1800
C   15.0320   21.8940   11.5900
H   15.1170   21.7510   10.5170
C   14.4730   20.9160   12.4130
H   14.1800   19.9440   12.0280
C   14.3810   21.0610   13.7930
H   14.0500   20.2450   14.4290
C   14.8220   22.2110   14.4320
H   14.6700   22.2620   15.5060
C   15.2630   23.2580   13.6150
H   15.6250   24.2030   14.0110
C   7.9820   23.6640   20.2210
H   7.6700   24.1780   19.3030
H   8.8810   24.2110   20.5300
H   7.2090   23.8760   20.9700
C   8.2150   22.1450   20.0450
C   8.9820   21.3660   20.9660
H   9.4280   21.8310   21.8400
C   9.3410   20.0110   20.7260
H   9.9200   19.4750   21.4720
C   8.8720   19.3730   19.6080
H   9.2540   18.3910   19.3440
C   8.1140   20.1330   18.6130
H   7.8040   19.7260   17.6550
C   7.8120   21.5360   18.8670
H   7.2650   22.1110   18.1260
C   16.6400   17.6150   24.7630
H   16.2880   18.1500   25.6540
H   16.0580   17.8970   23.8770
H   17.6690   17.9180   24.5330
C   16.4320   16.1690   24.9640
C   17.4700   15.2850   24.7630
H   18.3820   15.6110   24.2700
C   17.2870   13.9420   25.1470
H   18.0430   13.2190   24.8550
C   16.0500   13.5080   25.7080
H   15.9690   12.4530   25.9550
C   15.0160   14.4460   25.9100
H   14.0840   14.0850   26.3350
C   15.2290   15.7710   25.5010
H   14.4230   16.4770   25.6750
C   9.8970   25.7470   14.8340
H   9.2600   26.2100   14.0700
H   10.9030   26.1810   14.8020
H   9.4340   25.9280   15.8120
C   10.1050   24.2760   14.5480
C   9.4830   23.4020   15.4380
H   8.7910   23.7840   16.1820
C   9.7180   22.0020   15.3700
H   9.2880   21.4530   16.2030
C   10.5190   21.4980   14.3610
H   10.5880   20.4200   14.2480
C   11.0160   22.3430   13.3520
H   11.7280   21.9650   12.6240
C   10.8610   23.7380   13.4830
H   11.4610   24.3570   12.8230
C   21.4460   7.1060   12.4470
H   20.6860   6.3340   12.6150
H   22.2500   6.4780   12.0440
H   21.0510   7.7230   11.6300
C   21.6030   8.0210   13.6490
C   21.7540   7.6760   14.9780
H   21.7640   6.6430   15.3150
C   21.9350   8.6230   16.0550
H   22.0640   8.3230   17.0910
C   22.1380   9.9860   15.6920
H   22.3350   10.8010   16.3830
C   22.0340   10.3260   14.3310
H   22.1590   11.3300   13.9360
C   21.6750   9.3700   13.3830
H   21.5590   9.7230   12.3630
C   22.9880   17.6800   12.2810
H   22.9180   16.8740   13.0210
H   23.7730   18.3620   12.6300
H   23.2480   17.2650   11.3000
C   21.6550   18.3490   12.1870
C   20.6220   18.0880   13.0570
H   20.7970   17.3350   13.8210
C   19.4340   18.7990   13.0450
H   18.7570   18.7330   13.8920
C   19.1760   19.7760   12.0220
H   18.2920   20.4060   12.0440
C   20.1570   19.9410   11.0580
H   19.9550   20.5700   10.1960
C   21.4170   19.2580   11.1840
H   22.2080   19.5330   10.4920
C   11.5670   16.9320   9.5720
H   12.2140   17.1360   8.7100
H   11.2820   15.8920   9.3700
H   12.1900   17.0270   10.4710
C   10.3380   17.8120   9.7330
C   9.4070   17.9080   8.6630
H   9.2760   17.1270   7.9200
C   8.4820   18.9870   8.6270
H   7.7350   19.0310   7.8400
C   8.4710   19.9600   9.6310
H   7.7480   20.7700   9.6540
C   9.3540   19.8350   10.7390
H   9.3650   20.4890   11.6050
C   10.1940   18.7130   10.7970
H   10.9300   18.6810   11.5950
C   12.7180   16.6050   23.0210
H   12.8130   16.8270   21.9510
H   13.7280   16.3210   23.3450
H   12.5000   17.5290   23.5710
C   11.8010   15.4010   23.1530
C   10.6200   15.4240   22.3970
H   10.4520   16.2470   21.7090
C   9.7560   14.2780   22.4410
H   8.8510   14.2660   21.8410
C   10.0090   13.2210   23.3230
H   9.3460   12.3640   23.2430
C   11.1890   13.1930   24.0600
H   11.5060   12.4190   24.7520
C   12.1210   14.2630   23.8890
H   13.0670   14.1720   24.4150
C   18.8420   17.6350   27.7520
H   18.1240   17.0240   28.3120
H   18.2540   18.2490   27.0590
H   19.3830   18.2440   28.4880
C   19.7860   16.8740   26.9420
C   20.9230   17.5130   26.3330
H   21.0460   18.5910   26.2770
C   21.9600   16.7460   25.6900
H   22.7590   17.2130   25.1220
C   21.8200   15.3540   25.7340
H   22.5620   14.8350   25.1340
C   20.7780   14.7860   26.4240
H   20.6730   13.7070   26.4980
C   19.7540   15.4920   26.9560
H   18.9700   15.0490   27.5620
C   25.2430   22.7500   18.9430
H   24.6510   23.3730   19.6240
H   24.6070   22.0920   18.3390
H   25.7690   23.4530   18.2840
C   26.2890   22.0890   19.8050
C   27.6530   22.5380   19.7650
H   27.8930   23.3990   19.1490
C   28.6720   21.9360   20.4790
H   29.6960   22.2960   20.4470
C   28.3120   20.9270   21.3620
H   29.1140   20.5670   22.0000
C   26.9480   20.4890   21.5060
H   26.7050   19.7450   22.2580
C   25.9360   21.0700   20.7010
H   24.8820   20.8350   20.8180
C   8.6660   14.0750   6.3660
H   9.5670   14.3180   5.7890
H   8.3130   15.1000   6.5330
H   8.0120   13.6260   5.6080
C   8.9520   13.1750   7.5700
C   9.2520   13.8780   8.7390
H   9.0790   14.9490   8.7860
C   9.7250   13.1670   9.8870
H   10.1540   13.6370   10.7670
C   9.7320   11.7360   9.9480
H   9.9080   11.1180   10.8230
C   9.4160   11.0830   8.7270
H   9.5500   10.0100   8.6190
C   9.0570   11.7790   7.5340
H   8.9280   11.2640   6.5870
C   8.9500   11.1620   20.3870
H   9.6770   10.3770   20.1430
H   8.1570   10.6850   20.9760
H   9.5010   11.9120   20.9680
C   8.2120   11.8340   19.2710
C   8.5700   13.1620   18.8940
H   9.3950   13.6460   19.4100
C   7.8880   13.7660   17.8650
H   8.0520   14.7920   17.5510
C   6.8730   13.0430   17.1600
H   6.3940   13.5060   16.3020
C   6.6020   11.7170   17.5240
H   5.9300   11.0650   16.9750
C   7.2670   11.0920   18.5130
H   6.9380   10.1170   18.8610
C   26.4570   12.4450   13.5550
H   27.1280   12.9590   14.2540
H   26.8800   12.5280   12.5470
H   26.3480   11.3870   13.8240
C   25.0650   13.0040   13.5080
C   24.3200   13.0670   12.3170
H   24.6950   12.4320   11.5200
C   23.1080   13.7070   12.1810
H   22.5800   13.8270   11.2400
C   22.5170   14.2950   13.4070
H   21.5280   14.7440   13.3850
C   23.1780   14.0720   14.6700
H   22.7680   14.3710   15.6300
C   24.4820   13.4620   14.6840
H   25.0670   13.3620   15.5930
C   17.5710   21.2480   6.8890
H   18.6510   21.3700   6.7390
H   17.1030   22.0750   7.4370
H   17.0720   21.3190   5.9150
C   17.2290   19.8820   7.3990
C   18.1980   19.0800   7.9940
H   19.2050   19.4850   8.0050
C   17.9790   17.8310   8.6610
H   18.7330   17.2870   9.2230
C   16.6260   17.3740   8.6220
H   16.3320   16.4460   9.1030
C   15.6520   18.0670   7.8430
H   14.6170   17.7430   7.7980
C   15.9210   19.3400   7.2650
H   15.0810   19.8910   6.8510
C   21.3760   21.0260   23.7240
H   20.4220   20.4870   23.7730
H   21.7020   21.4030   24.7020
H   22.0140   20.1900   23.4130
C   21.3200   22.2390   22.7430
C   21.4220   21.9180   21.3730
H   21.5590   20.8770   21.0950
C   21.1640   22.8820   20.4680
H   21.2420   22.6310   19.4150
C   20.8980   24.2170   20.9180
H   20.7360   25.0150   20.1990
C   20.8810   24.5300   22.2790
H   20.7390   25.5510   22.6190
C   21.0600   23.5250   23.2330
H   21.0710   23.7440   24.2960
C   13.4980   11.9160   9.8290
H   12.9760   11.0440   9.4180
H   12.8920   12.3220   10.6480
H   14.4620   11.6150   10.2580
C   13.7160   13.0320   8.7680
C   15.0200   13.6160   8.6070
H   15.8970   13.3430   9.1870
C   15.2000   14.6260   7.6390
H   16.2250   14.9300   7.4480
C   14.1260   14.9630   6.7830
H   14.1730   15.7170   6.0030
C   12.8520   14.5840   7.1130
H   12.0640   15.0130   6.5020
C   12.6470   13.5090   8.0450
H   11.7110   12.9710   8.1580
C   19.7440   10.5210   20.4450
H   19.1710   11.4550   20.4980
H   19.2620   9.7620   21.0740
H   19.7140   10.3290   19.3650
C   21.1430   10.7570   21.0140
C   22.2290   10.3180   20.2850
H   22.1500   9.9270   19.2750
C   23.5250   10.5680   20.8390
H   24.4000   10.2310   20.2920
C   23.7170   11.1630   22.0780
H   24.7300   11.2050   22.4680
C   22.5380   11.3930   22.8610
H   22.7390   11.7980   23.8480
C   21.2670   11.2310   22.2990
H   20.3950   11.6100   22.8240
C   29.8070   21.0370   16.6750
H   29.7320   22.0770   16.3350
H   30.3810   20.5460   15.8790
H   30.3680   20.9570   17.6140
C   28.4450   20.3010   16.9690
C   28.2260   19.5640   18.1860
H   29.0220   19.4550   18.9170
C   26.8940   19.1050   18.4470
H   26.6720   18.4880   19.3130
C   25.8510   19.3550   17.6180
H   24.8790   18.9520   17.8890
C   26.0900   20.0720   16.3750
H   25.2500   20.2200   15.7020
C   27.3720   20.5830   16.0780
H   27.4500   21.3560   15.3190
C   18.5500   10.0140   11.4130
H   18.7830   9.7570   12.4530
H   19.3500   9.5800   10.8000
H   17.6150   9.5640   11.0570
C   18.6360   11.5680   11.2050
C   19.5130   12.2330   10.3370
H   20.2410   11.5850   9.8580
C   19.5720   13.6310   10.2560
H   20.3650   14.1740   9.7510
C   18.5680   14.3480   10.9390
H   18.6520   15.4260   10.8390
C   17.6480   13.7120   11.7250
H   17.1040   14.3100   12.4500
C   17.7060   12.3240   11.9490
H   17.2340   11.8230   12.7890
C   22.1020   25.4310   5.5970
H   21.4160   26.2880   5.5930
H   21.7860   24.8510   4.7220
H   23.1330   25.7650   5.4260
C   21.9980   24.6230   6.8970
C   21.0770   23.5600   6.9970
H   20.5490   23.2000   6.1180
C   20.8770   22.8840   8.2000
H   20.2320   22.0110   8.2230
C   21.4880   23.3510   9.3830
H   21.2750   22.8260   10.3090
C   22.4070   24.4640   9.3180
H   22.8440   24.9190   10.2020
C   22.7460   25.0220   8.0470
H   23.4980   25.8030   7.9750
C   19.3634   18.5272   21.4474
H   20.0885   18.4806   22.2449
H   18.7715   19.4186   21.6092
H   19.9042   18.6540   20.5138
C   18.5155   17.2756   21.4251
C   17.1308   17.2670   21.2278
H   16.6297   18.2331   21.0915
C   16.3773   16.1041   21.2302
H   15.3110   16.1964   21.0793
C   16.9922   14.8617   21.4139
H   16.3912   13.9743   21.4417
C   18.3702   14.8550   21.6091
H   18.8623   13.8986   21.7778
C   19.1248   16.0176   21.6237
H   20.1793   15.9564   21.8158
562
Frame 36
C   16.2658   15.9781   17.2626
C   18.6190   16.6611   16.8195
C   15.7737   17.4270   17.4377
C   19.3093   16.0246   18.0168
C   19.5438   16.7692   15.6242
N   17.4513   15.8749   16.4498
N   15.2672   15.0547   16.7429
O   15.2781   18.0248   16.2367
H   14.3401   17.8151   16.2332
H   17.2503   15.9609   15.4636
H   16.5098   15.6896   18.2903
H   18.3168   17.6599   17.1059
H   14.3757   15.1183   17.2277
H   15.0978   15.1825   15.7547
H   16.6037   18.0270   17.7984
H   15.0169   17.4310   18.2316
H   20.1053   16.6740   18.4073
H   18.9630   16.8259   14.7059
H   19.7054   15.0626   17.7413
H   18.6057   15.8777   18.8330
H   20.1772   17.6478   15.6890
H   20.1873   15.8887   15.5585
C   31.0130   13.4690   20.5000
H   31.2490   12.6100   21.1410
H   31.6000   14.3580   20.7590
H   31.3090   13.1730   19.4860
C   29.5240   13.6930   20.5110
C   28.9490   14.9820   20.4600
H   29.6230   15.8190   20.3030
C   27.5460   15.1780   20.4020
H   27.1240   16.1710   20.2790
C   26.7510   14.0910   20.7820
H   25.6720   14.1250   20.8970
C   27.2930   12.7880   20.7300
H   26.5470   12.0120   20.8740
C   28.6890   12.5880   20.6520
H   29.0430   11.5650   20.7440
C   9.2210   14.9750   13.0480
H   9.9180   14.2170   12.6700
H   8.7250   15.4390   12.1860
H   8.5460   14.3880   13.6810
C   9.9500   16.0790   13.9260
C   11.1730   16.6700   13.5290
H   11.6950   16.2330   12.6830
C   11.7790   17.6500   14.3810
H   12.6890   18.1940   14.1470
C   11.0580   18.1190   15.4870
H   11.4490   19.0070   15.9740
C   9.8790   17.5550   15.8260
H   9.3990   17.9040   16.7360
C   9.3470   16.4720   15.1090
H   8.3400   16.1840   15.3940
C   13.1040   20.9490   22.1230
H   12.1100   21.0700   22.5720
H   13.3280   19.8760   22.1570
H   12.9300   21.4440   21.1600
C   14.1720   21.7290   22.9410
C   13.9780   23.0550   23.3640
H   12.9880   23.4780   23.2220
C   14.9570   23.7090   24.0980
H   14.8720   24.7370   24.4370
C   16.0910   23.0190   24.4910
H   16.8240   23.5570   25.0840
C   16.3390   21.7000   24.0260
H   17.2960   21.2060   24.1580
C   15.3480   21.0720   23.2660
H   15.4870   20.1110   22.7800
C   22.3270   16.0930   8.4030
H   22.3260   16.2600   9.4870
H   21.4310   15.6720   7.9300
H   22.4190   17.0690   7.9110
C   23.4930   15.2320   7.9250
C   24.6760   15.8080   7.3600
H   24.7170   16.8840   7.2220
C   25.8340   15.0550   7.0100
H   26.7290   15.6050   6.7360
C   25.7140   13.6410   7.1510
H   26.5440   12.9840   6.9070
C   24.5170   13.0840   7.6510
H   24.4140   12.0140   7.8020
C   23.4280   13.8620   7.9640
H   22.4620   13.4500   8.2420
C   13.3770   8.3710   11.1840
H   13.9280   8.9300   11.9500
H   12.7730   7.5980   11.6750
H   12.7470   9.0620   10.6100
C   14.2950   7.7300   10.0940
C   14.0090   6.4760   9.6240
H   13.0770   6.0180   9.9390
C   14.8900   5.7890   8.7340
H   14.6040   4.8470   8.2740
C   16.0940   6.4030   8.4280
H   16.8170   5.9830   7.7360
C   16.3240   7.7020   8.8800
H   17.2290   8.1990   8.5440
C   15.3900   8.3770   9.6670
H   15.4990   9.4410   9.8550
C   22.3720   27.5750   12.3440
H   22.6740   28.6260   12.2520
H   21.8660   27.2750   11.4180
H   23.3360   27.0640   12.4640
C   21.5860   27.1640   13.5380
C   20.6270   26.1270   13.4710
H   20.5230   25.5770   12.5400
C   19.8190   25.9080   14.6070
H   19.0410   25.1530   14.6740
C   19.8330   26.8130   15.6810
H   19.1800   26.6280   16.5280
C   20.7150   27.8320   15.6880
H   20.6750   28.5050   16.5390
C   21.6510   27.9300   14.6880
H   22.3640   28.7490   14.7160
C   26.3230   15.1720   24.4190
H   27.1730   15.7810   24.7530
H   26.9100   14.3730   23.9500
H   25.8350   14.6810   25.2700
C   25.2980   15.8310   23.5700
C   25.3310   17.2270   23.3880
H   26.0260   17.7850   24.0090
C   24.4240   17.8360   22.4700
H   24.3120   18.9080   22.3350
C   23.4800   16.9710   21.8510
H   22.7300   17.3880   21.1860
C   23.4350   15.6140   22.0990
H   22.6180   15.0160   21.7070
C   24.3990   15.0550   22.9540
H   24.2710   14.0400   23.3190
C   12.5310   21.3930   17.8850
H   13.2140   21.0900   17.0820
H   11.5950   21.6280   17.3640
H   12.3060   20.6590   18.6680
C   13.0320   22.5830   18.7360
C   12.2150   23.1990   19.6560
H   11.1450   23.0160   19.6540
C   12.8150   24.0790   20.5840
H   12.1470   24.6520   21.2210
C   14.2070   24.1490   20.7110
H   14.6570   24.8010   21.4530
C   15.0790   23.3670   19.9600
H   16.1550   23.3650   20.1040
C   14.4560   22.6230   18.9390
H   15.0290   21.9490   18.3100
C   14.8830   6.8570   21.3950
H   14.5830   5.8040   21.4680
H   14.1110   7.5640   21.0690
H   14.9540   7.1620   22.4460
C   16.2700   6.9730   20.7720
C   17.3370   6.4110   21.5060
H   17.0910   5.8820   22.4210
C   18.6390   6.6200   20.9560
H   19.4860   6.2070   21.4970
C   18.8360   7.1840   19.6870
H   19.8020   7.2850   19.2010
C   17.7740   7.7920   19.0310
H   17.9360   8.3530   18.1150
C   16.4720   7.7040   19.5680
H   15.6290   8.1750   19.0710
C   14.8160   10.5740   15.3720
H   14.3440   11.0040   14.4800
H   15.1400   11.3900   16.0290
H   13.9830   10.0440   15.8500
C   15.8760   9.5730   14.9300
C   15.5810   8.3740   14.2260
H   14.5360   8.2410   13.9630
C   16.5460   7.4790   13.7060
H   16.2100   6.6290   13.1200
C   17.8520   7.6230   14.2370
H   18.6540   6.9360   13.9850
C   18.1870   8.7030   14.9950
H   19.2350   8.8200   15.2580
C   17.2460   9.6850   15.4350
H   17.6780   10.4650   16.0550
C   8.0650   7.4040   17.5740
H   8.1270   8.0850   16.7160
H   7.5600   7.9240   18.3970
H   7.4880   6.4980   17.3480
C   9.4790   7.0660   18.0080
C   10.5440   7.9760   17.7650
H   10.3730   8.9450   17.3060
C   11.8290   7.6370   18.2640
H   12.7100   8.2510   18.1010
C   12.0090   6.4900   19.0190
H   13.0130   6.2290   19.3400
C   10.9610   5.6080   19.2070
H   11.1880   4.6980   19.7550
C   9.6610   5.8390   18.6640
H   8.8970   5.0800   18.8040
C   18.2400   9.3350   23.8980
H   18.4220   9.0030   24.9280
H   18.8890   10.1800   23.6390
H   18.3460   8.4310   23.2860
C   16.8430   9.7990   23.8620
C   16.4750   10.9760   23.2580
H   17.2340   11.5320   22.7170
C   15.1310   11.3650   23.2170
H   14.8330   12.3010   22.7540
C   14.1480   10.5800   23.8790
H   13.1240   10.9410   23.8510
C   14.5070   9.3760   24.4910
H   13.6960   8.7620   24.8720
C   15.8380   9.0020   24.5510
H   16.1540   8.1380   25.1280
C   10.9060   11.5230   15.8000
H   10.2660   12.1380   16.4450
H   11.8110   12.1010   15.5760
H   11.3030   10.7560   16.4760
C   10.1450   10.8230   14.6590
C   8.8800   11.1470   14.2680
H   8.3050   11.8430   14.8720
C   8.2310   10.3560   13.3000
H   7.1860   10.6060   13.1480
C   8.9080   9.2900   12.6040
H   8.3580   8.8160   11.7960
C   10.2410   9.0790   12.9680
H   10.7620   8.2900   12.4330
C   10.8540   9.7140   14.0870
H   11.8650   9.4940   14.4180
C   12.4900   20.4970   8.7300
H   11.7150   20.4740   7.9540
H   12.2270   19.9760   9.6590
H   13.3460   20.0150   8.2410
C   12.8650   21.9680   8.9270
C   12.1420   22.7970   9.8120
H   11.2610   22.4200   10.3220
C   12.3840   24.1720   9.8850
H   11.8920   24.7890   10.6310
C   13.4520   24.6990   9.1480
H   13.6750   25.7620   9.1740
C   14.2260   23.9500   8.2820
H   15.0110   24.4020   7.6830
C   13.8970   22.5400   8.1400
H   14.4070   21.9210   7.4080
C   25.2240   23.2580   12.7270
H   25.5120   24.3000   12.9180
H   24.9920   23.1420   11.6620
H   26.0960   22.6100   12.8790
C   24.1020   22.8110   13.7090
C   24.1040   23.2240   14.9730
H   24.9610   23.8230   15.2650
C   23.1140   22.7650   15.8740
H   23.0750   23.1170   16.9010
C   22.0540   21.9550   15.3630
H   21.3500   21.5740   16.0970
C   21.9790   21.6570   14.0120
H   21.2210   20.9940   13.6040
C   22.9780   22.0850   13.1860
H   22.9530   21.7500   12.1530
C   15.9690   24.2190   11.3740
H   16.8540   24.6850   11.8250
H   15.3350   25.1120   11.4330
H   16.1270   23.9390   10.3250
C   15.4160   23.1270   12.1800
C   15.0320   21.8940   11.5900
H   15.1170   21.7510   10.5170
C   14.4730   20.9160   12.4130
H   14.1800   19.9440   12.0280
C   14.3810   21.0610   13.7930
H   14.0500   20.2450   14.4290
C   14.8220   22.2110   14.4320
H   14.6700   22.2620   15.5060
C   15.2630   23.2580   13.6150
H   15.6250   24.2030   14.0110
C   7.9820   23.6640   20.2210
H   7.6700   24.1780   19.3030
H   8.8810   24.2110   20.5300
H   7.2090   23.8760   20.9700
C   8.2150   22.1450   20.0450
C   8.9820   21.3660   20.9660
H   9.4280   21.8310   21.8400
C   9.3410   20.0110   20.7260
H   9.9200   19.4750   21.4720
C   8.8720   19.3730   19.6080
H   9.2540   18.3910   19.3440
C   8.1140   20.1330   18.6130
H   7.8040   19.7260   17.6550
C   7.8120   21.5360   18.8670
H   7.2650   22.1110   18.1260
C   16.6400   17.6150   24.7630
H   16.2880   18.1500   25.6540
H   16.0580   17.8970   23.8770
H   17.6690   17.9180   24.5330
C   16.4320   16.1690   24.9640
C   17.4700   15.2850   24.7630
H   18.3820   15.6110   24.2700
C   17.2870   13.9420   25.1470
H   18.0430   13.2190   24.8550
C   16.0500   13.5080   25.7080
H   15.9690   12.4530   25.9550
C   15.0160   14.4460   25.9100
H   14.0840   14.0850   26.3350
C   15.2290   15.7710   25.5010
H   14.4230   16.4770   25.6750
C   9.8970   25.7470   14.8340
H   9.2600   26.2100   14.0700
H   10.9030   26.1810   14.8020
H   9.4340   25.9280   15.8120
C   10.1050   24.2760   14.5480
C   9.4830   23.4020   15.4380
H   8.7910   23.7840   16.1820
C   9.7180   22.0020   15.3700
H   9.2880   21.4530   16.2030
C   10.5190   21.4980   14.3610
H   10.5880   20.4200   14.2480
C   11.0160   22.3430   13.3520
H   11.7280   21.9650   12.6240
C   10.8610   23.7380   13.4830
H   11.4610   24.3570   12.8230
C   21.4460   7.1060   12.4470
H   20.6860   6.3340   12.6150
H   22.2500   6.4780   12.0440
H   21.0510   7.7230   11.6300
C   21.6030   8.0210   13.6490
C   21.7540   7.6760   14.9780
H   21.7640   6.6430   15.3150
C   21.9350   8.6230   16.0550
H   22.0640   8.3230   17.0910
C   22.1380   9.9860   15.6920
H   22.3350   10.8010   16.3830
C   22.0340   10.3260   14.3310
H   22.1590   11.3300   13.9360
C   21.6750   9.3700   13.3830
H   21.5590   9.7230   12.3630
C   22.9880   17.6800   12.2810
H   22.9180   16.8740   13.0210
H   23.7730   18.3620   12.6300
H   23.2480   17.2650   11.3000
C   21.6550   18.3490   12.1870
C   20.6220   18.0880   13.0570
H   20.7970   17.3350   13.8210
C   19.4340   18.7990   13.0450
H   18.7570   18.7330   13.8920
C   19.1760   19.7760   12.0220
H   18.2920   20.4060   12.0440
C   20.1570   19.9410   11.0580
H   19.9550   20.5700   10.1960
C   21.4170   19.2580   11.1840
H   22.2080   19.5330   10.4920
C   11.5670   16.9320   9.5720
H   12.2140   17.1360   8.7100
H   11.2820   15.8920   9.3700
H   12.1900   17.0270   10.4710
C   10.3380   17.8120   9.7330
C   9.4070   17.9080   8.6630
H   9.2760   17.1270   7.9200
C   8.4820   18.9870   8.6270
H   7.7350   19.0310   7.8400
C   8.4710   19.9600   9.6310
H   7.7480   20.7700   9.6540
C   9.3540   19.8350   10.7390
H   9.3650   20.4890   11.6050
C   10.1940   18.7130   10.7970
H   10.9300   18.6810   11.5950
C   12.7180   16.6050   23.0210
H   12.8130   16.8270   21.9510
H   13.7280   16.3210   23.3450
H   12.5000   17.5290   23.5710
C   11.8010   15.4010   23.1530
C   10.6200   15.4240   22.3970
H   10.4520   16.2470   21.7090
C   9.7560   14.2780   22.4410
H   8.8510   14.2660   21.8410
C   10.0090   13.2210   23.3230
H   9.3460   12.3640   23.2430
C   11.1890   13.1930   24.0600
H   11.5060   12.4190   24.7520
C   12.1210   14.2630   23.8890
H   13.0670   14.1720   24.4150
C   18.8420   17.6350   27.7520
H   18.1240   17.0240   28.3120
H   18.2540   18.2490   27.0590
H   19.3830   18.2440   28.4880
C   19.7860   16.8740   26.9420
C   20.9230   17.5130   26.3330
H   21.0460   18.5910   26.2770
C   21.9600   16.7460   25.6900
H   22.7590   17.2130   25.1220
C   21.8200   15.3540   25.7340
H   22.5620   14.8350   25.1340
C   20.7780   14.7860   26.4240
H   20.6730   13.7070   26.4980
C   19.7540   15.4920   26.9560
H   18.9700   15.0490   27.5620
C   25.2430   22.7500   18.9430
H   24.6510   23.3730   19.6240
H   24.6070   22.0920   18.3390
H   25.7690   23.4530   18.2840
C   26.2890   22.0890   19.8050
C   27.6530   22.5380   19.7650
H   27.8930   23.3990   19.1490
C   28.6720   21.9360   20.4790
H   29.6960   22.2960   20.4470
C   28.3120   20.9270   21.3620
H   29.1140   20.5670   22.0000
C   26.9480   20.4890   21.5060
H   26.7050   19.7450   22.2580
C   25.9360   21.0700   20.7010
H   24.8820   20.8350   20.8180
C   8.6660   14.0750   6.3660
H   9.5670   14.3180   5.7890
H   8.3130   15.1000   6.5330
H   8.0120   13.6260   5.6080
C   8.9520   13.1750   7.5700
C   9.2520   13.8780   8.7390
H   9.0790   14.9490   8.7860
C   9.7250   13.1670   9.8870
H   10.1540   13.6370   10.7670
C   9.7320   11.7360   9.9480
H   9.9080   11.1180   10.8230
C   9.4160   11.0830   8.7270
H   9.5500   10.0100   8.6190
C   9.0570   11.7790   7.5340
H   8.9280   11.2640   6.5870
C   8.9500   11.1620   20.3870
H   9.6770   10.3770   20.1430
H   8.1570   10.6850   20.9760
H   9.5010   11.9120   20.9680
C   8.2120   11.8340   19.2710
C   8.5700   13.1620   18.8940
H   9.3950   13.6460   19.4100
C   7.8880   13.7660   17.8650
H   8.0520   14.7920   17.5510
C   6.8730   13.0430   17.1600
H   6.3940   13.5060   16.3020
C   6.6020   11.7170   17.5240
H   5.9300   11.0650   16.9750
C   7.2670   11.0920   18.5130
H   6.9380   10.1170   18.8610
C   26.4570   12.4450   13.5550
H   27.1280   12.9590   14.2540
H   26.8800   12.5280   12.5470
H   26.3480   11.3870   13.8240
C   25.0650   13.0040   13.5080
C   24.3200   13.0670   12.3170
H   24.6950   12.4320   11.5200
C   23.1080   13.7070   12.1810
H   22.5800   13.8270   11.2400
C   22.5170   14.2950   13.4070
H   21.5280   14.7440   13.3850
C   23.1780   14.0720   14.6700
H   22.7680   14.3710   15.6300
C   24.4820   13.4620   14.6840
H   25.0670   13.3620   15.5930
C   17.5710   21.2480   6.8890
H   18.6510   21.3700   6.7390
H   17.1030   22.0750   7.4370
H   17.0720   21.3190   5.9150
C   17.2290   19.8820   7.3990
C   18.1980   19.0800   7.9940
H   19.2050   19.4850   8.0050
C   17.9790   17.8310   8.6610
H   18.7330   17.2870   9.2230
C   16.6260   17.3740   8.6220
H   16.3320   16.4460   9.1030
C   15.6520   18.0670   7.8430
H   14.6170   17.7430   7.7980
C   15.9210   19.3400   7.2650
H   15.0810   19.8910   6.8510
C   21.3760   21.0260   23.7240
H   20.4220   20.4870   23.7730
H   21.7020   21.4030   24.7020
H   22.0140   20.1900   23.4130
C   21.3200   22.2390   22.7430
C   21.4220   21.9180   21.3730
H   21.5590   20.8770   21.0950
C   21.1640   22.8820   20.4680
H   21.2420   22.6310   19.4150
C   20.8980   24.2170   20.9180
H   20.7360   25.0150   20.1990
C   20.8810   24.5300   22.2790
H   20.7390   25.5510   22.6190
C   21.0600   23.5250   23.2330
H   21.0710   23.7440   24.2960
C   13.4980   11.9160   9.8290
H   12.9760   11.0440   9.4180
H   12.8920   12.3220   10.6480
H   14.4620   11.6150   10.2580
C   13.7160   13.0320   8.7680
C   15.0200   13.6160   8.6070
H   15.8970   13.3430   9.1870
C   15.2000   14.6260   7.6390
H   16.2250   14.9300   7.4480
C   14.1260   14.9630   6.7830
H   14.1730   15.7170   6.0030
C   12.8520   14.5840   7.1130
H   12.0640   15.0130   6.5020
C   12.6470   13.5090   8.0450
H   11.7110   12.9710   8.1580
C   19.7440   10.5210   20.4450
H   19.1710   11.4550   20.4980
H   19.2620   9.7620   21.0740
H   19.7140   10.3290   19.3650
C   21.1430   10.7570   21.0140
C   22.2290   10.3180   20.2850
H   22.1500   9.9270   19.2750
C   23.5250   10.5680   20.8390
H   24.4000   10.2310   20.2920
C   23.7170   11.1630   22.0780
H   24.7300   11.2050   22.4680
C   22.5380   11.3930   22.8610
H   22.7390   11.7980   23.8480
C   21.2670   11.2310   22.2990
H   20.3950   11.6100   22.8240
C   29.8070   21.0370   16.6750
H   29.7320   22.0770   16.3350
H   30.3810   20.5460   15.8790
H   30.3680   20.9570   17.6140
C   28.4450   20.3010   16.9690
C   28.2260   19.5640   18.1860
H   29.0220   19.4550   18.9170
C   26.8940   19.1050   18.4470
H   26.6720   18.4880   19.3130
C   25.8510   19.3550   17.6180
H   24.8790   18.9520   17.8890
C   26.0900   20.0720   16.3750
H   25.2500   20.2200   15.7020
C   27.3720   20.5830   16.0780
H   27.4500   21.3560   15.3190
C   18.5500   10.0140   11.4130
H   18.7830   9.7570   12.4530
H   19.3500   9.5800   10.8000
H   17.6150   9.5640   11.0570
C   18.6360   11.5680   11.2050
C   19.5130   12.2330   10.3370
H   20.2410   11.5850   9.8580
C   19.5720   13.6310   10.2560
H   20.3650   14.1740   9.7510
C   18.5680   14.3480   10.9390
H   18.6520   15.4260   10.8390
C   17.6480   13.7120   11.7250
H   17.1040   14.3100   12.4500
C   17.7060   12.3240   11.9490
H   17.2340   11.8230   12.7890
C   22.1020   25.4310   5.5970
H   21.4160   26.2880   5.5930
H   21.7860   24.8510   4.7220
H   23.1330   25.7650   5.4260
C   21.9980   24.6230   6.8970
C   21.0770   23.5600   6.9970
H   20.5490   23.2000   6.1180
C   20.8770   22.8840   8.2000
H   20.2320   22.0110   8.2230
C   21.4880   23.3510   9.3830
H   21.2750   22.8260   10.3090
C   22.4070   24.4640   9.3180
H   22.8440   24.9190   10.2020
C   22.7460   25.0220   8.0470
H   23.4980   25.8030   7.9750
C   19.3645   18.5305   21.4507
H   20.0962   18.4705   22.2418
H   18.7659   19.4174   21.6022
H   19.9013   18.6632   20.5171
C   18.5155   17.2718   21.4264
C   17.1205   17.2745   21.2356
H   16.6249   18.2342   21.0928
C   16.3794   16.1024   21.2295
H   15.3030   16.1938   21.0888
C   16.9861   14.8719   21.4110
H   16.3934   13.9742   21.4384
C   18.3698   14.8528   21.6077
H   18.8645   13.9021   21.7760
C   19.1290   16.0199   21.6308
H   20.1868   15.9529   21.8183
562
Frame 37
C   16.2638   15.9681   17.2622
C   18.6247   16.6597   16.8264
C   15.7763   17.4130   17.4370
C   19.3091   16.0287   18.0228
C   19.5430   16.7685   15.6282
N   17.4517   15.8690   16.4509
N   15.2693   15.0344   16.7519
O   15.2784   18.0102   16.2298
H   14.3405   17.7967   16.2238
H   17.2388   15.9943   15.4621
H   16.5176   15.6733   18.2832
H   18.3148   17.6623   17.1075
H   14.3796   15.1428   17.2317
H   15.0796   15.2067   15.7618
H   16.5994   18.0251   17.8020
H   15.0159   17.4250   18.2247
H   20.1078   16.6728   18.4077
H   18.9640   16.8258   14.7118
H   19.7076   15.0572   17.7436
H   18.6072   15.8791   18.8362
H   20.1790   17.6407   15.6897
H   20.1805   15.8817   15.5656
C   31.0130   13.4690   20.5000
H   31.2490   12.6100   21.1410
H   31.6000   14.3580   20.7590
H   31.3090   13.1730   19.4860
C   29.5240   13.6930   20.5110
C   28.9490   14.9820   20.4600
H   29.6230   15.8190   20.3030
C   27.5460   15.1780   20.4020
H   27.1240   16.1710   20.2790
C   26.7510   14.0910   20.7820
H   25.6720   14.1250   20.8970
C   27.2930   12.7880   20.7300
H   26.5470   12.0120   20.8740
C   28.6890   12.5880   20.6520
H   29.0430   11.5650   20.7440
C   9.2210   14.9750   13.0480
H   9.9180   14.2170   12.6700
H   8.7250   15.4390   12.1860
H   8.5460   14.3880   13.6810
C   9.9500   16.0790   13.9260
C   11.1730   16.6700   13.5290
H   11.6950   16.2330   12.6830
C   11.7790   17.6500   14.3810
H   12.6890   18.1940   14.1470
C   11.0580   18.1190   15.4870
H   11.4490   19.0070   15.9740
C   9.8790   17.5550   15.8260
H   9.3990   17.9040   16.7360
C   9.3470   16.4720   15.1090
H   8.3400   16.1840   15.3940
C   13.1040   20.9490   22.1230
H   12.1100   21.0700   22.5720
H   13.3280   19.8760   22.1570
H   12.9300   21.4440   21.1600
C   14.1720   21.7290   22.9410
C   13.9780   23.0550   23.3640
H   12.9880   23.4780   23.2220
C   14.9570   23.7090   24.0980
H   14.8720   24.7370   24.4370
C   16.0910   23.0190   24.4910
H   16.8240   23.5570   25.0840
C   16.3390   21.7000   24.0260
H   17.2960   21.2060   24.1580
C   15.3480   21.0720   23.2660
H   15.4870   20.1110   22.7800
C   22.3270   16.0930   8.4030
H   22.3260   16.2600   9.4870
H   21.4310   15.6720   7.9300
H   22.4190   17.0690   7.9110
C   23.4930   15.2320   7.9250
C   24.6760   15.8080   7.3600
H   24.7170   16.8840   7.2220
C   25.8340   15.0550   7.0100
H   26.7290   15.6050   6.7360
C   25.7140   13.6410   7.1510
H   26.5440   12.9840   6.9070
C   24.5170   13.0840   7.6510
H   24.4140   12.0140   7.8020
C   23.4280   13.8620   7.9640
H   22.4620   13.4500   8.2420
C   13.3770   8.3710   11.1840
H   13.9280   8.9300   11.9500
H   12.7730   7.5980   11.6750
H   12.7470   9.0620   10.6100
C   14.2950   7.7300   10.0940
C   14.0090   6.4760   9.6240
H   13.0770   6.0180   9.9390
C   14.8900   5.7890   8.7340
H   14.6040   4.8470   8.2740
C   16.0940   6.4030   8.4280
H   16.8170   5.9830   7.7360
C   16.3240   7.7020   8.8800
H   17.2290   8.1990   8.5440
C   15.3900   8.3770   9.6670
H   15.4990   9.4410   9.8550
C   22.3720   27.5750   12.3440
H   22.6740   28.6260   12.2520
H   21.8660   27.2750   11.4180
H   23.3360   27.0640   12.4640
C   21.5860   27.1640   13.5380
C   20.6270   26.1270   13.4710
H   20.5230   25.5770   12.5400
C   19.8190   25.9080   14.6070
H   19.0410   25.1530   14.6740
C   19.8330   26.8130   15.6810
H   19.1800   26.6280   16.5280
C   20.7150   27.8320   15.6880
H   20.6750   28.5050   16.5390
C   21.6510   27.9300   14.6880
H   22.3640   28.7490   14.7160
C   26.3230   15.1720   24.4190
H   27.1730   15.7810   24.7530
H   26.9100   14.3730   23.9500
H   25.8350   14.6810   25.2700
C   25.2980   15.8310   23.5700
C   25.3310   17.2270   23.3880
H   26.0260   17.7850   24.0090
C   24.4240   17.8360   22.4700
H   24.3120   18.9080   22.3350
C   23.4800   16.9710   21.8510
H   22.7300   17.3880   21.1860
C   23.4350   15.6140   22.0990
H   22.6180   15.0160   21.7070
C   24.3990   15.0550   22.9540
H   24.2710   14.0400   23.3190
C   12.5310   21.3930   17.8850
H   13.2140   21.0900   17.0820
H   11.5950   21.6280   17.3640
H   12.3060   20.6590   18.6680
C   13.0320   22.5830   18.7360
C   12.2150   23.1990   19.6560
H   11.1450   23.0160   19.6540
C   12.8150   24.0790   20.5840
H   12.1470   24.6520   21.2210
C   14.2070   24.1490   20.7110
H   14.6570   24.8010   21.4530
C   15.0790   23.3670   19.9600
H   16.1550   23.3650   20.1040
C   14.4560   22.6230   18.9390
H   15.0290   21.9490   18.3100
C   14.8830   6.8570   21.3950
H   14.5830   5.8040   21.4680
H   14.1110   7.5640   21.0690
H   14.9540   7.1620   22.4460
C   16.2700   6.9730   20.7720
C   17.3370   6.4110   21.5060
H   17.0910   5.8820   22.4210
C   18.6390   6.6200   20.9560
H   19.4860   6.2070   21.4970
C   18.8360   7.1840   19.6870
H   19.8020   7.2850   19.2010
C   17.7740   7.7920   19.0310
H   17.9360   8.3530   18.1150
C   16.4720   7.7040   19.5680
H   15.6290   8.1750   19.0710
C   14.8160   10.5740   15.3720
H   14.3440   11.0040   14.4800
H   15.1400   11.3900   16.0290
H   13.9830   10.0440   15.8500
C   15.8760   9.5730   14.9300
C   15.5810   8.3740   14.2260
H   14.5360   8.2410   13.9630
C   16.5460   7.4790   13.7060
H   16.2100   6.6290   13.1200
C   17.8520   7.6230   14.2370
H   18.6540   6.9360   13.9850
C   18.1870   8.7030   14.9950
H   19.2350   8.8200   15.2580
C   17.2460   9.6850   15.4350
H   17.6780   10.4650   16.0550
C   8.0650   7.4040   17.5740
H   8.1270   8.0850   16.7160
H   7.5600   7.9240   18.3970
H   7.4880   6.4980   17.3480
C   9.4790   7.0660   18.0080
C   10.5440   7.9760   17.7650
H   10.3730   8.9450   17.3060
C   11.8290   7.6370   18.2640
H   12.7100   8.2510   18.1010
C   12.0090   6.4900   19.0190
H   13.0130   6.2290   19.3400
C   10.9610   5.6080   19.2070
H   11.1880   4.6980   19.7550
C   9.6610   5.8390   18.6640
H   8.8970   5.0800   18.8040
C   18.2400   9.3350   23.8980
H   18.4220   9.0030   24.9280
H   18.8890   10.1800   23.6390
H   18.3460   8.4310   23.2860
C   16.8430   9.7990   23.8620
C   16.4750   10.9760   23.2580
H   17.2340   11.5320   22.7170
C   15.1310   11.3650   23.2170
H   14.8330   12.3010   22.7540
C   14.1480   10.5800   23.8790
H   13.1240   10.9410   23.8510
C   14.5070   9.3760   24.4910
H   13.6960   8.7620   24.8720
C   15.8380   9.0020   24.5510
H   16.1540   8.1380   25.1280
C   10.9060   11.5230   15.8000
H   10.2660   12.1380   16.4450
H   11.8110   12.1010   15.5760
H   11.3030   10.7560   16.4760
C   10.1450   10.8230   14.6590
C   8.8800   11.1470   14.2680
H   8.3050   11.8430   14.8720
C   8.2310   10.3560   13.3000
H   7.1860   10.6060   13.1480
C   8.9080   9.2900   12.6040
H   8.3580   8.8160   11.7960
C   10.2410   9.0790   12.9680
H   10.7620   8.2900   12.4330
C   10.8540   9.7140   14.0870
H   11.8650   9.4940   14.4180
C   12.4900   20.4970   8.7300
H   11.7150   20.4740   7.9540
H   12.2270   19.9760   9.6590
H   13.3460   20.0150   8.2410
C   12.8650   21.9680   8.9270
C   12.1420   22.7970   9.8120
H   11.2610   22.4200   10.3220
C   12.3840   24.1720   9.8850
H   11.8920   24.7890   10.6310
C   13.4520   24.6990   9.1480
H   13.6750   25.7620   9.1740
C   14.2260   23.9500   8.2820
H   15.0110   24.4020   7.6830
C   13.8970   22.5400   8.1400
H   14.4070   21.9210   7.4080
C   25.2240   23.2580   12.7270
H   25.5120   24.3000   12.9180
H   24.9920   23.1420   11.6620
H   26.0960   22.6100   12.8790
C   24.1020   22.8110   13.7090
C   24.1040   23.2240   14.9730
H   24.9610   23.8230   15.2650
C   23.1140   22.7650   15.8740
H   23.0750   23.1170   16.9010
C   22.0540   21.9550   15.3630
H   21.3500   21.5740   16.0970
C   21.9790   21.6570   14.0120
H   21.2210   20.9940   13.6040
C   22.9780   22.0850   13.1860
H   22.9530   21.7500   12.1530
C   15.9690   24.2190   11.3740
H   16.8540   24.6850   11.8250
H   15.3350   25.1120   11.4330
H   16.1270   23.9390   10.3250
C   15.4160   23.1270   12.1800
C   15.0320   21.8940   11.5900
H   15.1170   21.7510   10.5170
C   14.4730   20.9160   12.4130
H   14.1800   19.9440   12.0280
C   14.3810   21.0610   13.7930
H   14.0500   20.2450   14.4290
C   14.8220   22.2110   14.4320
H   14.6700   22.2620   15.5060
C   15.2630   23.2580   13.6150
H   15.6250   24.2030   14.0110
C   7.9820   23.6640   20.2210
H   7.6700   24.1780   19.3030
H   8.8810   24.2110   20.5300
H   7.2090   23.8760   20.9700
C   8.2150   22.1450   20.0450
C   8.9820   21.3660   20.9660
H   9.4280   21.8310   21.8400
C   9.3410   20.0110   20.7260
H   9.9200   19.4750   21.4720
C   8.8720   19.3730   19.6080
H   9.2540   18.3910   19.3440
C   8.1140   20.1330   18.6130
H   7.8040   19.7260   17.6550
C   7.8120   21.5360   18.8670
H   7.2650   22.1110   18.1260
C   16.6400   17.6150   24.7630
H   16.2880   18.1500   25.6540
H   16.0580   17.8970   23.8770
H   17.6690   17.9180   24.5330
C   16.4320   16.1690   24.9640
C   17.4700   15.2850   24.7630
H   18.3820   15.6110   24.2700
C   17.2870   13.9420   25.1470
H   18.0430   13.2190   24.8550
C   16.0500   13.5080   25.7080
H   15.9690   12.4530   25.9550
C   15.0160   14.4460   25.9100
H   14.0840   14.0850   26.3350
C   15.2290   15.7710   25.5010
H   14.4230   16.4770   25.6750
C   9.8970   25.7470   14.8340
H   9.2600   26.2100   14.0700
H   10.9030   26.1810   14.8020
H   9.4340   25.9280   15.8120
C   10.1050   24.2760   14.5480
C   9.4830   23.4020   15.4380
H   8.7910   23.7840   16.1820
C   9.7180   22.0020   15.3700
H   9.2880   21.4530   16.2030
C   10.5190   21.4980   14.3610
H   10.5880   20.4200   14.2480
C   11.0160   22.3430   13.3520
H   11.7280   21.9650   12.6240
C   10.8610   23.7380   13.4830
H   11.4610   24.3570   12.8230
C   21.4460   7.1060   12.4470
H   20.6860   6.3340   12.6150
H   22.2500   6.4780   12.0440
H   21.0510   7.7230   11.6300
C   21.6030   8.0210   13.6490
C   21.7540   7.6760   14.9780
H   21.7640   6.6430   15.3150
C   21.9350   8.6230   16.0550
H   22.0640   8.3230   17.0910
C   22.1380   9.9860   15.6920
H   22.3350   10.8010   16.3830
C   22.0340   10.3260   14.3310
H   22.1590   11.3300   13.9360
C   21.6750   9.3700   13.3830
H   21.5590   9.7230   12.3630
C   22.9880   17.6800   12.2810
H   22.9180   16.8740   13.0210
H   23.7730   18.3620   12.6300
H   23.2480   17.2650   11.3000
C   21.6550   18.3490   12.1870
C   20.6220   18.0880   13.0570
H   20.7970   17.3350   13.8210
C   19.4340   18.7990   13.0450
H   18.7570   18.7330   13.8920
C   19.1760   19.7760   12.0220
H   18.2920   20.4060   12.0440
C   20.1570   19.9410   11.0580
H   19.9550   20.5700   10.1960
C   21.4170   19.2580   11.1840
H   22.2080   19.5330   10.4920
C   11.5670   16.9320   9.5720
H   12.2140   17.1360   8.7100
H   11.2820   15.8920   9.3700
H   12.1900   17.0270   10.4710
C   10.3380   17.8120   9.7330
C   9.4070   17.9080   8.6630
H   9.2760   17.1270   7.9200
C   8.4820   18.9870   8.6270
H   7.7350   19.0310   7.8400
C   8.4710   19.9600   9.6310
H   7.7480   20.7700   9.6540
C   9.3540   19.8350   10.7390
H   9.3650   20.4890   11.6050
C   10.1940   18.7130   10.7970
H   10.9300   18.6810   11.5950
C   12.7180   16.6050   23.0210
H   12.8130   16.8270   21.9510
H   13.7280   16.3210   23.3450
H   12.5000   17.5290   23.5710
C   11.8010   15.4010   23.1530
C   10.6200   15.4240   22.3970
H   10.4520   16.2470   21.7090
C   9.7560   14.2780   22.4410
H   8.8510   14.2660   21.8410
C   10.0090   13.2210   23.3230
H   9.3460   12.3640   23.2430
C   11.1890   13.1930   24.0600
H   11.5060   12.4190   24.7520
C   12.1210   14.2630   23.8890
H   13.0670   14.1720   24.4150
C   18.8420   17.6350   27.7520
H   18.1240   17.0240   28.3120
H   18.2540   18.2490   27.0590
H   19.3830   18.2440   28.4880
C   19.7860   16.8740   26.9420
C   20.9230   17.5130   26.3330
H   21.0460   18.5910   26.2770
C   21.9600   16.7460   25.6900
H   22.7590   17.2130   25.1220
C   21.8200   15.3540   25.7340
H   22.5620   14.8350   25.1340
C   20.7780   14.7860   26.4240
H   20.6730   13.7070   26.4980
C   19.7540   15.4920   26.9560
H   18.9700   15.0490   27.5620
C   25.2430   22.7500   18.9430
H   24.6510   23.3730   19.6240
H   24.6070   22.0920   18.3390
H   25.7690   23.4530   18.2840
C   26.2890   22.0890   19.8050
C   27.6530   22.5380   19.7650
H   27.8930   23.3990   19.1490
C   28.6720   21.9360   20.4790
H   29.6960   22.2960   20.4470
C   28.3120   20.9270   21.3620
H   29.1140   20.5670   22.0000
C   26.9480   20.4890   21.5060
H   26.7050   19.7450   22.2580
C   25.9360   21.0700   20.7010
H   24.8820   20.8350   20.8180
C   8.6660   14.0750   6.3660
H   9.5670   14.3180   5.7890
H   8.3130   15.1000   6.5330
H   8.0120   13.6260   5.6080
C   8.9520   13.1750   7.5700
C   9.2520   13.8780   8.7390
H   9.0790   14.9490   8.7860
C   9.7250   13.1670   9.8870
H   10.1540   13.6370   10.7670
C   9.7320   11.7360   9.9480
H   9.9080   11.1180   10.8230
C   9.4160   11.0830   8.7270
H   9.5500   10.0100   8.6190
C   9.0570   11.7790   7.5340
H   8.9280   11.2640   6.5870
C   8.9500   11.1620   20.3870
H   9.6770   10.3770   20.1430
H   8.1570   10.6850   20.9760
H   9.5010   11.9120   20.9680
C   8.2120   11.8340   19.2710
C   8.5700   13.1620   18.8940
H   9.3950   13.6460   19.4100
C   7.8880   13.7660   17.8650
H   8.0520   14.7920   17.5510
C   6.8730   13.0430   17.1600
H   6.3940   13.5060   16.3020
C   6.6020   11.7170   17.5240
H   5.9300   11.0650   16.9750
C   7.2670   11.0920   18.5130
H   6.9380   10.1170   18.8610
C   26.4570   12.4450   13.5550
H   27.1280   12.9590   14.2540
H   26.8800   12.5280   12.5470
H   26.3480   11.3870   13.8240
C   25.0650   13.0040   13.5080
C   24.3200   13.0670   12.3170
H   24.6950   12.4320   11.5200
C   23.1080   13.7070   12.1810
H   22.5800   13.8270   11.2400
C   22.5170   14.2950   13.4070
H   21.5280   14.7440   13.3850
C   23.1780   14.0720   14.6700
H   22.7680   14.3710   15.6300
C   24.4820   13.4620   14.6840
H   25.0670   13.3620   15.5930
C   17.5710   21.2480   6.8890
H   18.6510   21.3700   6.7390
H   17.1030   22.0750   7.4370
H   17.0720   21.3190   5.9150
C   17.2290   19.8820   7.3990
C   18.1980   19.0800   7.9940
H   19.2050   19.4850   8.0050
C   17.9790   17.8310   8.6610
H   18.7330   17.2870   9.2230
C   16.6260   17.3740   8.6220
H   16.3320   16.4460   9.1030
C   15.6520   18.0670   7.8430
H   14.6170   17.7430   7.7980
C   15.9210   19.3400   7.2650
H   15.0810   19.8910   6.8510
C   21.3760   21.0260   23.7240
H   20.4220   20.4870   23.7730
H   21.7020   21.4030   24.7020
H   22.0140   20.1900   23.4130
C   21.3200   22.2390   22.7430
C   21.4220   21.9180   21.3730
H   21.5590   20.8770   21.0950
C   21.1640   22.8820   20.4680
H   21.2420   22.6310   19.4150
C   20.8980   24.2170   20.9180
H   20.7360   25.0150   20.1990
C   20.8810   24.5300   22.2790
H   20.7390   25.5510   22.6190
C   21.0600   23.5250   23.2330
H   21.0710   23.7440   24.2960
C   13.4980   11.9160   9.8290
H   12.9760   11.0440   9.4180
H   12.8920   12.3220   10.6480
H   14.4620   11.6150   10.2580
C   13.7160   13.0320   8.7680
C   15.0200   13.6160   8.6070
H   15.8970   13.3430   9.1870
C   15.2000   14.6260   7.6390
H   16.2250   14.9300   7.4480
C   14.1260   14.9630   6.7830
H   14.1730   15.7170   6.0030
C   12.8520   14.5840   7.1130
H   12.0640   15.0130   6.5020
C   12.6470   13.5090   8.0450
H   11.7110   12.9710   8.1580
C   19.7440   10.5210   20.4450
H   19.1710   11.4550   20.4980
H   19.2620   9.7620   21.0740
H   19.7140   10.3290   19.3650
C   21.1430   10.7570   21.0140
C   22.2290   10.3180   20.2850
H   22.1500   9.9270   19.2750
C   23.5250   10.5680   20.8390
H   24.4000   10.2310   20.2920
C   23.7170   11.1630   22.0780
H   24.7300   11.2050   22.4680
C   22.5380   11.3930   22.8610
H   22.7390   11.7980   23.8480
C   21.2670   11.2310   22.2990
H   20.3950   11.6100   22.8240
C   29.8070   21.0370   16.6750
H   29.7320   22.0770   16.3350
H   30.3810   20.5460   15.8790
H   30.3680   20.9570   17.6140
C   28.4450   20.3010   16.9690
C   28.2260   19.5640   18.1860
H   29.0220   19.4550   18.9170
C   26.8940   19.1050   18.4470
H   26.6720   18.4880   19.3130
C   25.8510   19.3550   17.6180
H   24.8790   18.9520   17.8890
C   26.0900   20.0720   16.3750
H   25.2500   20.2200   15.7020
C   27.3720   20.5830   16.0780
H   27.4500   21.3560   15.3190
C   18.5500   10.0140   11.4130
H   18.7830   9.7570   12.4530
H   19.3500   9.5800   10.8000
H   17.6150   9.5640   11.0570
C   18.6360   11.5680   11.2050
C   19.5130   12.2330   10.3370
H   20.2410   11.5850   9.8580
C   19.5720   13.6310   10.2560
H   20.3650   14.1740   9.7510
C   18.5680   14.3480   10.9390
H   18.6520   15.4260   10.8390
C   17.6480   13.7120   11.7250
H   17.1040   14.3100   12.4500
C   17.7060   12.3240   11.9490
H   17.2340   11.8230   12.7890
C   22.1020   25.4310   5.5970
H   21.4160   26.2880   5.5930
H   21.7860   24.8510   4.7220
H   23.1330   25.7650   5.4260
C   21.9980   24.6230   6.8970
C   21.0770   23.5600   6.9970
H   20.5490   23.2000   6.1180
C   20.8770   22.8840   8.2000
H   20.2320   22.0110   8.2230
C   21.4880   23.3510   9.3830
H   21.2750   22.8260   10.3090
C   22.4070   24.4640   9.3180
H   22.8440   24.9190   10.2020
C   22.7460   25.0220   8.0470
H   23.4980   25.8030   7.9750
C   19.3630   18.5310   21.4512
H   20.0981   18.4657   22.2394
H   18.7629   19.4193   21.6037
H   19.8983   18.6687   20.5170
C   18.5113   17.2683   21.4246
C   17.1289   17.2789   21.2409
H   16.6210   18.2312   21.0973
C   16.3745   16.1091   21.2291
H   15.3017   16.1916   21.0996
C   16.9856   14.8771   21.4134
H   16.3985   13.9763   21.4344
C   18.3607   14.8487   21.6061
H   18.8681   13.9056   21.7746
C   19.1303   16.0176   21.6328
H   20.1854   15.9563   21.8224
562
Frame 38
C   16.2614   15.9671   17.2634
C   18.6265   16.6607   16.8294
C   15.7769   17.4090   17.4392
C   19.3077   16.0305   18.0249
C   19.5432   16.7672   15.6290
N   17.4510   15.8648   16.4504
N   15.2639   15.0403   16.7530
O   15.2774   18.0035   16.2308
H   14.3395   17.7957   16.2187
H   17.2339   15.9985   15.4657
H   16.5214   15.6667   18.2757
H   18.3160   17.6657   17.1067
H   14.3831   15.1448   17.2343
H   15.0829   15.2114   15.7660
H   16.5977   18.0265   17.8006
H   15.0140   17.4225   18.2234
H   20.1089   16.6723   18.4046
H   18.9644   16.8264   14.7132
H   19.7091   15.0550   17.7449
H   18.6051   15.8780   18.8353
H   20.1786   17.6390   15.6923
H   20.1812   15.8796   15.5664
C   31.0130   13.4690   20.5000
H   31.2490   12.6100   21.1410
H   31.6000   14.3580   20.7590
H   31.3090   13.1730   19.4860
C   29.5240   13.6930   20.5110
C   28.9490   14.9820   20.4600
H   29.6230   15.8190   20.3030
C   27.5460   15.1780   20.4020
H   27.1240   16.1710   20.2790
C   26.7510   14.0910   20.7820
H   25.6720   14.1250   20.8970
C   27.2930   12.7880   20.7300
H   26.5470   12.0120   20.8740
C   28.6890   12.5880   20.6520
H   29.0430   11.5650   20.7440
C   9.2210   14.9750   13.0480
H   9.9180   14.2170   12.6700
H   8.7250   15.4390   12.1860
H   8.5460   14.3880   13.6810
C   9.9500   16.0790   13.9260
C   11.1730   16.6700   13.5290
H   11.6950   16.2330   12.6830
C   11.7790   17.6500   14.3810
H   12.6890   18.1940   14.1470
C   11.0580   18.1190   15.4870
H   11.4490   19.0070   15.9740
C   9.8790   17.5550   15.8260
H   9.3990   17.9040   16.7360
C   9.3470   16.4720   15.1090
H   8.3400   16.1840   15.3940
C   13.1040   20.9490   22.1230
H   12.1100   21.0700   22.5720
H   13.3280   19.8760   22.1570
H   12.9300   21.4440   21.1600
C   14.1720   21.7290   22.9410
C   13.9780   23.0550   23.3640
H   12.9880   23.4780   23.2220
C   14.9570   23.7090   24.0980
H   14.8720   24.7370   24.4370
C   16.0910   23.0190   24.4910
H   16.8240   23.5570   25.0840
C   16.3390   21.7000   24.0260
H   17.2960   21.2060   24.1580
C   15.3480   21.0720   23.2660
H   15.4870   20.1110   22.7800
C   22.3270   16.0930   8.4030
H   22.3260   16.2600   9.4870
H   21.4310   15.6720   7.9300
H   22.4190   17.0690   7.9110
C   23.4930   15.2320   7.9250
C   24.6760   15.8080   7.3600
H   24.7170   16.8840   7.2220
C   25.8340   15.0550   7.0100
H   26.7290   15.6050   6.7360
C   25.7140   13.6410   7.1510
H   26.5440   12.9840   6.9070
C   24.5170   13.0840   7.6510
H   24.4140   12.0140   7.8020
C   23.4280   13.8620   7.9640
H   22.4620   13.4500   8.2420
C   13.3770   8.3710   11.1840
H   13.9280   8.9300   11.9500
H   12.7730   7.5980   11.6750
H   12.7470   9.0620   10.6100
C   14.2950   7.7300   10.0940
C   14.0090   6.4760   9.6240
H   13.0770   6.0180   9.9390
C   14.8900   5.7890   8.7340
H   14.6040   4.8470   8.2740
C   16.0940   6.4030   8.4280
H   16.8170   5.9830   7.7360
C   16.3240   7.7020   8.8800
H   17.2290   8.1990   8.5440
C   15.3900   8.3770   9.6670
H   15.4990   9.4410   9.8550
C   22.3720   27.5750   12.3440
H   22.6740   28.6260   12.2520
H   21.8660   27.2750   11.4180
H   23.3360   27.0640   12.4640
C   21.5860   27.1640   13.5380
C   20.6270   26.1270   13.4710
H   20.5230   25.5770   12.5400
C   19.8190   25.9080   14.6070
H   19.0410   25.1530   14.6740
C   19.8330   26.8130   15.6810
H   19.1800   26.6280   16.5280
C   20.7150   27.8320   15.6880
H   20.6750   28.5050   16.5390
C   21.6510   27.9300   14.6880
H   22.3640   28.7490   14.7160
C   26.3230   15.1720   24.4190
H   27.1730   15.7810   24.7530
H   26.9100   14.3730   23.9500
H   25.8350   14.6810   25.2700
C   25.2980   15.8310   23.5700
C   25.3310   17.2270   23.3880
H   26.0260   17.7850   24.0090
C   24.4240   17.8360   22.4700
H   24.3120   18.9080   22.3350
C   23.4800   16.9710   21.8510
H   22.7300   17.3880   21.1860
C   23.4350   15.6140   22.0990
H   22.6180   15.0160   21.7070
C   24.3990   15.0550   22.9540
H   24.2710   14.0400   23.3190
C   12.5310   21.3930   17.8850
H   13.2140   21.0900   17.0820
H   11.5950   21.6280   17.3640
H   12.3060   20.6590   18.6680
C   13.0320   22.5830   18.7360
C   12.2150   23.1990   19.6560
H   11.1450   23.0160   19.6540
C   12.8150   24.0790   20.5840
H   12.1470   24.6520   21.2210
C   14.2070   24.1490   20.7110
H   14.6570   24.8010   21.4530
C   15.0790   23.3670   19.9600
H   16.1550   23.3650   20.1040
C   14.4560   22.6230   18.9390
H   15.0290   21.9490   18.3100
C   14.8830   6.8570   21.3950
H   14.5830   5.8040   21.4680
H   14.1110   7.5640   21.0690
H   14.9540   7.1620   22.4460
C   16.2700   6.9730   20.7720
C   17.3370   6.4110   21.5060
H   17.0910   5.8820   22.4210
C   18.6390   6.6200   20.9560
H   19.4860   6.2070   21.4970
C   18.8360   7.1840   19.6870
H   19.8020   7.2850   19.2010
C   17.7740   7.7920   19.0310
H   17.9360   8.3530   18.1150
C   16.4720   7.7040   19.5680
H   15.6290   8.1750   19.0710
C   14.8160   10.5740   15.3720
H   14.3440   11.0040   14.4800
H   15.1400   11.3900   16.0290
H   13.9830   10.0440   15.8500
C   15.8760   9.5730   14.9300
C   15.5810   8.3740   14.2260
H   14.5360   8.2410   13.9630
C   16.5460   7.4790   13.7060
H   16.2100   6.6290   13.1200
C   17.8520   7.6230   14.2370
H   18.6540   6.9360   13.9850
C   18.1870   8.7030   14.9950
H   19.2350   8.8200   15.2580
C   17.2460   9.6850   15.4350
H   17.6780   10.4650   16.0550
C   8.0650   7.4040   17.5740
H   8.1270   8.0850   16.7160
H   7.5600   7.9240   18.3970
H   7.4880   6.4980   17.3480
C   9.4790   7.0660   18.0080
C   10.5440   7.9760   17.7650
H   10.3730   8.9450   17.3060
C   11.8290   7.6370   18.2640
H   12.7100   8.2510   18.1010
C   12.0090   6.4900   19.0190
H   13.0130   6.2290   19.3400
C   10.9610   5.6080   19.2070
H   11.1880   4.6980   19.7550
C   9.6610   5.8390   18.6640
H   8.8970   5.0800   18.8040
C   18.2400   9.3350   23.8980
H   18.4220   9.0030   24.9280
H   18.8890   10.1800   23.6390
H   18.3460   8.4310   23.2860
C   16.8430   9.7990   23.8620
C   16.4750   10.9760   23.2580
H   17.2340   11.5320   22.7170
C   15.1310   11.3650   23.2170
H   14.8330   12.3010   22.7540
C   14.1480   10.5800   23.8790
H   13.1240   10.9410   23.8510
C   14.5070   9.3760   24.4910
H   13.6960   8.7620   24.8720
C   15.8380   9.0020   24.5510
H   16.1540   8.1380   25.1280
C   10.9060   11.5230   15.8000
H   10.2660   12.1380   16.4450
H   11.8110   12.1010   15.5760
H   11.3030   10.7560   16.4760
C   10.1450   10.8230   14.6590
C   8.8800   11.1470   14.2680
H   8.3050   11.8430   14.8720
C   8.2310   10.3560   13.3000
H   7.1860   10.6060   13.1480
C   8.9080   9.2900   12.6040
H   8.3580   8.8160   11.7960
C   10.2410   9.0790   12.9680
H   10.7620   8.2900   12.4330
C   10.8540   9.7140   14.0870
H   11.8650   9.4940   14.4180
C   12.4900   20.4970   8.7300
H   11.7150   20.4740   7.9540
H   12.2270   19.9760   9.6590
H   13.3460   20.0150   8.2410
C   12.8650   21.9680   8.9270
C   12.1420   22.7970   9.8120
H   11.2610   22.4200   10.3220
C   12.3840   24.1720   9.8850
H   11.8920   24.7890   10.6310
C   13.4520   24.6990   9.1480
H   13.6750   25.7620   9.1740
C   14.2260   23.9500   8.2820
H   15.0110   24.4020   7.6830
C   13.8970   22.5400   8.1400
H   14.4070   21.9210   7.4080
C   25.2240   23.2580   12.7270
H   25.5120   24.3000   12.9180
H   24.9920   23.1420   11.6620
H   26.0960   22.6100   12.8790
C   24.1020   22.8110   13.7090
C   24.1040   23.2240   14.9730
H   24.9610   23.8230   15.2650
C   23.1140   22.7650   15.8740
H   23.0750   23.1170   16.9010
C   22.0540   21.9550   15.3630
H   21.3500   21.5740   16.0970
C   21.9790   21.6570   14.0120
H   21.2210   20.9940   13.6040
C   22.9780   22.0850   13.1860
H   22.9530   21.7500   12.1530
C   15.9690   24.2190   11.3740
H   16.8540   24.6850   11.8250
H   15.3350   25.1120   11.4330
H   16.1270   23.9390   10.3250
C   15.4160   23.1270   12.1800
C   15.0320   21.8940   11.5900
H   15.1170   21.7510   10.5170
C   14.4730   20.9160   12.4130
H   14.1800   19.9440   12.0280
C   14.3810   21.0610   13.7930
H   14.0500   20.2450   14.4290
C   14.8220   22.2110   14.4320
H   14.6700   22.2620   15.5060
C   15.2630   23.2580   13.6150
H   15.6250   24.2030   14.0110
C   7.9820   23.6640   20.2210
H   7.6700   24.1780   19.3030
H   8.8810   24.2110   20.5300
H   7.2090   23.8760   20.9700
C   8.2150   22.1450   20.0450
C   8.9820   21.3660   20.9660
H   9.4280   21.8310   21.8400
C   9.3410   20.0110   20.7260
H   9.9200   19.4750   21.4720
C   8.8720   19.3730   19.6080
H   9.2540   18.3910   19.3440
C   8.1140   20.1330   18.6130
H   7.8040   19.7260   17.6550
C   7.8120   21.5360   18.8670
H   7.2650   22.1110   18.1260
C   16.6400   17.6150   24.7630
H   16.2880   18.1500   25.6540
H   16.0580   17.8970   23.8770
H   17.6690   17.9180   24.5330
C   16.4320   16.1690   24.9640
C   17.4700   15.2850   24.7630
H   18.3820   15.6110   24.2700
C   17.2870   13.9420   25.1470
H   18.0430   13.2190   24.8550
C   16.0500   13.5080   25.7080
H   15.9690   12.4530   25.9550
C   15.0160   14.4460   25.9100
H   14.0840   14.0850   26.3350
C   15.2290   15.7710   25.5010
H   14.4230   16.4770   25.6750
C   9.8970   25.7470   14.8340
H   9.2600   26.2100   14.0700
H   10.9030   26.1810   14.8020
H   9.4340   25.9280   15.8120
C   10.1050   24.2760   14.5480
C   9.4830   23.4020   15.4380
H   8.7910   23.7840   16.1820
C   9.7180   22.0020   15.3700
H   9.2880   21.4530   16.2030
C   10.5190   21.4980   14.3610
H   10.5880   20.4200   14.2480
C   11.0160   22.3430   13.3520
H   11.7280   21.9650   12.6240
C   10.8610   23.7380   13.4830
H   11.4610   24.3570   12.8230
C   21.4460   7.1060   12.4470
H   20.6860   6.3340   12.6150
H   22.2500   6.4780   12.0440
H   21.0510   7.7230   11.6300
C   21.6030   8.0210   13.6490
C   21.7540   7.6760   14.9780
H   21.7640   6.6430   15.3150
C   21.9350   8.6230   16.0550
H   22.0640   8.3230   17.0910
C   22.1380   9.9860   15.6920
H   22.3350   10.8010   16.3830
C   22.0340   10.3260   14.3310
H   22.1590   11.3300   13.9360
C   21.6750   9.3700   13.3830
H   21.5590   9.7230   12.3630
C   22.9880   17.6800   12.2810
H   22.9180   16.8740   13.0210
H   23.7730   18.3620   12.6300
H   23.2480   17.2650   11.3000
C   21.6550   18.3490   12.1870
C   20.6220   18.0880   13.0570
H   20.7970   17.3350   13.8210
C   19.4340   18.7990   13.0450
H   18.7570   18.7330   13.8920
C   19.1760   19.7760   12.0220
H   18.2920   20.4060   12.0440
C   20.1570   19.9410   11.0580
H   19.9550   20.5700   10.1960
C   21.4170   19.2580   11.1840
H   22.2080   19.5330   10.4920
C   11.5670   16.9320   9.5720
H   12.2140   17.1360   8.7100
H   11.2820   15.8920   9.3700
H   12.1900   17.0270   10.4710
C   10.3380   17.8120   9.7330
C   9.4070   17.9080   8.6630
H   9.2760   17.1270   7.9200
C   8.4820   18.9870   8.6270
H   7.7350   19.0310   7.8400
C   8.4710   19.9600   9.6310
H   7.7480   20.7700   9.6540
C   9.3540   19.8350   10.7390
H   9.3650   20.4890   11.6050
C   10.1940   18.7130   10.7970
H   10.9300   18.6810   11.5950
C   12.7180   16.6050   23.0210
H   12.8130   16.8270   21.9510
H   13.7280   16.3210   23.3450
H   12.5000   17.5290   23.5710
C   11.8010   15.4010   23.1530
C   10.6200   15.4240   22.3970
H   10.4520   16.2470   21.7090
C   9.7560   14.2780   22.4410
H   8.8510   14.2660   21.8410
C   10.0090   13.2210   23.3230
H   9.3460   12.3640   23.2430
C   11.1890   13.1930   24.0600
H   11.5060   12.4190   24.7520
C   12.1210   14.2630   23.8890
H   13.0670   14.1720   24.4150
C   18.8420   17.6350   27.7520
H   18.1240   17.0240   28.3120
H   18.2540   18.2490   27.0590
H   19.3830   18.2440   28.4880
C   19.7860   16.8740   26.9420
C   20.9230   17.5130   26.3330
H   21.0460   18.5910   26.2770
C   21.9600   16.7460   25.6900
H   22.7590   17.2130   25.1220
C   21.8200   15.3540   25.7340
H   22.5620   14.8350   25.1340
C   20.7780   14.7860   26.4240
H   20.6730   13.7070   26.4980
C   19.7540   15.4920   26.9560
H   18.9700   15.0490   27.5620
C   25.2430   22.7500   18.9430
H   24.6510   23.3730   19.6240
H   24.6070   22.0920   18.3390
H   25.7690   23.4530   18.2840
C   26.2890   22.0890   19.8050
C   27.6530   22.5380   19.7650
H   27.8930   23.3990   19.1490
C   28.6720   21.9360   20.4790
H   29.6960   22.2960   20.4470
C   28.3120   20.9270   21.3620
H   29.1140   20.5670   22.0000
C   26.9480   20.4890   21.5060
H   26.7050   19.7450   22.2580
C   25.9360   21.0700   20.7010
H   24.8820   20.8350   20.8180
C   8.6660   14.0750   6.3660
H   9.5670   14.3180   5.7890
H   8.3130   15.1000   6.5330
H   8.0120   13.6260   5.6080
C   8.9520   13.1750   7.5700
C   9.2520   13.8780   8.7390
H   9.0790   14.9490   8.7860
C   9.7250   13.1670   9.8870
H   10.1540   13.6370   10.7670
C   9.7320   11.7360   9.9480
H   9.9080   11.1180   10.8230
C   9.4160   11.0830   8.7270
H   9.5500   10.0100   8.6190
C   9.0570   11.7790   7.5340
H   8.9280   11.2640   6.5870
C   8.9500   11.1620   20.3870
H   9.6770   10.3770   20.1430
H   8.1570   10.6850   20.9760
H   9.5010   11.9120   20.9680
C   8.2120   11.8340   19.2710
C   8.5700   13.1620   18.8940
H   9.3950   13.6460   19.4100
C   7.8880   13.7660   17.8650
H   8.0520   14.7920   17.5510
C   6.8730   13.0430   17.1600
H   6.3940   13.5060   16.3020
C   6.6020   11.7170   17.5240
H   5.9300   11.0650   16.9750
C   7.2670   11.0920   18.5130
H   6.9380   10.1170   18.8610
C   26.4570   12.4450   13.5550
H   27.1280   12.9590   14.2540
H   26.8800   12.5280   12.5470
H   26.3480   11.3870   13.8240
C   25.0650   13.0040   13.5080
C   24.3200   13.0670   12.3170
H   24.6950   12.4320   11.5200
C   23.1080   13.7070   12.1810
H   22.5800   13.8270   11.2400
C   22.5170   14.2950   13.4070
H   21.5280   14.7440   13.3850
C   23.1780   14.0720   14.6700
H   22.7680   14.3710   15.6300
C   24.4820   13.4620   14.6840
H   25.0670   13.3620   15.5930
C   17.5710   21.2480   6.8890
H   18.6510   21.3700   6.7390
H   17.1030   22.0750   7.4370
H   17.0720   21.3190   5.9150
C   17.2290   19.8820   7.3990
C   18.1980   19.0800   7.9940
H   19.2050   19.4850   8.0050
C   17.9790   17.8310   8.6610
H   18.7330   17.2870   9.2230
C   16.6260   17.3740   8.6220
H   16.3320   16.4460   9.1030
C   15.6520   18.0670   7.8430
H   14.6170   17.7430   7.7980
C   15.9210   19.3400   7.2650
H   15.0810   19.8910   6.8510
C   21.3760   21.0260   23.7240
H   20.4220   20.4870   23.7730
H   21.7020   21.4030   24.7020
H   22.0140   20.1900   23.4130
C   21.3200   22.2390   22.7430
C   21.4220   21.9180   21.3730
H   21.5590   20.8770   21.0950
C   21.1640   22.8820   20.4680
H   21.2420   22.6310   19.4150
C   20.8980   24.2170   20.9180
H   20.7360   25.0150   20.1990
C   20.8810   24.5300   22.2790
H   20.7390   25.5510   22.6190
C   21.0600   23.5250   23.2330
H   21.0710   23.7440   24.2960
C   13.4980   11.9160   9.8290
H   12.9760   11.0440   9.4180
H   12.8920   12.3220   10.6480
H   14.4620   11.6150   10.2580
C   13.7160   13.0320   8.7680
C   15.0200   13.6160   8.6070
H   15.8970   13.3430   9.1870
C   15.2000   14.6260   7.6390
H   16.2250   14.9300   7.4480
C   14.1260   14.9630   6.7830
H   14.1730   15.7170   6.0030
C   12.8520   14.5840   7.1130
H   12.0640   15.0130   6.5020
C   12.6470   13.5090   8.0450
H   11.7110   12.9710   8.1580
C   19.7440   10.5210   20.4450
H   19.1710   11.4550   20.4980
H   19.2620   9.7620   21.0740
H   19.7140   10.3290   19.3650
C   21.1430   10.7570   21.0140
C   22.2290   10.3180   20.2850
H   22.1500   9.9270   19.2750
C   23.5250   10.5680   20.8390
H   24.4000   10.2310   20.2920
C   23.7170   11.1630   22.0780
H   24.7300   11.2050   22.4680
C   22.5380   11.3930   22.8610
H   22.7390   11.7980   23.8480
C   21.2670   11.2310   22.2990
H   20.3950   11.6100   22.8240
C   29.8070   21.0370   16.6750
H   29.7320   22.0770   16.3350
H   30.3810   20.5460   15.8790
H   30.3680   20.9570   17.6140
C   28.4450   20.3010   16.9690
C   28.2260   19.5640   18.1860
H   29.0220   19.4550   18.9170
C   26.8940   19.1050   18.4470
H   26.6720   18.4880   19.3130
C   25.8510   19.3550   17.6180
H   24.8790   18.9520   17.8890
C   26.0900   20.0720   16.3750
H   25.2500   20.2200   15.7020
C   27.3720   20.5830   16.0780
H   27.4500   21.3560   15.3190
C   18.5500   10.0140   11.4130
H   18.7830   9.7570   12.4530
H   19.3500   9.5800   10.8000
H   17.6150   9.5640   11.0570
C   18.6360   11.5680   11.2050
C   19.5130   12.2330   10.3370
H   20.2410   11.5850   9.8580
C   19.5720   13.6310   10.2560
H   20.3650   14.1740   9.7510
C   18.5680   14.3480   10.9390
H   18.6520   15.4260   10.8390
C   17.6480   13.7120   11.7250
H   17.1040   14.3100   12.4500
C   17.7060   12.3240   11.9490
H   17.2340   11.8230   12.7890
C   22.1020   25.4310   5.5970
H   21.4160   26.2880   5.5930
H   21.7860   24.8510   4.7220
H   23.1330   25.7650   5.4260
C   21.9980   24.6230   6.8970
C   21.0770   23.5600   6.9970
H   20.5490   23.2000   6.1180
C   20.8770   22.8840   8.2000
H   20.2320   22.0110   8.2230
C   21.4880   23.3510   9.3830
H   21.2750   22.8260   10.3090
C   22.4070   24.4640   9.3180
H   22.8440   24.9190   10.2020
C   22.7460   25.0220   8.0470
H   23.4980   25.8030   7.9750
C   19.3608   18.5296   21.4512
H   20.0988   18.4672   22.2380
H   18.7620   19.4208   21.6060
H   19.8980   18.6684   20.5172
C   18.5183   17.2646   21.4253
C   17.1299   17.2845   21.2408
H   16.6204   18.2293   21.0979
C   16.3752   16.1125   21.2298
H   15.3021   16.1875   21.1011
C   16.9796   14.8817   21.4161
H   16.4039   13.9778   21.4321
C   18.3589   14.8453   21.6085
H   18.8707   13.9070   21.7734
C   19.1251   16.0140   21.6320
H   20.1818   15.9588   21.8216
562
Frame 39
C   16.2629   15.9603   17.2643
C   18.6240   16.6629   16.8329
C   15.7753   17.4001   17.4402
C   19.3079   16.0278   18.0261
C   19.5439   16.7630   15.6328
N   17.4523   15.8581   16.4474
N   15.2651   15.0405   16.7550
O   15.2799   17.9862   16.2303
H   14.3392   17.7829   16.2094
H   17.2257   16.0233   15.4702
H   16.5272   15.6546   18.2686
H   18.3162   17.6677   17.1088
H   14.3824   15.1609   17.2427
H   15.0748   15.2285   15.7754
H   16.5935   18.0211   17.7980
H   15.0088   17.4138   18.2198
H   20.1121   16.6715   18.4038
H   18.9639   16.8260   14.7156
H   19.7089   15.0560   17.7496
H   18.6042   15.8777   18.8386
H   20.1821   17.6356   15.6956
H   20.1785   15.8724   15.5707
C   31.0130   13.4690   20.5000
H   31.2490   12.6100   21.1410
H   31.6000   14.3580   20.7590
H   31.3090   13.1730   19.4860
C   29.5240   13.6930   20.5110
C   28.9490   14.9820   20.4600
H   29.6230   15.8190   20.3030
C   27.5460   15.1780   20.4020
H   27.1240   16.1710   20.2790
C   26.7510   14.0910   20.7820
H   25.6720   14.1250   20.8970
C   27.2930   12.7880   20.7300
H   26.5470   12.0120   20.8740
C   28.6890   12.5880   20.6520
H   29.0430   11.5650   20.7440
C   9.2210   14.9750   13.0480
H   9.9180   14.2170   12.6700
H   8.7250   15.4390   12.1860
H   8.5460   14.3880   13.6810
C   9.9500   16.0790   13.9260
C   11.1730   16.6700   13.5290
H   11.6950   16.2330   12.6830
C   11.7790   17.6500   14.3810
H   12.6890   18.1940   14.1470
C   11.0580   18.1190   15.4870
H   11.4490   19.0070   15.9740
C   9.8790   17.5550   15.8260
H   9.3990   17.9040   16.7360
C   9.3470   16.4720   15.1090
H   8.3400   16.1840   15.3940
C   13.1040   20.9490   22.1230
H   12.1100   21.0700   22.5720
H   13.3280   19.8760   22.1570
H   12.9300   21.4440   21.1600
C   14.1720   21.7290   22.9410
C   13.9780   23.0550   23.3640
H   12.9880   23.4780   23.2220
C   14.9570   23.7090   24.0980
H   14.8720   24.7370   24.4370
C   16.0910   23.0190   24.4910
H   16.8240   23.5570   25.0840
C   16.3390   21.7000   24.0260
H   17.2960   21.2060   24.1580
C   15.3480   21.0720   23.2660
H   15.4870   20.1110   22.7800
C   22.3270   16.0930   8.4030
H   22.3260   16.2600   9.4870
H   21.4310   15.6720   7.9300
H   22.4190   17.0690   7.9110
C   23.4930   15.2320   7.9250
C   24.6760   15.8080   7.3600
H   24.7170   16.8840   7.2220
C   25.8340   15.0550   7.0100
H   26.7290   15.6050   6.7360
C   25.7140   13.6410   7.1510
H   26.5440   12.9840   6.9070
C   24.5170   13.0840   7.6510
H   24.4140   12.0140   7.8020
C   23.4280   13.8620   7.9640
H   22.4620   13.4500   8.2420
C   13.3770   8.3710   11.1840
H   13.9280   8.9300   11.9500
H   12.7730   7.5980   11.6750
H   12.7470   9.0620   10.6100
C   14.2950   7.7300   10.0940
C   14.0090   6.4760   9.6240
H   13.0770   6.0180   9.9390
C   14.8900   5.7890   8.7340
H   14.6040   4.8470   8.2740
C   16.0940   6.4030   8.4280
H   16.8170   5.9830   7.7360
C   16.3240   7.7020   8.8800
H   17.2290   8.1990   8.5440
C   15.3900   8.3770   9.6670
H   15.4990   9.4410   9.8550
C   22.3720   27.5750   12.3440
H   22.6740   28.6260   12.2520
H   21.8660   27.2750   11.4180
H   23.3360   27.0640   12.4640
C   21.5860   27.1640   13.5380
C   20.6270   26.1270   13.4710
H   20.5230   25.5770   12.5400
C   19.8190   25.9080   14.6070
H   19.0410   25.1530   14.6740
C   19.8330   26.8130   15.6810
H   19.1800   26.6280   16.5280
C   20.7150   27.8320   15.6880
H   20.6750   28.5050   16.5390
C   21.6510   27.9300   14.6880
H   22.3640   28.7490   14.7160
C   26.3230   15.1720   24.4190
H   27.1730   15.7810   24.7530
H   26.9100   14.3730   23.9500
H   25.8350   14.6810   25.2700
C   25.2980   15.8310   23.5700
C   25.3310   17.2270   23.3880
H   26.0260   17.7850   24.0090
C   24.4240   17.8360   22.4700
H   24.3120   18.9080   22.3350
C   23.4800   16.9710   21.8510
H   22.7300   17.3880   21.1860
C   23.4350   15.6140   22.0990
H   22.6180   15.0160   21.7070
C   24.3990   15.0550   22.9540
H   24.2710   14.0400   23.3190
C   12.5310   21.3930   17.8850
H   13.2140   21.0900   17.0820
H   11.5950   21.6280   17.3640
H   12.3060   20.6590   18.6680
C   13.0320   22.5830   18.7360
C   12.2150   23.1990   19.6560
H   11.1450   23.0160   19.6540
C   12.8150   24.0790   20.5840
H   12.1470   24.6520   21.2210
C   14.2070   24.1490   20.7110
H   14.6570   24.8010   21.4530
C   15.0790   23.3670   19.9600
H   16.1550   23.3650   20.1040
C   14.4560   22.6230   18.9390
H   15.0290   21.9490   18.3100
C   14.8830   6.8570   21.3950
H   14.5830   5.8040   21.4680
H   14.1110   7.5640   21.0690
H   14.9540   7.1620   22.4460
C   16.2700   6.9730   20.7720
C   17.3370   6.4110   21.5060
H   17.0910   5.8820   22.4210
C   18.6390   6.6200   20.9560
H   19.4860   6.2070   21.4970
C   18.8360   7.1840   19.6870
H   19.8020   7.2850   19.2010
C   17.7740   7.7920   19.0310
H   17.9360   8.3530   18.1150
C   16.4720   7.7040   19.5680
H   15.6290   8.1750   19.0710
C   14.8160   10.5740   15.3720
H   14.3440   11.0040   14.4800
H   15.1400   11.3900   16.0290
H   13.9830   10.0440   15.8500
C   15.8760   9.5730   14.9300
C   15.5810   8.3740   14.2260
H   14.5360   8.2410   13.9630
C   16.5460   7.4790   13.7060
H   16.2100   6.6290   13.1200
C   17.8520   7.6230   14.2370
H   18.6540   6.9360   13.9850
C   18.1870   8.7030   14.9950
H   19.2350   8.8200   15.2580
C   17.2460   9.6850   15.4350
H   17.6780   10.4650   16.0550
C   8.0650   7.4040   17.5740
H   8.1270   8.0850   16.7160
H   7.5600   7.9240   18.3970
H   7.4880   6.4980   17.3480
C   9.4790   7.0660   18.0080
C   10.5440   7.9760   17.7650
H   10.3730   8.9450   17.3060
C   11.8290   7.6370   18.2640
H   12.7100   8.2510   18.1010
C   12.0090   6.4900   19.0190
H   13.0130   6.2290   19.3400
C   10.9610   5.6080   19.2070
H   11.1880   4.6980   19.7550
C   9.6610   5.8390   18.6640
H   8.8970   5.0800   18.8040
C   18.2400   9.3350   23.8980
H   18.4220   9.0030   24.9280
H   18.8890   10.1800   23.6390
H   18.3460   8.4310   23.2860
C   16.8430   9.7990   23.8620
C   16.4750   10.9760   23.2580
H   17.2340   11.5320   22.7170
C   15.1310   11.3650   23.2170
H   14.8330   12.3010   22.7540
C   14.1480   10.5800   23.8790
H   13.1240   10.9410   23.8510
C   14.5070   9.3760   24.4910
H   13.6960   8.7620   24.8720
C   15.8380   9.0020   24.5510
H   16.1540   8.1380   25.1280
C   10.9060   11.5230   15.8000
H   10.2660   12.1380   16.4450
H   11.8110   12.1010   15.5760
H   11.3030   10.7560   16.4760
C   10.1450   10.8230   14.6590
C   8.8800   11.1470   14.2680
H   8.3050   11.8430   14.8720
C   8.2310   10.3560   13.3000
H   7.1860   10.6060   13.1480
C   8.9080   9.2900   12.6040
H   8.3580   8.8160   11.7960
C   10.2410   9.0790   12.9680
H   10.7620   8.2900   12.4330
C   10.8540   9.7140   14.0870
H   11.8650   9.4940   14.4180
C   12.4900   20.4970   8.7300
H   11.7150   20.4740   7.9540
H   12.2270   19.9760   9.6590
H   13.3460   20.0150   8.2410
C   12.8650   21.9680   8.9270
C   12.1420   22.7970   9.8120
H   11.2610   22.4200   10.3220
C   12.3840   24.1720   9.8850
H   11.8920   24.7890   10.6310
C   13.4520   24.6990   9.1480
H   13.6750   25.7620   9.1740
C   14.2260   23.9500   8.2820
H   15.0110   24.4020   7.6830
C   13.8970   22.5400   8.1400
H   14.4070   21.9210   7.4080
C   25.2240   23.2580   12.7270
H   25.5120   24.3000   12.9180
H   24.9920   23.1420   11.6620
H   26.0960   22.6100   12.8790
C   24.1020   22.8110   13.7090
C   24.1040   23.2240   14.9730
H   24.9610   23.8230   15.2650
C   23.1140   22.7650   15.8740
H   23.0750   23.1170   16.9010
C   22.0540   21.9550   15.3630
H   21.3500   21.5740   16.0970
C   21.9790   21.6570   14.0120
H   21.2210   20.9940   13.6040
C   22.9780   22.0850   13.1860
H   22.9530   21.7500   12.1530
C   15.9690   24.2190   11.3740
H   16.8540   24.6850   11.8250
H   15.3350   25.1120   11.4330
H   16.1270   23.9390   10.3250
C   15.4160   23.1270   12.1800
C   15.0320   21.8940   11.5900
H   15.1170   21.7510   10.5170
C   14.4730   20.9160   12.4130
H   14.1800   19.9440   12.0280
C   14.3810   21.0610   13.7930
H   14.0500   20.2450   14.4290
C   14.8220   22.2110   14.4320
H   14.6700   22.2620   15.5060
C   15.2630   23.2580   13.6150
H   15.6250   24.2030   14.0110
C   7.9820   23.6640   20.2210
H   7.6700   24.1780   19.3030
H   8.8810   24.2110   20.5300
H   7.2090   23.8760   20.9700
C   8.2150   22.1450   20.0450
C   8.9820   21.3660   20.9660
H   9.4280   21.8310   21.8400
C   9.3410   20.0110   20.7260
H   9.9200   19.4750   21.4720
C   8.8720   19.3730   19.6080
H   9.2540   18.3910   19.3440
C   8.1140   20.1330   18.6130
H   7.8040   19.7260   17.6550
C   7.8120   21.5360   18.8670
H   7.2650   22.1110   18.1260
C   16.6400   17.6150   24.7630
H   16.2880   18.1500   25.6540
H   16.0580   17.8970   23.8770
H   17.6690   17.9180   24.5330
C   16.4320   16.1690   24.9640
C   17.4700   15.2850   24.7630
H   18.3820   15.6110   24.2700
C   17.2870   13.9420   25.1470
H   18.0430   13.2190   24.8550
C   16.0500   13.5080   25.7080
H   15.9690   12.4530   25.9550
C   15.0160   14.4460   25.9100
H   14.0840   14.0850   26.3350
C   15.2290   15.7710   25.5010
H   14.4230   16.4770   25.6750
C   9.8970   25.7470   14.8340
H   9.2600   26.2100   14.0700
H   10.9030   26.1810   14.8020
H   9.4340   25.9280   15.8120
C   10.1050   24.2760   14.5480
C   9.4830   23.4020   15.4380
H   8.7910   23.7840   16.1820
C   9.7180   22.0020   15.3700
H   9.2880   21.4530   16.2030
C   10.5190   21.4980   14.3610
H   10.5880   20.4200   14.2480
C   11.0160   22.3430   13.3520
H   11.7280   21.9650   12.6240
C   10.8610   23.7380   13.4830
H   11.4610   24.3570   12.8230
C   21.4460   7.1060   12.4470
H   20.6860   6.3340   12.6150
H   22.2500   6.4780   12.0440
H   21.0510   7.7230   11.6300
C   21.6030   8.0210   13.6490
C   21.7540   7.6760   14.9780
H   21.7640   6.6430   15.3150
C   21.9350   8.6230   16.0550
H   22.0640   8.3230   17.0910
C   22.1380   9.9860   15.6920
H   22.3350   10.8010   16.3830
C   22.0340   10.3260   14.3310
H   22.1590   11.3300   13.9360
C   21.6750   9.3700   13.3830
H   21.5590   9.7230   12.3630
C   22.9880   17.6800   12.2810
H   22.9180   16.8740   13.0210
H   23.7730   18.3620   12.6300
H   23.2480   17.2650   11.3000
C   21.6550   18.3490   12.1870
C   20.6220   18.0880   13.0570
H   20.7970   17.3350   13.8210
C   19.4340   18.7990   13.0450
H   18.7570   18.7330   13.8920
C   19.1760   19.7760   12.0220
H   18.2920   20.4060   12.0440
C   20.1570   19.9410   11.0580
H   19.9550   20.5700   10.1960
C   21.4170   19.2580   11.1840
H   22.2080   19.5330   10.4920
C   11.5670   16.9320   9.5720
H   12.2140   17.1360   8.7100
H   11.2820   15.8920   9.3700
H   12.1900   17.0270   10.4710
C   10.3380   17.8120   9.7330
C   9.4070   17.9080   8.6630
H   9.2760   17.1270   7.9200
C   8.4820   18.9870   8.6270
H   7.7350   19.0310   7.8400
C   8.4710   19.9600   9.6310
H   7.7480   20.7700   9.6540
C   9.3540   19.8350   10.7390
H   9.3650   20.4890   11.6050
C   10.1940   18.7130   10.7970
H   10.9300   18.6810   11.5950
C   12.7180   16.6050   23.0210
H   12.8130   16.8270   21.9510
H   13.7280   16.3210   23.3450
H   12.5000   17.5290   23.5710
C   11.8010   15.4010   23.1530
C   10.6200   15.4240   22.3970
H   10.4520   16.2470   21.7090
C   9.7560   14.2780   22.4410
H   8.8510   14.2660   21.8410
C   10.0090   13.2210   23.3230
H   9.3460   12.3640   23.2430
C   11.1890   13.1930   24.0600
H   11.5060   12.4190   24.7520
C   12.1210   14.2630   23.8890
H   13.0670   14.1720   24.4150
C   18.8420   17.6350   27.7520
H   18.1240   17.0240   28.3120
H   18.2540   18.2490   27.0590
H   19.3830   18.2440   28.4880
C   19.7860   16.8740   26.9420
C   20.9230   17.5130   26.3330
H   21.0460   18.5910   26.2770
C   21.9600   16.7460   25.6900
H   22.7590   17.2130   25.1220
C   21.8200   15.3540   25.7340
H   22.5620   14.8350   25.1340
C   20.7780   14.7860   26.4240
H   20.6730   13.7070   26.4980
C   19.7540   15.4920   26.9560
H   18.9700   15.0490   27.5620
C   25.2430   22.7500   18.9430
H   24.6510   23.3730   19.6240
H   24.6070   22.0920   18.3390
H   25.7690   23.4530   18.2840
C   26.2890   22.0890   19.8050
C   27.6530   22.5380   19.7650
H   27.8930   23.3990   19.1490
C   28.6720   21.9360   20.4790
H   29.6960   22.2960   20.4470
C   28.3120   20.9270   21.3620
H   29.1140   20.5670   22.0000
C   26.9480   20.4890   21.5060
H   26.7050   19.7450   22.2580
C   25.9360   21.0700   20.7010
H   24.8820   20.8350   20.8180
C   8.6660   14.0750   6.3660
H   9.5670   14.3180   5.7890
H   8.3130   15.1000   6.5330
H   8.0120   13.6260   5.6080
C   8.9520   13.1750   7.5700
C   9.2520   13.8780   8.7390
H   9.0790   14.9490   8.7860
C   9.7250   13.1670   9.8870
H   10.1540   13.6370   10.7670
C   9.7320   11.7360   9.9480
H   9.9080   11.1180   10.8230
C   9.4160   11.0830   8.7270
H   9.5500   10.0100   8.6190
C   9.0570   11.7790   7.5340
H   8.9280   11.2640   6.5870
C   8.9500   11.1620   20.3870
H   9.6770   10.3770   20.1430
H   8.1570   10.6850   20.9760
H   9.5010   11.9120   20.9680
C   8.2120   11.8340   19.2710
C   8.5700   13.1620   18.8940
H   9.3950   13.6460   19.4100
C   7.8880   13.7660   17.8650
H   8.0520   14.7920   17.5510
C   6.8730   13.0430   17.1600
H   6.3940   13.5060   16.3020
C   6.6020   11.7170   17.5240
H   5.9300   11.0650   16.9750
C   7.2670   11.0920   18.5130
H   6.9380   10.1170   18.8610
C   26.4570   12.4450   13.5550
H   27.1280   12.9590   14.2540
H   26.8800   12.5280   12.5470
H   26.3480   11.3870   13.8240
C   25.0650   13.0040   13.5080
C   24.3200   13.0670   12.3170
H   24.6950   12.4320   11.5200
C   23.1080   13.7070   12.1810
H   22.5800   13.8270   11.2400
C   22.5170   14.2950   13.4070
H   21.5280   14.7440   13.3850
C   23.1780   14.0720   14.6700
H   22.7680   14.3710   15.6300
C   24.4820   13.4620   14.6840
H   25.0670   13.3620   15.5930
C   17.5710   21.2480   6.8890
H   18.6510   21.3700   6.7390
H   17.1030   22.0750   7.4370
H   17.0720   21.3190   5.9150
C   17.2290   19.8820   7.3990
C   18.1980   19.0800   7.9940
H   19.2050   19.4850   8.0050
C   17.9790   17.8310   8.6610
H   18.7330   17.2870   9.2230
C   16.6260   17.3740   8.6220
H   16.3320   16.4460   9.1030
C   15.6520   18.0670   7.8430
H   14.6170   17.7430   7.7980
C   15.9210   19.3400   7.2650
H   15.0810   19.8910   6.8510
C   21.3760   21.0260   23.7240
H   20.4220   20.4870   23.7730
H   21.7020   21.4030   24.7020
H   22.0140   20.1900   23.4130
C   21.3200   22.2390   22.7430
C   21.4220   21.9180   21.3730
H   21.5590   20.8770   21.0950
C   21.1640   22.8820   20.4680
H   21.2420   22.6310   19.4150
C   20.8980   24.2170   20.9180
H   20.7360   25.0150   20.1990
C   20.8810   24.5300   22.2790
H   20.7390   25.5510   22.6190
C   21.0600   23.5250   23.2330
H   21.0710   23.7440   24.2960
C   13.4980   11.9160   9.8290
H   12.9760   11.0440   9.4180
H   12.8920   12.3220   10.6480
H   14.4620   11.6150   10.2580
C   13.7160   13.0320   8.7680
C   15.0200   13.6160   8.6070
H   15.8970   13.3430   9.1870
C   15.2000   14.6260   7.6390
H   16.2250   14.9300   7.4480
C   14.1260   14.9630   6.7830
H   14.1730   15.7170   6.0030
C   12.8520   14.5840   7.1130
H   12.0640   15.0130   6.5020
C   12.6470   13.5090   8.0450
H   11.7110   12.9710   8.1580
C   19.7440   10.5210   20.4450
H   19.1710   11.4550   20.4980
H   19.2620   9.7620   21.0740
H   19.7140   10.3290   19.3650
C   21.1430   10.7570   21.0140
C   22.2290   10.3180   20.2850
H   22.1500   9.9270   19.2750
C   23.5250   10.5680   20.8390
H   24.4000   10.2310   20.2920
C   23.7170   11.1630   22.0780
H   24.7300   11.2050   22.4680
C   22.5380   11.3930   22.8610
H   22.7390   11.7980   23.8480
C   21.2670   11.2310   22.2990
H   20.3950   11.6100   22.8240
C   29.8070   21.0370   16.6750
H   29.7320   22.0770   16.3350
H   30.3810   20.5460   15.8790
H   30.3680   20.9570   17.6140
C   28.4450   20.3010   16.9690
C   28.2260   19.5640   18.1860
H   29.0220   19.4550   18.9170
C   26.8940   19.1050   18.4470
H   26.6720   18.4880   19.3130
C   25.8510   19.3550   17.6180
H   24.8790   18.9520   17.8890
C   26.0900   20.0720   16.3750
H   25.2500   20.2200   15.7020
C   27.3720   20.5830   16.0780
H   27.4500   21.3560   15.3190
C   18.5500   10.0140   11.4130
H   18.7830   9.7570   12.4530
H   19.3500   9.5800   10.8000
H   17.6150   9.5640   11.0570
C   18.6360   11.5680   11.2050
C   19.5130   12.2330   10.3370
H   20.2410   11.5850   9.8580
C   19.5720   13.6310   10.2560
H   20.3650   14.1740   9.7510
C   18.5680   14.3480   10.9390
H   18.6520   15.4260   10.8390
C   17.6480   13.7120   11.7250
H   17.1040   14.3100   12.4500
C   17.7060   12.3240   11.9490
H   17.2340   11.8230   12.7890
C   22.1020   25.4310   5.5970
H   21.4160   26.2880   5.5930
H   21.7860   24.8510   4.7220
H   23.1330   25.7650   5.4260
C   21.9980   24.6230   6.8970
C   21.0770   23.5600   6.9970
H   20.5490   23.2000   6.1180
C   20.8770   22.8840   8.2000
H   20.2320   22.0110   8.2230
C   21.4880   23.3510   9.3830
H   21.2750   22.8260   10.3090
C   22.4070   24.4640   9.3180
H   22.8440   24.9190   10.2020
C   22.7460   25.0220   8.0470
H   23.4980   25.8030   7.9750
C   19.3582   18.5279   21.4511
H   20.0987   18.4667   22.2349
H   18.7605   19.4211   21.6105
H   19.8952   18.6703   20.5169
C   18.5253   17.2651   21.4261
C   17.1292   17.2879   21.2391
H   16.6190   18.2299   21.1020
C   16.3763   16.1150   21.2336
H   15.3005   16.1857   21.1084
C   16.9755   14.8849   21.4198
H   16.4084   13.9801   21.4276
C   18.3574   14.8447   21.6103
H   18.8729   13.9085   21.7714
C   19.1213   16.0100   21.6312
H   20.1770   15.9619   21.8238
562
Frame 40
C   16.2680   15.9550   17.2650
C   18.6198   16.6625   16.8333
C   15.7717   17.3913   17.4429
C   19.3069   16.0247   18.0274
C   19.5452   16.7583   15.6361
N   17.4546   15.8527   16.4457
N   15.2561   15.0526   16.7548
O   15.2808   17.9658   16.2299
H   14.3404   17.7712   16.1984
H   17.2165   16.0482   15.4768
H   16.5350   15.6400   18.2638
H   18.3170   17.6704   17.1109
H   14.3852   15.1734   17.2529
H   15.0725   15.2433   15.7862
H   16.5885   18.0145   17.7929
H   15.0006   17.4019   18.2182
H   20.1150   16.6698   18.4013
H   18.9634   16.8253   14.7185
H   19.7082   15.0584   17.7557
H   18.6026   15.8766   18.8414
H   20.1861   17.6317   15.7014
H   20.1771   15.8644   15.5747
C   31.0130   13.4690   20.5000
H   31.2490   12.6100   21.1410
H   31.6000   14.3580   20.7590
H   31.3090   13.1730   19.4860
C   29.5240   13.6930   20.5110
C   28.9490   14.9820   20.4600
H   29.6230   15.8190   20.3030
C   27.5460   15.1780   20.4020
H   27.1240   16.1710   20.2790
C   26.7510   14.0910   20.7820
H   25.6720   14.1250   20.8970
C   27.2930   12.7880   20.7300
H   26.5470   12.0120   20.8740
C   28.6890   12.5880   20.6520
H   29.0430   11.5650   20.7440
C   9.2210   14.9750   13.0480
H   9.9180   14.2170   12.6700
H   8.7250   15.4390   12.1860
H   8.5460   14.3880   13.6810
C   9.9500   16.0790   13.9260
C   11.1730   16.6700   13.5290
H   11.6950   16.2330   12.6830
C   11.7790   17.6500   14.3810
H   12.6890   18.1940   14.1470
C   11.0580   18.1190   15.4870
H   11.4490   19.0070   15.9740
C   9.8790   17.5550   15.8260
H   9.3990   17.9040   16.7360
C   9.3470   16.4720   15.1090
H   8.3400   16.1840   15.3940
C   13.1040   20.9490   22.1230
H   12.1100   21.0700   22.5720
H   13.3280   19.8760   22.1570
H   12.9300   21.4440   21.1600
C   14.1720   21.7290   22.9410
C   13.9780   23.0550   23.3640
H   12.9880   23.4780   23.2220
C   14.9570   23.7090   24.0980
H   14.8720   24.7370   24.4370
C   16.0910   23.0190   24.4910
H   16.8240   23.5570   25.0840
C   16.3390   21.7000   24.0260
H   17.2960   21.2060   24.1580
C   15.3480   21.0720   23.2660
H   15.4870   20.1110   22.7800
C   22.3270   16.0930   8.4030
H   22.3260   16.2600   9.4870
H   21.4310   15.6720   7.9300
H   22.4190   17.0690   7.9110
C   23.4930   15.2320   7.9250
C   24.6760   15.8080   7.3600
H   24.7170   16.8840   7.2220
C   25.8340   15.0550   7.0100
H   26.7290   15.6050   6.7360
C   25.7140   13.6410   7.1510
H   26.5440   12.9840   6.9070
C   24.5170   13.0840   7.6510
H   24.4140   12.0140   7.8020
C   23.4280   13.8620   7.9640
H   22.4620   13.4500   8.2420
C   13.3770   8.3710   11.1840
H   13.9280   8.9300   11.9500
H   12.7730   7.5980   11.6750
H   12.7470   9.0620   10.6100
C   14.2950   7.7300   10.0940
C   14.0090   6.4760   9.6240
H   13.0770   6.0180   9.9390
C   14.8900   5.7890   8.7340
H   14.6040   4.8470   8.2740
C   16.0940   6.4030   8.4280
H   16.8170   5.9830   7.7360
C   16.3240   7.7020   8.8800
H   17.2290   8.1990   8.5440
C   15.3900   8.3770   9.6670
H   15.4990   9.4410   9.8550
C   22.3720   27.5750   12.3440
H   22.6740   28.6260   12.2520
H   21.8660   27.2750   11.4180
H   23.3360   27.0640   12.4640
C   21.5860   27.1640   13.5380
C   20.6270   26.1270   13.4710
H   20.5230   25.5770   12.5400
C   19.8190   25.9080   14.6070
H   19.0410   25.1530   14.6740
C   19.8330   26.8130   15.6810
H   19.1800   26.6280   16.5280
C   20.7150   27.8320   15.6880
H   20.6750   28.5050   16.5390
C   21.6510   27.9300   14.6880
H   22.3640   28.7490   14.7160
C   26.3230   15.1720   24.4190
H   27.1730   15.7810   24.7530
H   26.9100   14.3730   23.9500
H   25.8350   14.6810   25.2700
C   25.2980   15.8310   23.5700
C   25.3310   17.2270   23.3880
H   26.0260   17.7850   24.0090
C   24.4240   17.8360   22.4700
H   24.3120   18.9080   22.3350
C   23.4800   16.9710   21.8510
H   22.7300   17.3880   21.1860
C   23.4350   15.6140   22.0990
H   22.6180   15.0160   21.7070
C   24.3990   15.0550   22.9540
H   24.2710   14.0400   23.3190
C   12.5310   21.3930   17.8850
H   13.2140   21.0900   17.0820
H   11.5950   21.6280   17.3640
H   12.3060   20.6590   18.6680
C   13.0320   22.5830   18.7360
C   12.2150   23.1990   19.6560
H   11.1450   23.0160   19.6540
C   12.8150   24.0790   20.5840
H   12.1470   24.6520   21.2210
C   14.2070   24.1490   20.7110
H   14.6570   24.8010   21.4530
C   15.0790   23.3670   19.9600
H   16.1550   23.3650   20.1040
C   14.4560   22.6230   18.9390
H   15.0290   21.9490   18.3100
C   14.8830   6.8570   21.3950
H   14.5830   5.8040   21.4680
H   14.1110   7.5640   21.0690
H   14.9540   7.1620   22.4460
C   16.2700   6.9730   20.7720
C   17.3370   6.4110   21.5060
H   17.0910   5.8820   22.4210
C   18.6390   6.6200   20.9560
H   19.4860   6.2070   21.4970
C   18.8360   7.1840   19.6870
H   19.8020   7.2850   19.2010
C   17.7740   7.7920   19.0310
H   17.9360   8.3530   18.1150
C   16.4720   7.7040   19.5680
H   15.6290   8.1750   19.0710
C   14.8160   10.5740   15.3720
H   14.3440   11.0040   14.4800
H   15.1400   11.3900   16.0290
H   13.9830   10.0440   15.8500
C   15.8760   9.5730   14.9300
C   15.5810   8.3740   14.2260
H   14.5360   8.2410   13.9630
C   16.5460   7.4790   13.7060
H   16.2100   6.6290   13.1200
C   17.8520   7.6230   14.2370
H   18.6540   6.9360   13.9850
C   18.1870   8.7030   14.9950
H   19.2350   8.8200   15.2580
C   17.2460   9.6850   15.4350
H   17.6780   10.4650   16.0550
C   8.0650   7.4040   17.5740
H   8.1270   8.0850   16.7160
H   7.5600   7.9240   18.3970
H   7.4880   6.4980   17.3480
C   9.4790   7.0660   18.0080
C   10.5440   7.9760   17.7650
H   10.3730   8.9450   17.3060
C   11.8290   7.6370   18.2640
H   12.7100   8.2510   18.1010
C   12.0090   6.4900   19.0190
H   13.0130   6.2290   19.3400
C   10.9610   5.6080   19.2070
H   11.1880   4.6980   19.7550
C   9.6610   5.8390   18.6640
H   8.8970   5.0800   18.8040
C   18.2400   9.3350   23.8980
H   18.4220   9.0030   24.9280
H   18.8890   10.1800   23.6390
H   18.3460   8.4310   23.2860
C   16.8430   9.7990   23.8620
C   16.4750   10.9760   23.2580
H   17.2340   11.5320   22.7170
C   15.1310   11.3650   23.2170
H   14.8330   12.3010   22.7540
C   14.1480   10.5800   23.8790
H   13.1240   10.9410   23.8510
C   14.5070   9.3760   24.4910
H   13.6960   8.7620   24.8720
C   15.8380   9.0020   24.5510
H   16.1540   8.1380   25.1280
C   10.9060   11.5230   15.8000
H   10.2660   12.1380   16.4450
H   11.8110   12.1010   15.5760
H   11.3030   10.7560   16.4760
C   10.1450   10.8230   14.6590
C   8.8800   11.1470   14.2680
H   8.3050   11.8430   14.8720
C   8.2310   10.3560   13.3000
H   7.1860   10.6060   13.1480
C   8.9080   9.2900   12.6040
H   8.3580   8.8160   11.7960
C   10.2410   9.0790   12.9680
H   10.7620   8.2900   12.4330
C   10.8540   9.7140   14.0870
H   11.8650   9.4940   14.4180
C   12.4900   20.4970   8.7300
H   11.7150   20.4740   7.9540
H   12.2270   19.9760   9.6590
H   13.3460   20.0150   8.2410
C   12.8650   21.9680   8.9270
C   12.1420   22.7970   9.8120
H   11.2610   22.4200   10.3220
C   12.3840   24.1720   9.8850
H   11.8920   24.7890   10.6310
C   13.4520   24.6990   9.1480
H   13.6750   25.7620   9.1740
C   14.2260   23.9500   8.2820
H   15.0110   24.4020   7.6830
C   13.8970   22.5400   8.1400
H   14.4070   21.9210   7.4080
C   25.2240   23.2580   12.7270
H   25.5120   24.3000   12.9180
H   24.9920   23.1420   11.6620
H   26.0960   22.6100   12.8790
C   24.1020   22.8110   13.7090
C   24.1040   23.2240   14.9730
H   24.9610   23.8230   15.2650
C   23.1140   22.7650   15.8740
H   23.0750   23.1170   16.9010
C   22.0540   21.9550   15.3630
H   21.3500   21.5740   16.0970
C   21.9790   21.6570   14.0120
H   21.2210   20.9940   13.6040
C   22.9780   22.0850   13.1860
H   22.9530   21.7500   12.1530
C   15.9690   24.2190   11.3740
H   16.8540   24.6850   11.8250
H   15.3350   25.1120   11.4330
H   16.1270   23.9390   10.3250
C   15.4160   23.1270   12.1800
C   15.0320   21.8940   11.5900
H   15.1170   21.7510   10.5170
C   14.4730   20.9160   12.4130
H   14.1800   19.9440   12.0280
C   14.3810   21.0610   13.7930
H   14.0500   20.2450   14.4290
C   14.8220   22.2110   14.4320
H   14.6700   22.2620   15.5060
C   15.2630   23.2580   13.6150
H   15.6250   24.2030   14.0110
C   7.9820   23.6640   20.2210
H   7.6700   24.1780   19.3030
H   8.8810   24.2110   20.5300
H   7.2090   23.8760   20.9700
C   8.2150   22.1450   20.0450
C   8.9820   21.3660   20.9660
H   9.4280   21.8310   21.8400
C   9.3410   20.0110   20.7260
H   9.9200   19.4750   21.4720
C   8.8720   19.3730   19.6080
H   9.2540   18.3910   19.3440
C   8.1140   20.1330   18.6130
H   7.8040   19.7260   17.6550
C   7.8120   21.5360   18.8670
H   7.2650   22.1110   18.1260
C   16.6400   17.6150   24.7630
H   16.2880   18.1500   25.6540
H   16.0580   17.8970   23.8770
H   17.6690   17.9180   24.5330
C   16.4320   16.1690   24.9640
C   17.4700   15.2850   24.7630
H   18.3820   15.6110   24.2700
C   17.2870   13.9420   25.1470
H   18.0430   13.2190   24.8550
C   16.0500   13.5080   25.7080
H   15.9690   12.4530   25.9550
C   15.0160   14.4460   25.9100
H   14.0840   14.0850   26.3350
C   15.2290   15.7710   25.5010
H   14.4230   16.4770   25.6750
C   9.8970   25.7470   14.8340
H   9.2600   26.2100   14.0700
H   10.9030   26.1810   14.8020
H   9.4340   25.9280   15.8120
C   10.1050   24.2760   14.5480
C   9.4830   23.4020   15.4380
H   8.7910   23.7840   16.1820
C   9.7180   22.0020   15.3700
H   9.2880   21.4530   16.2030
C   10.5190   21.4980   14.3610
H   10.5880   20.4200   14.2480
C   11.0160   22.3430   13.3520
H   11.7280   21.9650   12.6240
C   10.8610   23.7380   13.4830
H   11.4610   24.3570   12.8230
C   21.4460   7.1060   12.4470
H   20.6860   6.3340   12.6150
H   22.2500   6.4780   12.0440
H   21.0510   7.7230   11.6300
C   21.6030   8.0210   13.6490
C   21.7540   7.6760   14.9780
H   21.7640   6.6430   15.3150
C   21.9350   8.6230   16.0550
H   22.0640   8.3230   17.0910
C   22.1380   9.9860   15.6920
H   22.3350   10.8010   16.3830
C   22.0340   10.3260   14.3310
H   22.1590   11.3300   13.9360
C   21.6750   9.3700   13.3830
H   21.5590   9.7230   12.3630
C   22.9880   17.6800   12.2810
H   22.9180   16.8740   13.0210
H   23.7730   18.3620   12.6300
H   23.2480   17.2650   11.3000
C   21.6550   18.3490   12.1870
C   20.6220   18.0880   13.0570
H   20.7970   17.3350   13.8210
C   19.4340   18.7990   13.0450
H   18.7570   18.7330   13.8920
C   19.1760   19.7760   12.0220
H   18.2920   20.4060   12.0440
C   20.1570   19.9410   11.0580
H   19.9550   20.5700   10.1960
C   21.4170   19.2580   11.1840
H   22.2080   19.5330   10.4920
C   11.5670   16.9320   9.5720
H   12.2140   17.1360   8.7100
H   11.2820   15.8920   9.3700
H   12.1900   17.0270   10.4710
C   10.3380   17.8120   9.7330
C   9.4070   17.9080   8.6630
H   9.2760   17.1270   7.9200
C   8.4820   18.9870   8.6270
H   7.7350   19.0310   7.8400
C   8.4710   19.9600   9.6310
H   7.7480   20.7700   9.6540
C   9.3540   19.8350   10.7390
H   9.3650   20.4890   11.6050
C   10.1940   18.7130   10.7970
H   10.9300   18.6810   11.5950
C   12.7180   16.6050   23.0210
H   12.8130   16.8270   21.9510
H   13.7280   16.3210   23.3450
H   12.5000   17.5290   23.5710
C   11.8010   15.4010   23.1530
C   10.6200   15.4240   22.3970
H   10.4520   16.2470   21.7090
C   9.7560   14.2780   22.4410
H   8.8510   14.2660   21.8410
C   10.0090   13.2210   23.3230
H   9.3460   12.3640   23.2430
C   11.1890   13.1930   24.0600
H   11.5060   12.4190   24.7520
C   12.1210   14.2630   23.8890
H   13.0670   14.1720   24.4150
C   18.8420   17.6350   27.7520
H   18.1240   17.0240   28.3120
H   18.2540   18.2490   27.0590
H   19.3830   18.2440   28.4880
C   19.7860   16.8740   26.9420
C   20.9230   17.5130   26.3330
H   21.0460   18.5910   26.2770
C   21.9600   16.7460   25.6900
H   22.7590   17.2130   25.1220
C   21.8200   15.3540   25.7340
H   22.5620   14.8350   25.1340
C   20.7780   14.7860   26.4240
H   20.6730   13.7070   26.4980
C   19.7540   15.4920   26.9560
H   18.9700   15.0490   27.5620
C   25.2430   22.7500   18.9430
H   24.6510   23.3730   19.6240
H   24.6070   22.0920   18.3390
H   25.7690   23.4530   18.2840
C   26.2890   22.0890   19.8050
C   27.6530   22.5380   19.7650
H   27.8930   23.3990   19.1490
C   28.6720   21.9360   20.4790
H   29.6960   22.2960   20.4470
C   28.3120   20.9270   21.3620
H   29.1140   20.5670   22.0000
C   26.9480   20.4890   21.5060
H   26.7050   19.7450   22.2580
C   25.9360   21.0700   20.7010
H   24.8820   20.8350   20.8180
C   8.6660   14.0750   6.3660
H   9.5670   14.3180   5.7890
H   8.3130   15.1000   6.5330
H   8.0120   13.6260   5.6080
C   8.9520   13.1750   7.5700
C   9.2520   13.8780   8.7390
H   9.0790   14.9490   8.7860
C   9.7250   13.1670   9.8870
H   10.1540   13.6370   10.7670
C   9.7320   11.7360   9.9480
H   9.9080   11.1180   10.8230
C   9.4160   11.0830   8.7270
H   9.5500   10.0100   8.6190
C   9.0570   11.7790   7.5340
H   8.9280   11.2640   6.5870
C   8.9500   11.1620   20.3870
H   9.6770   10.3770   20.1430
H   8.1570   10.6850   20.9760
H   9.5010   11.9120   20.9680
C   8.2120   11.8340   19.2710
C   8.5700   13.1620   18.8940
H   9.3950   13.6460   19.4100
C   7.8880   13.7660   17.8650
H   8.0520   14.7920   17.5510
C   6.8730   13.0430   17.1600
H   6.3940   13.5060   16.3020
C   6.6020   11.7170   17.5240
H   5.9300   11.0650   16.9750
C   7.2670   11.0920   18.5130
H   6.9380   10.1170   18.8610
C   26.4570   12.4450   13.5550
H   27.1280   12.9590   14.2540
H   26.8800   12.5280   12.5470
H   26.3480   11.3870   13.8240
C   25.0650   13.0040   13.5080
C   24.3200   13.0670   12.3170
H   24.6950   12.4320   11.5200
C   23.1080   13.7070   12.1810
H   22.5800   13.8270   11.2400
C   22.5170   14.2950   13.4070
H   21.5280   14.7440   13.3850
C   23.1780   14.0720   14.6700
H   22.7680   14.3710   15.6300
C   24.4820   13.4620   14.6840
H   25.0670   13.3620   15.5930
C   17.5710   21.2480   6.8890
H   18.6510   21.3700   6.7390
H   17.1030   22.0750   7.4370
H   17.0720   21.3190   5.9150
C   17.2290   19.8820   7.3990
C   18.1980   19.0800   7.9940
H   19.2050   19.4850   8.0050
C   17.9790   17.8310   8.6610
H   18.7330   17.2870   9.2230
C   16.6260   17.3740   8.6220
H   16.3320   16.4460   9.1030
C   15.6520   18.0670   7.8430
H   14.6170   17.7430   7.7980
C   15.9210   19.3400   7.2650
H   15.0810   19.8910   6.8510
C   21.3760   21.0260   23.7240
H   20.4220   20.4870   23.7730
H   21.7020   21.4030   24.7020
H   22.0140   20.1900   23.4130
C   21.3200   22.2390   22.7430
C   21.4220   21.9180   21.3730
H   21.5590   20.8770   21.0950
C   21.1640   22.8820   20.4680
H   21.2420   22.6310   19.4150
C   20.8980   24.2170   20.9180
H   20.7360   25.0150   20.1990
C   20.8810   24.5300   22.2790
H   20.7390   25.5510   22.6190
C   21.0600   23.5250   23.2330
H   21.0710   23.7440   24.2960
C   13.4980   11.9160   9.8290
H   12.9760   11.0440   9.4180
H   12.8920   12.3220   10.6480
H   14.4620   11.6150   10.2580
C   13.7160   13.0320   8.7680
C   15.0200   13.6160   8.6070
H   15.8970   13.3430   9.1870
C   15.2000   14.6260   7.6390
H   16.2250   14.9300   7.4480
C   14.1260   14.9630   6.7830
H   14.1730   15.7170   6.0030
C   12.8520   14.5840   7.1130
H   12.0640   15.0130   6.5020
C   12.6470   13.5090   8.0450
H   11.7110   12.9710   8.1580
C   19.7440   10.5210   20.4450
H   19.1710   11.4550   20.4980
H   19.2620   9.7620   21.0740
H   19.7140   10.3290   19.3650
C   21.1430   10.7570   21.0140
C   22.2290   10.3180   20.2850
H   22.1500   9.9270   19.2750
C   23.5250   10.5680   20.8390
H   24.4000   10.2310   20.2920
C   23.7170   11.1630   22.0780
H   24.7300   11.2050   22.4680
C   22.5380   11.3930   22.8610
H   22.7390   11.7980   23.8480
C   21.2670   11.2310   22.2990
H   20.3950   11.6100   22.8240
C   29.8070   21.0370   16.6750
H   29.7320   22.0770   16.3350
H   30.3810   20.5460   15.8790
H   30.3680   20.9570   17.6140
C   28.4450   20.3010   16.9690
C   28.2260   19.5640   18.1860
H   29.0220   19.4550   18.9170
C   26.8940   19.1050   18.4470
H   26.6720   18.4880   19.3130
C   25.8510   19.3550   17.6180
H   24.8790   18.9520   17.8890
C   26.0900   20.0720   16.3750
H   25.2500   20.2200   15.7020
C   27.3720   20.5830   16.0780
H   27.4500   21.3560   15.3190
C   18.5500   10.0140   11.4130
H   18.7830   9.7570   12.4530
H   19.3500   9.5800   10.8000
H   17.6150   9.5640   11.0570
C   18.6360   11.5680   11.2050
C   19.5130   12.2330   10.3370
H   20.2410   11.5850   9.8580
C   19.5720   13.6310   10.2560
H   20.3650   14.1740   9.7510
C   18.5680   14.3480   10.9390
H   18.6520   15.4260   10.8390
C   17.6480   13.7120   11.7250
H   17.1040   14.3100   12.4500
C   17.7060   12.3240   11.9490
H   17.2340   11.8230   12.7890
C   22.1020   25.4310   5.5970
H   21.4160   26.2880   5.5930
H   21.7860   24.8510   4.7220
H   23.1330   25.7650   5.4260
C   21.9980   24.6230   6.8970
C   21.0770   23.5600   6.9970
H   20.5490   23.2000   6.1180
C   20.8770   22.8840   8.2000
H   20.2320   22.0110   8.2230
C   21.4880   23.3510   9.3830
H   21.2750   22.8260   10.3090
C   22.4070   24.4640   9.3180
H   22.8440   24.9190   10.2020
C   22.7460   25.0220   8.0470
H   23.4980   25.8030   7.9750
C   19.3561   18.5279   21.4525
H   20.0984   18.4688   22.2309
H   18.7598   19.4190   21.6171
H   19.8921   18.6706   20.5157
C   18.5270   17.2670   21.4261
C   17.1301   17.2890   21.2357
H   16.6183   18.2345   21.1059
C   16.3771   16.1191   21.2396
H   15.3000   16.1835   21.1152
C   16.9742   14.8855   21.4252
H   16.4114   13.9812   21.4221
C   18.3573   14.8453   21.6141
H   18.8744   13.9086   21.7685
C   19.1175   16.0082   21.6300
H   20.1708   15.9637   21.8250
562
Frame 41
C   16.2747   15.9441   17.2690
C   18.6173   16.6595   16.8348
C   15.7686   17.3794   17.4436
C   19.3047   16.0260   18.0317
C   19.5460   16.7543   15.6412
N   17.4548   15.8503   16.4387
N   15.2536   15.0577   16.7598
O   15.2826   17.9417   16.2234
H   14.3416   17.7509   16.1841
H   17.2032   16.0851   15.4870
H   16.5481   15.6150   18.2614
H   18.3174   17.6701   17.1118
H   14.3846   15.1937   17.2682
H   15.0615   15.2669   15.7917
H   16.5802   18.0087   17.7905
H   14.9924   17.3869   18.2157
H   20.1172   16.6668   18.3986
H   18.9641   16.8245   14.7248
H   19.7084   15.0571   17.7625
H   18.6022   15.8766   18.8449
H   20.1909   17.6239   15.7089
H   20.1725   15.8541   15.5820
C   31.0130   13.4690   20.5000
H   31.2490   12.6100   21.1410
H   31.6000   14.3580   20.7590
H   31.3090   13.1730   19.4860
C   29.5240   13.6930   20.5110
C   28.9490   14.9820   20.4600
H   29.6230   15.8190   20.3030
C   27.5460   15.1780   20.4020
H   27.1240   16.1710   20.2790
C   26.7510   14.0910   20.7820
H   25.6720   14.1250   20.8970
C   27.2930   12.7880   20.7300
H   26.5470   12.0120   20.8740
C   28.6890   12.5880   20.6520
H   29.0430   11.5650   20.7440
C   9.2210   14.9750   13.0480
H   9.9180   14.2170   12.6700
H   8.7250   15.4390   12.1860
H   8.5460   14.3880   13.6810
C   9.9500   16.0790   13.9260
C   11.1730   16.6700   13.5290
H   11.6950   16.2330   12.6830
C   11.7790   17.6500   14.3810
H   12.6890   18.1940   14.1470
C   11.0580   18.1190   15.4870
H   11.4490   19.0070   15.9740
C   9.8790   17.5550   15.8260
H   9.3990   17.9040   16.7360
C   9.3470   16.4720   15.1090
H   8.3400   16.1840   15.3940
C   13.1040   20.9490   22.1230
H   12.1100   21.0700   22.5720
H   13.3280   19.8760   22.1570
H   12.9300   21.4440   21.1600
C   14.1720   21.7290   22.9410
C   13.9780   23.0550   23.3640
H   12.9880   23.4780   23.2220
C   14.9570   23.7090   24.0980
H   14.8720   24.7370   24.4370
C   16.0910   23.0190   24.4910
H   16.8240   23.5570   25.0840
C   16.3390   21.7000   24.0260
H   17.2960   21.2060   24.1580
C   15.3480   21.0720   23.2660
H   15.4870   20.1110   22.7800
C   22.3270   16.0930   8.4030
H   22.3260   16.2600   9.4870
H   21.4310   15.6720   7.9300
H   22.4190   17.0690   7.9110
C   23.4930   15.2320   7.9250
C   24.6760   15.8080   7.3600
H   24.7170   16.8840   7.2220
C   25.8340   15.0550   7.0100
H   26.7290   15.6050   6.7360
C   25.7140   13.6410   7.1510
H   26.5440   12.9840   6.9070
C   24.5170   13.0840   7.6510
H   24.4140   12.0140   7.8020
C   23.4280   13.8620   7.9640
H   22.4620   13.4500   8.2420
C   13.3770   8.3710   11.1840
H   13.9280   8.9300   11.9500
H   12.7730   7.5980   11.6750
H   12.7470   9.0620   10.6100
C   14.2950   7.7300   10.0940
C   14.0090   6.4760   9.6240
H   13.0770   6.0180   9.9390
C   14.8900   5.7890   8.7340
H   14.6040   4.8470   8.2740
C   16.0940   6.4030   8.4280
H   16.8170   5.9830   7.7360
C   16.3240   7.7020   8.8800
H   17.2290   8.1990   8.5440
C   15.3900   8.3770   9.6670
H   15.4990   9.4410   9.8550
C   22.3720   27.5750   12.3440
H   22.6740   28.6260   12.2520
H   21.8660   27.2750   11.4180
H   23.3360   27.0640   12.4640
C   21.5860   27.1640   13.5380
C   20.6270   26.1270   13.4710
H   20.5230   25.5770   12.5400
C   19.8190   25.9080   14.6070
H   19.0410   25.1530   14.6740
C   19.8330   26.8130   15.6810
H   19.1800   26.6280   16.5280
C   20.7150   27.8320   15.6880
H   20.6750   28.5050   16.5390
C   21.6510   27.9300   14.6880
H   22.3640   28.7490   14.7160
C   26.3230   15.1720   24.4190
H   27.1730   15.7810   24.7530
H   26.9100   14.3730   23.9500
H   25.8350   14.6810   25.2700
C   25.2980   15.8310   23.5700
C   25.3310   17.2270   23.3880
H   26.0260   17.7850   24.0090
C   24.4240   17.8360   22.4700
H   24.3120   18.9080   22.3350
C   23.4800   16.9710   21.8510
H   22.7300   17.3880   21.1860
C   23.4350   15.6140   22.0990
H   22.6180   15.0160   21.7070
C   24.3990   15.0550   22.9540
H   24.2710   14.0400   23.3190
C   12.5310   21.3930   17.8850
H   13.2140   21.0900   17.0820
H   11.5950   21.6280   17.3640
H   12.3060   20.6590   18.6680
C   13.0320   22.5830   18.7360
C   12.2150   23.1990   19.6560
H   11.1450   23.0160   19.6540
C   12.8150   24.0790   20.5840
H   12.1470   24.6520   21.2210
C   14.2070   24.1490   20.7110
H   14.6570   24.8010   21.4530
C   15.0790   23.3670   19.9600
H   16.1550   23.3650   20.1040
C   14.4560   22.6230   18.9390
H   15.0290   21.9490   18.3100
C   14.8830   6.8570   21.3950
H   14.5830   5.8040   21.4680
H   14.1110   7.5640   21.0690
H   14.9540   7.1620   22.4460
C   16.2700   6.9730   20.7720
C   17.3370   6.4110   21.5060
H   17.0910   5.8820   22.4210
C   18.6390   6.6200   20.9560
H   19.4860   6.2070   21.4970
C   18.8360   7.1840   19.6870
H   19.8020   7.2850   19.2010
C   17.7740   7.7920   19.0310
H   17.9360   8.3530   18.1150
C   16.4720   7.7040   19.5680
H   15.6290   8.1750   19.0710
C   14.8160   10.5740   15.3720
H   14.3440   11.0040   14.4800
H   15.1400   11.3900   16.0290
H   13.9830   10.0440   15.8500
C   15.8760   9.5730   14.9300
C   15.5810   8.3740   14.2260
H   14.5360   8.2410   13.9630
C   16.5460   7.4790   13.7060
H   16.2100   6.6290   13.1200
C   17.8520   7.6230   14.2370
H   18.6540   6.9360   13.9850
C   18.1870   8.7030   14.9950
H   19.2350   8.8200   15.2580
C   17.2460   9.6850   15.4350
H   17.6780   10.4650   16.0550
C   8.0650   7.4040   17.5740
H   8.1270   8.0850   16.7160
H   7.5600   7.9240   18.3970
H   7.4880   6.4980   17.3480
C   9.4790   7.0660   18.0080
C   10.5440   7.9760   17.7650
H   10.3730   8.9450   17.3060
C   11.8290   7.6370   18.2640
H   12.7100   8.2510   18.1010
C   12.0090   6.4900   19.0190
H   13.0130   6.2290   19.3400
C   10.9610   5.6080   19.2070
H   11.1880   4.6980   19.7550
C   9.6610   5.8390   18.6640
H   8.8970   5.0800   18.8040
C   18.2400   9.3350   23.8980
H   18.4220   9.0030   24.9280
H   18.8890   10.1800   23.6390
H   18.3460   8.4310   23.2860
C   16.8430   9.7990   23.8620
C   16.4750   10.9760   23.2580
H   17.2340   11.5320   22.7170
C   15.1310   11.3650   23.2170
H   14.8330   12.3010   22.7540
C   14.1480   10.5800   23.8790
H   13.1240   10.9410   23.8510
C   14.5070   9.3760   24.4910
H   13.6960   8.7620   24.8720
C   15.8380   9.0020   24.5510
H   16.1540   8.1380   25.1280
C   10.9060   11.5230   15.8000
H   10.2660   12.1380   16.4450
H   11.8110   12.1010   15.5760
H   11.3030   10.7560   16.4760
C   10.1450   10.8230   14.6590
C   8.8800   11.1470   14.2680
H   8.3050   11.8430   14.8720
C   8.2310   10.3560   13.3000
H   7.1860   10.6060   13.1480
C   8.9080   9.2900   12.6040
H   8.3580   8.8160   11.7960
C   10.2410   9.0790   12.9680
H   10.7620   8.2900   12.4330
C   10.8540   9.7140   14.0870
H   11.8650   9.4940   14.4180
C   12.4900   20.4970   8.7300
H   11.7150   20.4740   7.9540
H   12.2270   19.9760   9.6590
H   13.3460   20.0150   8.2410
C   12.8650   21.9680   8.9270
C   12.1420   22.7970   9.8120
H   11.2610   22.4200   10.3220
C   12.3840   24.1720   9.8850
H   11.8920   24.7890   10.6310
C   13.4520   24.6990   9.1480
H   13.6750   25.7620   9.1740
C   14.2260   23.9500   8.2820
H   15.0110   24.4020   7.6830
C   13.8970   22.5400   8.1400
H   14.4070   21.9210   7.4080
C   25.2240   23.2580   12.7270
H   25.5120   24.3000   12.9180
H   24.9920   23.1420   11.6620
H   26.0960   22.6100   12.8790
C   24.1020   22.8110   13.7090
C   24.1040   23.2240   14.9730
H   24.9610   23.8230   15.2650
C   23.1140   22.7650   15.8740
H   23.0750   23.1170   16.9010
C   22.0540   21.9550   15.3630
H   21.3500   21.5740   16.0970
C   21.9790   21.6570   14.0120
H   21.2210   20.9940   13.6040
C   22.9780   22.0850   13.1860
H   22.9530   21.7500   12.1530
C   15.9690   24.2190   11.3740
H   16.8540   24.6850   11.8250
H   15.3350   25.1120   11.4330
H   16.1270   23.9390   10.3250
C   15.4160   23.1270   12.1800
C   15.0320   21.8940   11.5900
H   15.1170   21.7510   10.5170
C   14.4730   20.9160   12.4130
H   14.1800   19.9440   12.0280
C   14.3810   21.0610   13.7930
H   14.0500   20.2450   14.4290
C   14.8220   22.2110   14.4320
H   14.6700   22.2620   15.5060
C   15.2630   23.2580   13.6150
H   15.6250   24.2030   14.0110
C   7.9820   23.6640   20.2210
H   7.6700   24.1780   19.3030
H   8.8810   24.2110   20.5300
H   7.2090   23.8760   20.9700
C   8.2150   22.1450   20.0450
C   8.9820   21.3660   20.9660
H   9.4280   21.8310   21.8400
C   9.3410   20.0110   20.7260
H   9.9200   19.4750   21.4720
C   8.8720   19.3730   19.6080
H   9.2540   18.3910   19.3440
C   8.1140   20.1330   18.6130
H   7.8040   19.7260   17.6550
C   7.8120   21.5360   18.8670
H   7.2650   22.1110   18.1260
C   16.6400   17.6150   24.7630
H   16.2880   18.1500   25.6540
H   16.0580   17.8970   23.8770
H   17.6690   17.9180   24.5330
C   16.4320   16.1690   24.9640
C   17.4700   15.2850   24.7630
H   18.3820   15.6110   24.2700
C   17.2870   13.9420   25.1470
H   18.0430   13.2190   24.8550
C   16.0500   13.5080   25.7080
H   15.9690   12.4530   25.9550
C   15.0160   14.4460   25.9100
H   14.0840   14.0850   26.3350
C   15.2290   15.7710   25.5010
H   14.4230   16.4770   25.6750
C   9.8970   25.7470   14.8340
H   9.2600   26.2100   14.0700
H   10.9030   26.1810   14.8020
H   9.4340   25.9280   15.8120
C   10.1050   24.2760   14.5480
C   9.4830   23.4020   15.4380
H   8.7910   23.7840   16.1820
C   9.7180   22.0020   15.3700
H   9.2880   21.4530   16.2030
C   10.5190   21.4980   14.3610
H   10.5880   20.4200   14.2480
C   11.0160   22.3430   13.3520
H   11.7280   21.9650   12.6240
C   10.8610   23.7380   13.4830
H   11.4610   24.3570   12.8230
C   21.4460   7.1060   12.4470
H   20.6860   6.3340   12.6150
H   22.2500   6.4780   12.0440
H   21.0510   7.7230   11.6300
C   21.6030   8.0210   13.6490
C   21.7540   7.6760   14.9780
H   21.7640   6.6430   15.3150
C   21.9350   8.6230   16.0550
H   22.0640   8.3230   17.0910
C   22.1380   9.9860   15.6920
H   22.3350   10.8010   16.3830
C   22.0340   10.3260   14.3310
H   22.1590   11.3300   13.9360
C   21.6750   9.3700   13.3830
H   21.5590   9.7230   12.3630
C   22.9880   17.6800   12.2810
H   22.9180   16.8740   13.0210
H   23.7730   18.3620   12.6300
H   23.2480   17.2650   11.3000
C   21.6550   18.3490   12.1870
C   20.6220   18.0880   13.0570
H   20.7970   17.3350   13.8210
C   19.4340   18.7990   13.0450
H   18.7570   18.7330   13.8920
C   19.1760   19.7760   12.0220
H   18.2920   20.4060   12.0440
C   20.1570   19.9410   11.0580
H   19.9550   20.5700   10.1960
C   21.4170   19.2580   11.1840
H   22.2080   19.5330   10.4920
C   11.5670   16.9320   9.5720
H   12.2140   17.1360   8.7100
H   11.2820   15.8920   9.3700
H   12.1900   17.0270   10.4710
C   10.3380   17.8120   9.7330
C   9.4070   17.9080   8.6630
H   9.2760   17.1270   7.9200
C   8.4820   18.9870   8.6270
H   7.7350   19.0310   7.8400
C   8.4710   19.9600   9.6310
H   7.7480   20.7700   9.6540
C   9.3540   19.8350   10.7390
H   9.3650   20.4890   11.6050
C   10.1940   18.7130   10.7970
H   10.9300   18.6810   11.5950
C   12.7180   16.6050   23.0210
H   12.8130   16.8270   21.9510
H   13.7280   16.3210   23.3450
H   12.5000   17.5290   23.5710
C   11.8010   15.4010   23.1530
C   10.6200   15.4240   22.3970
H   10.4520   16.2470   21.7090
C   9.7560   14.2780   22.4410
H   8.8510   14.2660   21.8410
C   10.0090   13.2210   23.3230
H   9.3460   12.3640   23.2430
C   11.1890   13.1930   24.0600
H   11.5060   12.4190   24.7520
C   12.1210   14.2630   23.8890
H   13.0670   14.1720   24.4150
C   18.8420   17.6350   27.7520
H   18.1240   17.0240   28.3120
H   18.2540   18.2490   27.0590
H   19.3830   18.2440   28.4880
C   19.7860   16.8740   26.9420
C   20.9230   17.5130   26.3330
H   21.0460   18.5910   26.2770
C   21.9600   16.7460   25.6900
H   22.7590   17.2130   25.1220
C   21.8200   15.3540   25.7340
H   22.5620   14.8350   25.1340
C   20.7780   14.7860   26.4240
H   20.6730   13.7070   26.4980
C   19.7540   15.4920   26.9560
H   18.9700   15.0490   27.5620
C   25.2430   22.7500   18.9430
H   24.6510   23.3730   19.6240
H   24.6070   22.0920   18.3390
H   25.7690   23.4530   18.2840
C   26.2890   22.0890   19.8050
C   27.6530   22.5380   19.7650
H   27.8930   23.3990   19.1490
C   28.6720   21.9360   20.4790
H   29.6960   22.2960   20.4470
C   28.3120   20.9270   21.3620
H   29.1140   20.5670   22.0000
C   26.9480   20.4890   21.5060
H   26.7050   19.7450   22.2580
C   25.9360   21.0700   20.7010
H   24.8820   20.8350   20.8180
C   8.6660   14.0750   6.3660
H   9.5670   14.3180   5.7890
H   8.3130   15.1000   6.5330
H   8.0120   13.6260   5.6080
C   8.9520   13.1750   7.5700
C   9.2520   13.8780   8.7390
H   9.0790   14.9490   8.7860
C   9.7250   13.1670   9.8870
H   10.1540   13.6370   10.7670
C   9.7320   11.7360   9.9480
H   9.9080   11.1180   10.8230
C   9.4160   11.0830   8.7270
H   9.5500   10.0100   8.6190
C   9.0570   11.7790   7.5340
H   8.9280   11.2640   6.5870
C   8.9500   11.1620   20.3870
H   9.6770   10.3770   20.1430
H   8.1570   10.6850   20.9760
H   9.5010   11.9120   20.9680
C   8.2120   11.8340   19.2710
C   8.5700   13.1620   18.8940
H   9.3950   13.6460   19.4100
C   7.8880   13.7660   17.8650
H   8.0520   14.7920   17.5510
C   6.8730   13.0430   17.1600
H   6.3940   13.5060   16.3020
C   6.6020   11.7170   17.5240
H   5.9300   11.0650   16.9750
C   7.2670   11.0920   18.5130
H   6.9380   10.1170   18.8610
C   26.4570   12.4450   13.5550
H   27.1280   12.9590   14.2540
H   26.8800   12.5280   12.5470
H   26.3480   11.3870   13.8240
C   25.0650   13.0040   13.5080
C   24.3200   13.0670   12.3170
H   24.6950   12.4320   11.5200
C   23.1080   13.7070   12.1810
H   22.5800   13.8270   11.2400
C   22.5170   14.2950   13.4070
H   21.5280   14.7440   13.3850
C   23.1780   14.0720   14.6700
H   22.7680   14.3710   15.6300
C   24.4820   13.4620   14.6840
H   25.0670   13.3620   15.5930
C   17.5710   21.2480   6.8890
H   18.6510   21.3700   6.7390
H   17.1030   22.0750   7.4370
H   17.0720   21.3190   5.9150
C   17.2290   19.8820   7.3990
C   18.1980   19.0800   7.9940
H   19.2050   19.4850   8.0050
C   17.9790   17.8310   8.6610
H   18.7330   17.2870   9.2230
C   16.6260   17.3740   8.6220
H   16.3320   16.4460   9.1030
C   15.6520   18.0670   7.8430
H   14.6170   17.7430   7.7980
C   15.9210   19.3400   7.2650
H   15.0810   19.8910   6.8510
C   21.3760   21.0260   23.7240
H   20.4220   20.4870   23.7730
H   21.7020   21.4030   24.7020
H   22.0140   20.1900   23.4130
C   21.3200   22.2390   22.7430
C   21.4220   21.9180   21.3730
H   21.5590   20.8770   21.0950
C   21.1640   22.8820   20.4680
H   21.2420   22.6310   19.4150
C   20.8980   24.2170   20.9180
H   20.7360   25.0150   20.1990
C   20.8810   24.5300   22.2790
H   20.7390   25.5510   22.6190
C   21.0600   23.5250   23.2330
H   21.0710   23.7440   24.2960
C   13.4980   11.9160   9.8290
H   12.9760   11.0440   9.4180
H   12.8920   12.3220   10.6480
H   14.4620   11.6150   10.2580
C   13.7160   13.0320   8.7680
C   15.0200   13.6160   8.6070
H   15.8970   13.3430   9.1870
C   15.2000   14.6260   7.6390
H   16.2250   14.9300   7.4480
C   14.1260   14.9630   6.7830
H   14.1730   15.7170   6.0030
C   12.8520   14.5840   7.1130
H   12.0640   15.0130   6.5020
C   12.6470   13.5090   8.0450
H   11.7110   12.9710   8.1580
C   19.7440   10.5210   20.4450
H   19.1710   11.4550   20.4980
H   19.2620   9.7620   21.0740
H   19.7140   10.3290   19.3650
C   21.1430   10.7570   21.0140
C   22.2290   10.3180   20.2850
H   22.1500   9.9270   19.2750
C   23.5250   10.5680   20.8390
H   24.4000   10.2310   20.2920
C   23.7170   11.1630   22.0780
H   24.7300   11.2050   22.4680
C   22.5380   11.3930   22.8610
H   22.7390   11.7980   23.8480
C   21.2670   11.2310   22.2990
H   20.3950   11.6100   22.8240
C   29.8070   21.0370   16.6750
H   29.7320   22.0770   16.3350
H   30.3810   20.5460   15.8790
H   30.3680   20.9570   17.6140
C   28.4450   20.3010   16.9690
C   28.2260   19.5640   18.1860
H   29.0220   19.4550   18.9170
C   26.8940   19.1050   18.4470
H   26.6720   18.4880   19.3130
C   25.8510   19.3550   17.6180
H   24.8790   18.9520   17.8890
C   26.0900   20.0720   16.3750
H   25.2500   20.2200   15.7020
C   27.3720   20.5830   16.0780
H   27.4500   21.3560   15.3190
C   18.5500   10.0140   11.4130
H   18.7830   9.7570   12.4530
H   19.3500   9.5800   10.8000
H   17.6150   9.5640   11.0570
C   18.6360   11.5680   11.2050
C   19.5130   12.2330   10.3370
H   20.2410   11.5850   9.8580
C   19.5720   13.6310   10.2560
H   20.3650   14.1740   9.7510
C   18.5680   14.3480   10.9390
H   18.6520   15.4260   10.8390
C   17.6480   13.7120   11.7250
H   17.1040   14.3100   12.4500
C   17.7060   12.3240   11.9490
H   17.2340   11.8230   12.7890
C   22.1020   25.4310   5.5970
H   21.4160   26.2880   5.5930
H   21.7860   24.8510   4.7220
H   23.1330   25.7650   5.4260
C   21.9980   24.6230   6.8970
C   21.0770   23.5600   6.9970
H   20.5490   23.2000   6.1180
C   20.8770   22.8840   8.2000
H   20.2320   22.0110   8.2230
C   21.4880   23.3510   9.3830
H   21.2750   22.8260   10.3090
C   22.4070   24.4640   9.3180
H   22.8440   24.9190   10.2020
C   22.7460   25.0220   8.0470
H   23.4980   25.8030   7.9750
C   19.3553   18.5290   21.4526
H   20.1011   18.4690   22.2268
H   18.7575   19.4157   21.6240
H   19.8866   18.6731   20.5154
C   18.5248   17.2684   21.4260
C   17.1279   17.2931   21.2335
H   16.6178   18.2413   21.1110
C   16.3745   16.1191   21.2470
H   15.2993   16.1825   21.1256
C   16.9766   14.8867   21.4303
H   16.4114   13.9804   21.4152
C   18.3580   14.8477   21.6177
H   18.8751   13.9080   21.7647
C   19.1149   16.0120   21.6305
H   20.1679   15.9630   21.8275
562
Frame 42
C   16.2825   15.9309   17.2774
C   18.6183   16.6549   16.8381
C   15.7656   17.3591   17.4468
C   19.3007   16.0258   18.0349
C   19.5488   16.7461   15.6497
N   17.4519   15.8504   16.4368
N   15.2481   15.0594   16.7609
O   15.2854   17.9067   16.2081
H   14.3437   17.7153   16.1621
H   17.1792   16.1462   15.4950
H   16.5728   15.5724   18.2650
H   18.3168   17.6635   17.1103
H   14.3834   15.2264   17.2941
H   15.0421   15.3025   15.8008
H   16.5663   18.0033   17.7904
H   14.9809   17.3614   18.2121
H   20.1193   16.6631   18.3952
H   18.9669   16.8232   14.7350
H   19.7074   15.0546   17.7737
H   18.6009   15.8780   18.8522
H   20.1991   17.6094   15.7226
H   20.1630   15.8400   15.5941
C   31.0130   13.4690   20.5000
H   31.2490   12.6100   21.1410
H   31.6000   14.3580   20.7590
H   31.3090   13.1730   19.4860
C   29.5240   13.6930   20.5110
C   28.9490   14.9820   20.4600
H   29.6230   15.8190   20.3030
C   27.5460   15.1780   20.4020
H   27.1240   16.1710   20.2790
C   26.7510   14.0910   20.7820
H   25.6720   14.1250   20.8970
C   27.2930   12.7880   20.7300
H   26.5470   12.0120   20.8740
C   28.6890   12.5880   20.6520
H   29.0430   11.5650   20.7440
C   9.2210   14.9750   13.0480
H   9.9180   14.2170   12.6700
H   8.7250   15.4390   12.1860
H   8.5460   14.3880   13.6810
C   9.9500   16.0790   13.9260
C   11.1730   16.6700   13.5290
H   11.6950   16.2330   12.6830
C   11.7790   17.6500   14.3810
H   12.6890   18.1940   14.1470
C   11.0580   18.1190   15.4870
H   11.4490   19.0070   15.9740
C   9.8790   17.5550   15.8260
H   9.3990   17.9040   16.7360
C   9.3470   16.4720   15.1090
H   8.3400   16.1840   15.3940
C   13.1040   20.9490   22.1230
H   12.1100   21.0700   22.5720
H   13.3280   19.8760   22.1570
H   12.9300   21.4440   21.1600
C   14.1720   21.7290   22.9410
C   13.9780   23.0550   23.3640
H   12.9880   23.4780   23.2220
C   14.9570   23.7090   24.0980
H   14.8720   24.7370   24.4370
C   16.0910   23.0190   24.4910
H   16.8240   23.5570   25.0840
C   16.3390   21.7000   24.0260
H   17.2960   21.2060   24.1580
C   15.3480   21.0720   23.2660
H   15.4870   20.1110   22.7800
C   22.3270   16.0930   8.4030
H   22.3260   16.2600   9.4870
H   21.4310   15.6720   7.9300
H   22.4190   17.0690   7.9110
C   23.4930   15.2320   7.9250
C   24.6760   15.8080   7.3600
H   24.7170   16.8840   7.2220
C   25.8340   15.0550   7.0100
H   26.7290   15.6050   6.7360
C   25.7140   13.6410   7.1510
H   26.5440   12.9840   6.9070
C   24.5170   13.0840   7.6510
H   24.4140   12.0140   7.8020
C   23.4280   13.8620   7.9640
H   22.4620   13.4500   8.2420
C   13.3770   8.3710   11.1840
H   13.9280   8.9300   11.9500
H   12.7730   7.5980   11.6750
H   12.7470   9.0620   10.6100
C   14.2950   7.7300   10.0940
C   14.0090   6.4760   9.6240
H   13.0770   6.0180   9.9390
C   14.8900   5.7890   8.7340
H   14.6040   4.8470   8.2740
C   16.0940   6.4030   8.4280
H   16.8170   5.9830   7.7360
C   16.3240   7.7020   8.8800
H   17.2290   8.1990   8.5440
C   15.3900   8.3770   9.6670
H   15.4990   9.4410   9.8550
C   22.3720   27.5750   12.3440
H   22.6740   28.6260   12.2520
H   21.8660   27.2750   11.4180
H   23.3360   27.0640   12.4640
C   21.5860   27.1640   13.5380
C   20.6270   26.1270   13.4710
H   20.5230   25.5770   12.5400
C   19.8190   25.9080   14.6070
H   19.0410   25.1530   14.6740
C   19.8330   26.8130   15.6810
H   19.1800   26.6280   16.5280
C   20.7150   27.8320   15.6880
H   20.6750   28.5050   16.5390
C   21.6510   27.9300   14.6880
H   22.3640   28.7490   14.7160
C   26.3230   15.1720   24.4190
H   27.1730   15.7810   24.7530
H   26.9100   14.3730   23.9500
H   25.8350   14.6810   25.2700
C   25.2980   15.8310   23.5700
C   25.3310   17.2270   23.3880
H   26.0260   17.7850   24.0090
C   24.4240   17.8360   22.4700
H   24.3120   18.9080   22.3350
C   23.4800   16.9710   21.8510
H   22.7300   17.3880   21.1860
C   23.4350   15.6140   22.0990
H   22.6180   15.0160   21.7070
C   24.3990   15.0550   22.9540
H   24.2710   14.0400   23.3190
C   12.5310   21.3930   17.8850
H   13.2140   21.0900   17.0820
H   11.5950   21.6280   17.3640
H   12.3060   20.6590   18.6680
C   13.0320   22.5830   18.7360
C   12.2150   23.1990   19.6560
H   11.1450   23.0160   19.6540
C   12.8150   24.0790   20.5840
H   12.1470   24.6520   21.2210
C   14.2070   24.1490   20.7110
H   14.6570   24.8010   21.4530
C   15.0790   23.3670   19.9600
H   16.1550   23.3650   20.1040
C   14.4560   22.6230   18.9390
H   15.0290   21.9490   18.3100
C   14.8830   6.8570   21.3950
H   14.5830   5.8040   21.4680
H   14.1110   7.5640   21.0690
H   14.9540   7.1620   22.4460
C   16.2700   6.9730   20.7720
C   17.3370   6.4110   21.5060
H   17.0910   5.8820   22.4210
C   18.6390   6.6200   20.9560
H   19.4860   6.2070   21.4970
C   18.8360   7.1840   19.6870
H   19.8020   7.2850   19.2010
C   17.7740   7.7920   19.0310
H   17.9360   8.3530   18.1150
C   16.4720   7.7040   19.5680
H   15.6290   8.1750   19.0710
C   14.8160   10.5740   15.3720
H   14.3440   11.0040   14.4800
H   15.1400   11.3900   16.0290
H   13.9830   10.0440   15.8500
C   15.8760   9.5730   14.9300
C   15.5810   8.3740   14.2260
H   14.5360   8.2410   13.9630
C   16.5460   7.4790   13.7060
H   16.2100   6.6290   13.1200
C   17.8520   7.6230   14.2370
H   18.6540   6.9360   13.9850
C   18.1870   8.7030   14.9950
H   19.2350   8.8200   15.2580
C   17.2460   9.6850   15.4350
H   17.6780   10.4650   16.0550
C   8.0650   7.4040   17.5740
H   8.1270   8.0850   16.7160
H   7.5600   7.9240   18.3970
H   7.4880   6.4980   17.3480
C   9.4790   7.0660   18.0080
C   10.5440   7.9760   17.7650
H   10.3730   8.9450   17.3060
C   11.8290   7.6370   18.2640
H   12.7100   8.2510   18.1010
C   12.0090   6.4900   19.0190
H   13.0130   6.2290   19.3400
C   10.9610   5.6080   19.2070
H   11.1880   4.6980   19.7550
C   9.6610   5.8390   18.6640
H   8.8970   5.0800   18.8040
C   18.2400   9.3350   23.8980
H   18.4220   9.0030   24.9280
H   18.8890   10.1800   23.6390
H   18.3460   8.4310   23.2860
C   16.8430   9.7990   23.8620
C   16.4750   10.9760   23.2580
H   17.2340   11.5320   22.7170
C   15.1310   11.3650   23.2170
H   14.8330   12.3010   22.7540
C   14.1480   10.5800   23.8790
H   13.1240   10.9410   23.8510
C   14.5070   9.3760   24.4910
H   13.6960   8.7620   24.8720
C   15.8380   9.0020   24.5510
H   16.1540   8.1380   25.1280
C   10.9060   11.5230   15.8000
H   10.2660   12.1380   16.4450
H   11.8110   12.1010   15.5760
H   11.3030   10.7560   16.4760
C   10.1450   10.8230   14.6590
C   8.8800   11.1470   14.2680
H   8.3050   11.8430   14.8720
C   8.2310   10.3560   13.3000
H   7.1860   10.6060   13.1480
C   8.9080   9.2900   12.6040
H   8.3580   8.8160   11.7960
C   10.2410   9.0790   12.9680
H   10.7620   8.2900   12.4330
C   10.8540   9.7140   14.0870
H   11.8650   9.4940   14.4180
C   12.4900   20.4970   8.7300
H   11.7150   20.4740   7.9540
H   12.2270   19.9760   9.6590
H   13.3460   20.0150   8.2410
C   12.8650   21.9680   8.9270
C   12.1420   22.7970   9.8120
H   11.2610   22.4200   10.3220
C   12.3840   24.1720   9.8850
H   11.8920   24.7890   10.6310
C   13.4520   24.6990   9.1480
H   13.6750   25.7620   9.1740
C   14.2260   23.9500   8.2820
H   15.0110   24.4020   7.6830
C   13.8970   22.5400   8.1400
H   14.4070   21.9210   7.4080
C   25.2240   23.2580   12.7270
H   25.5120   24.3000   12.9180
H   24.9920   23.1420   11.6620
H   26.0960   22.6100   12.8790
C   24.1020   22.8110   13.7090
C   24.1040   23.2240   14.9730
H   24.9610   23.8230   15.2650
C   23.1140   22.7650   15.8740
H   23.0750   23.1170   16.9010
C   22.0540   21.9550   15.3630
H   21.3500   21.5740   16.0970
C   21.9790   21.6570   14.0120
H   21.2210   20.9940   13.6040
C   22.9780   22.0850   13.1860
H   22.9530   21.7500   12.1530
C   15.9690   24.2190   11.3740
H   16.8540   24.6850   11.8250
H   15.3350   25.1120   11.4330
H   16.1270   23.9390   10.3250
C   15.4160   23.1270   12.1800
C   15.0320   21.8940   11.5900
H   15.1170   21.7510   10.5170
C   14.4730   20.9160   12.4130
H   14.1800   19.9440   12.0280
C   14.3810   21.0610   13.7930
H   14.0500   20.2450   14.4290
C   14.8220   22.2110   14.4320
H   14.6700   22.2620   15.5060
C   15.2630   23.2580   13.6150
H   15.6250   24.2030   14.0110
C   7.9820   23.6640   20.2210
H   7.6700   24.1780   19.3030
H   8.8810   24.2110   20.5300
H   7.2090   23.8760   20.9700
C   8.2150   22.1450   20.0450
C   8.9820   21.3660   20.9660
H   9.4280   21.8310   21.8400
C   9.3410   20.0110   20.7260
H   9.9200   19.4750   21.4720
C   8.8720   19.3730   19.6080
H   9.2540   18.3910   19.3440
C   8.1140   20.1330   18.6130
H   7.8040   19.7260   17.6550
C   7.8120   21.5360   18.8670
H   7.2650   22.1110   18.1260
C   16.6400   17.6150   24.7630
H   16.2880   18.1500   25.6540
H   16.0580   17.8970   23.8770
H   17.6690   17.9180   24.5330
C   16.4320   16.1690   24.9640
C   17.4700   15.2850   24.7630
H   18.3820   15.6110   24.2700
C   17.2870   13.9420   25.1470
H   18.0430   13.2190   24.8550
C   16.0500   13.5080   25.7080
H   15.9690   12.4530   25.9550
C   15.0160   14.4460   25.9100
H   14.0840   14.0850   26.3350
C   15.2290   15.7710   25.5010
H   14.4230   16.4770   25.6750
C   9.8970   25.7470   14.8340
H   9.2600   26.2100   14.0700
H   10.9030   26.1810   14.8020
H   9.4340   25.9280   15.8120
C   10.1050   24.2760   14.5480
C   9.4830   23.4020   15.4380
H   8.7910   23.7840   16.1820
C   9.7180   22.0020   15.3700
H   9.2880   21.4530   16.2030
C   10.5190   21.4980   14.3610
H   10.5880   20.4200   14.2480
C   11.0160   22.3430   13.3520
H   11.7280   21.9650   12.6240
C   10.8610   23.7380   13.4830
H   11.4610   24.3570   12.8230
C   21.4460   7.1060   12.4470
H   20.6860   6.3340   12.6150
H   22.2500   6.4780   12.0440
H   21.0510   7.7230   11.6300
C   21.6030   8.0210   13.6490
C   21.7540   7.6760   14.9780
H   21.7640   6.6430   15.3150
C   21.9350   8.6230   16.0550
H   22.0640   8.3230   17.0910
C   22.1380   9.9860   15.6920
H   22.3350   10.8010   16.3830
C   22.0340   10.3260   14.3310
H   22.1590   11.3300   13.9360
C   21.6750   9.3700   13.3830
H   21.5590   9.7230   12.3630
C   22.9880   17.6800   12.2810
H   22.9180   16.8740   13.0210
H   23.7730   18.3620   12.6300
H   23.2480   17.2650   11.3000
C   21.6550   18.3490   12.1870
C   20.6220   18.0880   13.0570
H   20.7970   17.3350   13.8210
C   19.4340   18.7990   13.0450
H   18.7570   18.7330   13.8920
C   19.1760   19.7760   12.0220
H   18.2920   20.4060   12.0440
C   20.1570   19.9410   11.0580
H   19.9550   20.5700   10.1960
C   21.4170   19.2580   11.1840
H   22.2080   19.5330   10.4920
C   11.5670   16.9320   9.5720
H   12.2140   17.1360   8.7100
H   11.2820   15.8920   9.3700
H   12.1900   17.0270   10.4710
C   10.3380   17.8120   9.7330
C   9.4070   17.9080   8.6630
H   9.2760   17.1270   7.9200
C   8.4820   18.9870   8.6270
H   7.7350   19.0310   7.8400
C   8.4710   19.9600   9.6310
H   7.7480   20.7700   9.6540
C   9.3540   19.8350   10.7390
H   9.3650   20.4890   11.6050
C   10.1940   18.7130   10.7970
H   10.9300   18.6810   11.5950
C   12.7180   16.6050   23.0210
H   12.8130   16.8270   21.9510
H   13.7280   16.3210   23.3450
H   12.5000   17.5290   23.5710
C   11.8010   15.4010   23.1530
C   10.6200   15.4240   22.3970
H   10.4520   16.2470   21.7090
C   9.7560   14.2780   22.4410
H   8.8510   14.2660   21.8410
C   10.0090   13.2210   23.3230
H   9.3460   12.3640   23.2430
C   11.1890   13.1930   24.0600
H   11.5060   12.4190   24.7520
C   12.1210   14.2630   23.8890
H   13.0670   14.1720   24.4150
C   18.8420   17.6350   27.7520
H   18.1240   17.0240   28.3120
H   18.2540   18.2490   27.0590
H   19.3830   18.2440   28.4880
C   19.7860   16.8740   26.9420
C   20.9230   17.5130   26.3330
H   21.0460   18.5910   26.2770
C   21.9600   16.7460   25.6900
H   22.7590   17.2130   25.1220
C   21.8200   15.3540   25.7340
H   22.5620   14.8350   25.1340
C   20.7780   14.7860   26.4240
H   20.6730   13.7070   26.4980
C   19.7540   15.4920   26.9560
H   18.9700   15.0490   27.5620
C   25.2430   22.7500   18.9430
H   24.6510   23.3730   19.6240
H   24.6070   22.0920   18.3390
H   25.7690   23.4530   18.2840
C   26.2890   22.0890   19.8050
C   27.6530   22.5380   19.7650
H   27.8930   23.3990   19.1490
C   28.6720   21.9360   20.4790
H   29.6960   22.2960   20.4470
C   28.3120   20.9270   21.3620
H   29.1140   20.5670   22.0000
C   26.9480   20.4890   21.5060
H   26.7050   19.7450   22.2580
C   25.9360   21.0700   20.7010
H   24.8820   20.8350   20.8180
C   8.6660   14.0750   6.3660
H   9.5670   14.3180   5.7890
H   8.3130   15.1000   6.5330
H   8.0120   13.6260   5.6080
C   8.9520   13.1750   7.5700
C   9.2520   13.8780   8.7390
H   9.0790   14.9490   8.7860
C   9.7250   13.1670   9.8870
H   10.1540   13.6370   10.7670
C   9.7320   11.7360   9.9480
H   9.9080   11.1180   10.8230
C   9.4160   11.0830   8.7270
H   9.5500   10.0100   8.6190
C   9.0570   11.7790   7.5340
H   8.9280   11.2640   6.5870
C   8.9500   11.1620   20.3870
H   9.6770   10.3770   20.1430
H   8.1570   10.6850   20.9760
H   9.5010   11.9120   20.9680
C   8.2120   11.8340   19.2710
C   8.5700   13.1620   18.8940
H   9.3950   13.6460   19.4100
C   7.8880   13.7660   17.8650
H   8.0520   14.7920   17.5510
C   6.8730   13.0430   17.1600
H   6.3940   13.5060   16.3020
C   6.6020   11.7170   17.5240
H   5.9300   11.0650   16.9750
C   7.2670   11.0920   18.5130
H   6.9380   10.1170   18.8610
C   26.4570   12.4450   13.5550
H   27.1280   12.9590   14.2540
H   26.8800   12.5280   12.5470
H   26.3480   11.3870   13.8240
C   25.0650   13.0040   13.5080
C   24.3200   13.0670   12.3170
H   24.6950   12.4320   11.5200
C   23.1080   13.7070   12.1810
H   22.5800   13.8270   11.2400
C   22.5170   14.2950   13.4070
H   21.5280   14.7440   13.3850
C   23.1780   14.0720   14.6700
H   22.7680   14.3710   15.6300
C   24.4820   13.4620   14.6840
H   25.0670   13.3620   15.5930
C   17.5710   21.2480   6.8890
H   18.6510   21.3700   6.7390
H   17.1030   22.0750   7.4370
H   17.0720   21.3190   5.9150
C   17.2290   19.8820   7.3990
C   18.1980   19.0800   7.9940
H   19.2050   19.4850   8.0050
C   17.9790   17.8310   8.6610
H   18.7330   17.2870   9.2230
C   16.6260   17.3740   8.6220
H   16.3320   16.4460   9.1030
C   15.6520   18.0670   7.8430
H   14.6170   17.7430   7.7980
C   15.9210   19.3400   7.2650
H   15.0810   19.8910   6.8510
C   21.3760   21.0260   23.7240
H   20.4220   20.4870   23.7730
H   21.7020   21.4030   24.7020
H   22.0140   20.1900   23.4130
C   21.3200   22.2390   22.7430
C   21.4220   21.9180   21.3730
H   21.5590   20.8770   21.0950
C   21.1640   22.8820   20.4680
H   21.2420   22.6310   19.4150
C   20.8980   24.2170   20.9180
H   20.7360   25.0150   20.1990
C   20.8810   24.5300   22.2790
H   20.7390   25.5510   22.6190
C   21.0600   23.5250   23.2330
H   21.0710   23.7440   24.2960
C   13.4980   11.9160   9.8290
H   12.9760   11.0440   9.4180
H   12.8920   12.3220   10.6480
H   14.4620   11.6150   10.2580
C   13.7160   13.0320   8.7680
C   15.0200   13.6160   8.6070
H   15.8970   13.3430   9.1870
C   15.2000   14.6260   7.6390
H   16.2250   14.9300   7.4480
C   14.1260   14.9630   6.7830
H   14.1730   15.7170   6.0030
C   12.8520   14.5840   7.1130
H   12.0640   15.0130   6.5020
C   12.6470   13.5090   8.0450
H   11.7110   12.9710   8.1580
C   19.7440   10.5210   20.4450
H   19.1710   11.4550   20.4980
H   19.2620   9.7620   21.0740
H   19.7140   10.3290   19.3650
C   21.1430   10.7570   21.0140
C   22.2290   10.3180   20.2850
H   22.1500   9.9270   19.2750
C   23.5250   10.5680   20.8390
H   24.4000   10.2310   20.2920
C   23.7170   11.1630   22.0780
H   24.7300   11.2050   22.4680
C   22.5380   11.3930   22.8610
H   22.7390   11.7980   23.8480
C   21.2670   11.2310   22.2990
H   20.3950   11.6100   22.8240
C   29.8070   21.0370   16.6750
H   29.7320   22.0770   16.3350
H   30.3810   20.5460   15.8790
H   30.3680   20.9570   17.6140
C   28.4450   20.3010   16.9690
C   28.2260   19.5640   18.1860
H   29.0220   19.4550   18.9170
C   26.8940   19.1050   18.4470
H   26.6720   18.4880   19.3130
C   25.8510   19.3550   17.6180
H   24.8790   18.9520   17.8890
C   26.0900   20.0720   16.3750
H   25.2500   20.2200   15.7020
C   27.3720   20.5830   16.0780
H   27.4500   21.3560   15.3190
C   18.5500   10.0140   11.4130
H   18.7830   9.7570   12.4530
H   19.3500   9.5800   10.8000
H   17.6150   9.5640   11.0570
C   18.6360   11.5680   11.2050
C   19.5130   12.2330   10.3370
H   20.2410   11.5850   9.8580
C   19.5720   13.6310   10.2560
H   20.3650   14.1740   9.7510
C   18.5680   14.3480   10.9390
H   18.6520   15.4260   10.8390
C   17.6480   13.7120   11.7250
H   17.1040   14.3100   12.4500
C   17.7060   12.3240   11.9490
H   17.2340   11.8230   12.7890
C   22.1020   25.4310   5.5970
H   21.4160   26.2880   5.5930
H   21.7860   24.8510   4.7220
H   23.1330   25.7650   5.4260
C   21.9980   24.6230   6.8970
C   21.0770   23.5600   6.9970
H   20.5490   23.2000   6.1180
C   20.8770   22.8840   8.2000
H   20.2320   22.0110   8.2230
C   21.4880   23.3510   9.3830
H   21.2750   22.8260   10.3090
C   22.4070   24.4640   9.3180
H   22.8440   24.9190   10.2020
C   22.7460   25.0220   8.0470
H   23.4980   25.8030   7.9750
C   19.3547   18.5292   21.4523
H   20.1084   18.4693   22.2220
H   18.7520   19.4119   21.6354
H   19.8774   18.6783   20.5133
C   18.5141   17.2746   21.4241
C   17.1192   17.2953   21.2349
H   16.6182   18.2526   21.1181
C   16.3755   16.1216   21.2583
H   15.2959   16.1816   21.1422
C   16.9765   14.8848   21.4362
H   16.4103   13.9805   21.4052
C   18.3609   14.8496   21.6227
H   18.8745   13.9087   21.7581
C   19.1168   16.0200   21.6351
H   20.1667   15.9607   21.8307
562
Frame 43
C   16.2804   15.9340   17.2800
C   18.6189   16.6546   16.8355
C   15.7656   17.3670   17.4463
C   19.3018   16.0231   18.0331
C   19.5492   16.7457   15.6483
N   17.4489   15.8577   16.4326
N   15.2445   15.0605   16.7616
O   15.2846   17.9169   16.2107
H   14.3439   17.7227   16.1678
H   17.1855   16.1280   15.4969
H   16.5688   15.5810   18.2681
H   18.3164   17.6614   17.1083
H   14.3859   15.2137   17.2872
H   15.0482   15.2909   15.7953
H   16.5685   18.0081   17.7928
H   14.9841   17.3658   18.2144
H   20.1168   16.6645   18.3959
H   18.9677   16.8236   14.7322
H   19.7059   15.0554   17.7717
H   18.6005   15.8786   18.8507
H   20.1984   17.6119   15.7220
H   20.1652   15.8448   15.5908
C   31.0130   13.4690   20.5000
H   31.2490   12.6100   21.1410
H   31.6000   14.3580   20.7590
H   31.3090   13.1730   19.4860
C   29.5240   13.6930   20.5110
C   28.9490   14.9820   20.4600
H   29.6230   15.8190   20.3030
C   27.5460   15.1780   20.4020
H   27.1240   16.1710   20.2790
C   26.7510   14.0910   20.7820
H   25.6720   14.1250   20.8970
C   27.2930   12.7880   20.7300
H   26.5470   12.0120   20.8740
C   28.6890   12.5880   20.6520
H   29.0430   11.5650   20.7440
C   9.2210   14.9750   13.0480
H   9.9180   14.2170   12.6700
H   8.7250   15.4390   12.1860
H   8.5460   14.3880   13.6810
C   9.9500   16.0790   13.9260
C   11.1730   16.6700   13.5290
H   11.6950   16.2330   12.6830
C   11.7790   17.6500   14.3810
H   12.6890   18.1940   14.1470
C   11.0580   18.1190   15.4870
H   11.4490   19.0070   15.9740
C   9.8790   17.5550   15.8260
H   9.3990   17.9040   16.7360
C   9.3470   16.4720   15.1090
H   8.3400   16.1840   15.3940
C   13.1040   20.9490   22.1230
H   12.1100   21.0700   22.5720
H   13.3280   19.8760   22.1570
H   12.9300   21.4440   21.1600
C   14.1720   21.7290   22.9410
C   13.9780   23.0550   23.3640
H   12.9880   23.4780   23.2220
C   14.9570   23.7090   24.0980
H   14.8720   24.7370   24.4370
C   16.0910   23.0190   24.4910
H   16.8240   23.5570   25.0840
C   16.3390   21.7000   24.0260
H   17.2960   21.2060   24.1580
C   15.3480   21.0720   23.2660
H   15.4870   20.1110   22.7800
C   22.3270   16.0930   8.4030
H   22.3260   16.2600   9.4870
H   21.4310   15.6720   7.9300
H   22.4190   17.0690   7.9110
C   23.4930   15.2320   7.9250
C   24.6760   15.8080   7.3600
H   24.7170   16.8840   7.2220
C   25.8340   15.0550   7.0100
H   26.7290   15.6050   6.7360
C   25.7140   13.6410   7.1510
H   26.5440   12.9840   6.9070
C   24.5170   13.0840   7.6510
H   24.4140   12.0140   7.8020
C   23.4280   13.8620   7.9640
H   22.4620   13.4500   8.2420
C   13.3770   8.3710   11.1840
H   13.9280   8.9300   11.9500
H   12.7730   7.5980   11.6750
H   12.7470   9.0620   10.6100
C   14.2950   7.7300   10.0940
C   14.0090   6.4760   9.6240
H   13.0770   6.0180   9.9390
C   14.8900   5.7890   8.7340
H   14.6040   4.8470   8.2740
C   16.0940   6.4030   8.4280
H   16.8170   5.9830   7.7360
C   16.3240   7.7020   8.8800
H   17.2290   8.1990   8.5440
C   15.3900   8.3770   9.6670
H   15.4990   9.4410   9.8550
C   22.3720   27.5750   12.3440
H   22.6740   28.6260   12.2520
H   21.8660   27.2750   11.4180
H   23.3360   27.0640   12.4640
C   21.5860   27.1640   13.5380
C   20.6270   26.1270   13.4710
H   20.5230   25.5770   12.5400
C   19.8190   25.9080   14.6070
H   19.0410   25.1530   14.6740
C   19.8330   26.8130   15.6810
H   19.1800   26.6280   16.5280
C   20.7150   27.8320   15.6880
H   20.6750   28.5050   16.5390
C   21.6510   27.9300   14.6880
H   22.3640   28.7490   14.7160
C   26.3230   15.1720   24.4190
H   27.1730   15.7810   24.7530
H   26.9100   14.3730   23.9500
H   25.8350   14.6810   25.2700
C   25.2980   15.8310   23.5700
C   25.3310   17.2270   23.3880
H   26.0260   17.7850   24.0090
C   24.4240   17.8360   22.4700
H   24.3120   18.9080   22.3350
C   23.4800   16.9710   21.8510
H   22.7300   17.3880   21.1860
C   23.4350   15.6140   22.0990
H   22.6180   15.0160   21.7070
C   24.3990   15.0550   22.9540
H   24.2710   14.0400   23.3190
C   12.5310   21.3930   17.8850
H   13.2140   21.0900   17.0820
H   11.5950   21.6280   17.3640
H   12.3060   20.6590   18.6680
C   13.0320   22.5830   18.7360
C   12.2150   23.1990   19.6560
H   11.1450   23.0160   19.6540
C   12.8150   24.0790   20.5840
H   12.1470   24.6520   21.2210
C   14.2070   24.1490   20.7110
H   14.6570   24.8010   21.4530
C   15.0790   23.3670   19.9600
H   16.1550   23.3650   20.1040
C   14.4560   22.6230   18.9390
H   15.0290   21.9490   18.3100
C   14.8830   6.8570   21.3950
H   14.5830   5.8040   21.4680
H   14.1110   7.5640   21.0690
H   14.9540   7.1620   22.4460
C   16.2700   6.9730   20.7720
C   17.3370   6.4110   21.5060
H   17.0910   5.8820   22.4210
C   18.6390   6.6200   20.9560
H   19.4860   6.2070   21.4970
C   18.8360   7.1840   19.6870
H   19.8020   7.2850   19.2010
C   17.7740   7.7920   19.0310
H   17.9360   8.3530   18.1150
C   16.4720   7.7040   19.5680
H   15.6290   8.1750   19.0710
C   14.8160   10.5740   15.3720
H   14.3440   11.0040   14.4800
H   15.1400   11.3900   16.0290
H   13.9830   10.0440   15.8500
C   15.8760   9.5730   14.9300
C   15.5810   8.3740   14.2260
H   14.5360   8.2410   13.9630
C   16.5460   7.4790   13.7060
H   16.2100   6.6290   13.1200
C   17.8520   7.6230   14.2370
H   18.6540   6.9360   13.9850
C   18.1870   8.7030   14.9950
H   19.2350   8.8200   15.2580
C   17.2460   9.6850   15.4350
H   17.6780   10.4650   16.0550
C   8.0650   7.4040   17.5740
H   8.1270   8.0850   16.7160
H   7.5600   7.9240   18.3970
H   7.4880   6.4980   17.3480
C   9.4790   7.0660   18.0080
C   10.5440   7.9760   17.7650
H   10.3730   8.9450   17.3060
C   11.8290   7.6370   18.2640
H   12.7100   8.2510   18.1010
C   12.0090   6.4900   19.0190
H   13.0130   6.2290   19.3400
C   10.9610   5.6080   19.2070
H   11.1880   4.6980   19.7550
C   9.6610   5.8390   18.6640
H   8.8970   5.0800   18.8040
C   18.2400   9.3350   23.8980
H   18.4220   9.0030   24.9280
H   18.8890   10.1800   23.6390
H   18.3460   8.4310   23.2860
C   16.8430   9.7990   23.8620
C   16.4750   10.9760   23.2580
H   17.2340   11.5320   22.7170
C   15.1310   11.3650   23.2170
H   14.8330   12.3010   22.7540
C   14.1480   10.5800   23.8790
H   13.1240   10.9410   23.8510
C   14.5070   9.3760   24.4910
H   13.6960   8.7620   24.8720
C   15.8380   9.0020   24.5510
H   16.1540   8.1380   25.1280
C   10.9060   11.5230   15.8000
H   10.2660   12.1380   16.4450
H   11.8110   12.1010   15.5760
H   11.3030   10.7560   16.4760
C   10.1450   10.8230   14.6590
C   8.8800   11.1470   14.2680
H   8.3050   11.8430   14.8720
C   8.2310   10.3560   13.3000
H   7.1860   10.6060   13.1480
C   8.9080   9.2900   12.6040
H   8.3580   8.8160   11.7960
C   10.2410   9.0790   12.9680
H   10.7620   8.2900   12.4330
C   10.8540   9.7140   14.0870
H   11.8650   9.4940   14.4180
C   12.4900   20.4970   8.7300
H   11.7150   20.4740   7.9540
H   12.2270   19.9760   9.6590
H   13.3460   20.0150   8.2410
C   12.8650   21.9680   8.9270
C   12.1420   22.7970   9.8120
H   11.2610   22.4200   10.3220
C   12.3840   24.1720   9.8850
H   11.8920   24.7890   10.6310
C   13.4520   24.6990   9.1480
H   13.6750   25.7620   9.1740
C   14.2260   23.9500   8.2820
H   15.0110   24.4020   7.6830
C   13.8970   22.5400   8.1400
H   14.4070   21.9210   7.4080
C   25.2240   23.2580   12.7270
H   25.5120   24.3000   12.9180
H   24.9920   23.1420   11.6620
H   26.0960   22.6100   12.8790
C   24.1020   22.8110   13.7090
C   24.1040   23.2240   14.9730
H   24.9610   23.8230   15.2650
C   23.1140   22.7650   15.8740
H   23.0750   23.1170   16.9010
C   22.0540   21.9550   15.3630
H   21.3500   21.5740   16.0970
C   21.9790   21.6570   14.0120
H   21.2210   20.9940   13.6040
C   22.9780   22.0850   13.1860
H   22.9530   21.7500   12.1530
C   15.9690   24.2190   11.3740
H   16.8540   24.6850   11.8250
H   15.3350   25.1120   11.4330
H   16.1270   23.9390   10.3250
C   15.4160   23.1270   12.1800
C   15.0320   21.8940   11.5900
H   15.1170   21.7510   10.5170
C   14.4730   20.9160   12.4130
H   14.1800   19.9440   12.0280
C   14.3810   21.0610   13.7930
H   14.0500   20.2450   14.4290
C   14.8220   22.2110   14.4320
H   14.6700   22.2620   15.5060
C   15.2630   23.2580   13.6150
H   15.6250   24.2030   14.0110
C   7.9820   23.6640   20.2210
H   7.6700   24.1780   19.3030
H   8.8810   24.2110   20.5300
H   7.2090   23.8760   20.9700
C   8.2150   22.1450   20.0450
C   8.9820   21.3660   20.9660
H   9.4280   21.8310   21.8400
C   9.3410   20.0110   20.7260
H   9.9200   19.4750   21.4720
C   8.8720   19.3730   19.6080
H   9.2540   18.3910   19.3440
C   8.1140   20.1330   18.6130
H   7.8040   19.7260   17.6550
C   7.8120   21.5360   18.8670
H   7.2650   22.1110   18.1260
C   16.6400   17.6150   24.7630
H   16.2880   18.1500   25.6540
H   16.0580   17.8970   23.8770
H   17.6690   17.9180   24.5330
C   16.4320   16.1690   24.9640
C   17.4700   15.2850   24.7630
H   18.3820   15.6110   24.2700
C   17.2870   13.9420   25.1470
H   18.0430   13.2190   24.8550
C   16.0500   13.5080   25.7080
H   15.9690   12.4530   25.9550
C   15.0160   14.4460   25.9100
H   14.0840   14.0850   26.3350
C   15.2290   15.7710   25.5010
H   14.4230   16.4770   25.6750
C   9.8970   25.7470   14.8340
H   9.2600   26.2100   14.0700
H   10.9030   26.1810   14.8020
H   9.4340   25.9280   15.8120
C   10.1050   24.2760   14.5480
C   9.4830   23.4020   15.4380
H   8.7910   23.7840   16.1820
C   9.7180   22.0020   15.3700
H   9.2880   21.4530   16.2030
C   10.5190   21.4980   14.3610
H   10.5880   20.4200   14.2480
C   11.0160   22.3430   13.3520
H   11.7280   21.9650   12.6240
C   10.8610   23.7380   13.4830
H   11.4610   24.3570   12.8230
C   21.4460   7.1060   12.4470
H   20.6860   6.3340   12.6150
H   22.2500   6.4780   12.0440
H   21.0510   7.7230   11.6300
C   21.6030   8.0210   13.6490
C   21.7540   7.6760   14.9780
H   21.7640   6.6430   15.3150
C   21.9350   8.6230   16.0550
H   22.0640   8.3230   17.0910
C   22.1380   9.9860   15.6920
H   22.3350   10.8010   16.3830
C   22.0340   10.3260   14.3310
H   22.1590   11.3300   13.9360
C   21.6750   9.3700   13.3830
H   21.5590   9.7230   12.3630
C   22.9880   17.6800   12.2810
H   22.9180   16.8740   13.0210
H   23.7730   18.3620   12.6300
H   23.2480   17.2650   11.3000
C   21.6550   18.3490   12.1870
C   20.6220   18.0880   13.0570
H   20.7970   17.3350   13.8210
C   19.4340   18.7990   13.0450
H   18.7570   18.7330   13.8920
C   19.1760   19.7760   12.0220
H   18.2920   20.4060   12.0440
C   20.1570   19.9410   11.0580
H   19.9550   20.5700   10.1960
C   21.4170   19.2580   11.1840
H   22.2080   19.5330   10.4920
C   11.5670   16.9320   9.5720
H   12.2140   17.1360   8.7100
H   11.2820   15.8920   9.3700
H   12.1900   17.0270   10.4710
C   10.3380   17.8120   9.7330
C   9.4070   17.9080   8.6630
H   9.2760   17.1270   7.9200
C   8.4820   18.9870   8.6270
H   7.7350   19.0310   7.8400
C   8.4710   19.9600   9.6310
H   7.7480   20.7700   9.6540
C   9.3540   19.8350   10.7390
H   9.3650   20.4890   11.6050
C   10.1940   18.7130   10.7970
H   10.9300   18.6810   11.5950
C   12.7180   16.6050   23.0210
H   12.8130   16.8270   21.9510
H   13.7280   16.3210   23.3450
H   12.5000   17.5290   23.5710
C   11.8010   15.4010   23.1530
C   10.6200   15.4240   22.3970
H   10.4520   16.2470   21.7090
C   9.7560   14.2780   22.4410
H   8.8510   14.2660   21.8410
C   10.0090   13.2210   23.3230
H   9.3460   12.3640   23.2430
C   11.1890   13.1930   24.0600
H   11.5060   12.4190   24.7520
C   12.1210   14.2630   23.8890
H   13.0670   14.1720   24.4150
C   18.8420   17.6350   27.7520
H   18.1240   17.0240   28.3120
H   18.2540   18.2490   27.0590
H   19.3830   18.2440   28.4880
C   19.7860   16.8740   26.9420
C   20.9230   17.5130   26.3330
H   21.0460   18.5910   26.2770
C   21.9600   16.7460   25.6900
H   22.7590   17.2130   25.1220
C   21.8200   15.3540   25.7340
H   22.5620   14.8350   25.1340
C   20.7780   14.7860   26.4240
H   20.6730   13.7070   26.4980
C   19.7540   15.4920   26.9560
H   18.9700   15.0490   27.5620
C   25.2430   22.7500   18.9430
H   24.6510   23.3730   19.6240
H   24.6070   22.0920   18.3390
H   25.7690   23.4530   18.2840
C   26.2890   22.0890   19.8050
C   27.6530   22.5380   19.7650
H   27.8930   23.3990   19.1490
C   28.6720   21.9360   20.4790
H   29.6960   22.2960   20.4470
C   28.3120   20.9270   21.3620
H   29.1140   20.5670   22.0000
C   26.9480   20.4890   21.5060
H   26.7050   19.7450   22.2580
C   25.9360   21.0700   20.7010
H   24.8820   20.8350   20.8180
C   8.6660   14.0750   6.3660
H   9.5670   14.3180   5.7890
H   8.3130   15.1000   6.5330
H   8.0120   13.6260   5.6080
C   8.9520   13.1750   7.5700
C   9.2520   13.8780   8.7390
H   9.0790   14.9490   8.7860
C   9.7250   13.1670   9.8870
H   10.1540   13.6370   10.7670
C   9.7320   11.7360   9.9480
H   9.9080   11.1180   10.8230
C   9.4160   11.0830   8.7270
H   9.5500   10.0100   8.6190
C   9.0570   11.7790   7.5340
H   8.9280   11.2640   6.5870
C   8.9500   11.1620   20.3870
H   9.6770   10.3770   20.1430
H   8.1570   10.6850   20.9760
H   9.5010   11.9120   20.9680
C   8.2120   11.8340   19.2710
C   8.5700   13.1620   18.8940
H   9.3950   13.6460   19.4100
C   7.8880   13.7660   17.8650
H   8.0520   14.7920   17.5510
C   6.8730   13.0430   17.1600
H   6.3940   13.5060   16.3020
C   6.6020   11.7170   17.5240
H   5.9300   11.0650   16.9750
C   7.2670   11.0920   18.5130
H   6.9380   10.1170   18.8610
C   26.4570   12.4450   13.5550
H   27.1280   12.9590   14.2540
H   26.8800   12.5280   12.5470
H   26.3480   11.3870   13.8240
C   25.0650   13.0040   13.5080
C   24.3200   13.0670   12.3170
H   24.6950   12.4320   11.5200
C   23.1080   13.7070   12.1810
H   22.5800   13.8270   11.2400
C   22.5170   14.2950   13.4070
H   21.5280   14.7440   13.3850
C   23.1780   14.0720   14.6700
H   22.7680   14.3710   15.6300
C   24.4820   13.4620   14.6840
H   25.0670   13.3620   15.5930
C   17.5710   21.2480   6.8890
H   18.6510   21.3700   6.7390
H   17.1030   22.0750   7.4370
H   17.0720   21.3190   5.9150
C   17.2290   19.8820   7.3990
C   18.1980   19.0800   7.9940
H   19.2050   19.4850   8.0050
C   17.9790   17.8310   8.6610
H   18.7330   17.2870   9.2230
C   16.6260   17.3740   8.6220
H   16.3320   16.4460   9.1030
C   15.6520   18.0670   7.8430
H   14.6170   17.7430   7.7980
C   15.9210   19.3400   7.2650
H   15.0810   19.8910   6.8510
C   21.3760   21.0260   23.7240
H   20.4220   20.4870   23.7730
H   21.7020   21.4030   24.7020
H   22.0140   20.1900   23.4130
C   21.3200   22.2390   22.7430
C   21.4220   21.9180   21.3730
H   21.5590   20.8770   21.0950
C   21.1640   22.8820   20.4680
H   21.2420   22.6310   19.4150
C   20.8980   24.2170   20.9180
H   20.7360   25.0150   20.1990
C   20.8810   24.5300   22.2790
H   20.7390   25.5510   22.6190
C   21.0600   23.5250   23.2330
H   21.0710   23.7440   24.2960
C   13.4980   11.9160   9.8290
H   12.9760   11.0440   9.4180
H   12.8920   12.3220   10.6480
H   14.4620   11.6150   10.2580
C   13.7160   13.0320   8.7680
C   15.0200   13.6160   8.6070
H   15.8970   13.3430   9.1870
C   15.2000   14.6260   7.6390
H   16.2250   14.9300   7.4480
C   14.1260   14.9630   6.7830
H   14.1730   15.7170   6.0030
C   12.8520   14.5840   7.1130
H   12.0640   15.0130   6.5020
C   12.6470   13.5090   8.0450
H   11.7110   12.9710   8.1580
C   19.7440   10.5210   20.4450
H   19.1710   11.4550   20.4980
H   19.2620   9.7620   21.0740
H   19.7140   10.3290   19.3650
C   21.1430   10.7570   21.0140
C   22.2290   10.3180   20.2850
H   22.1500   9.9270   19.2750
C   23.5250   10.5680   20.8390
H   24.4000   10.2310   20.2920
C   23.7170   11.1630   22.0780
H   24.7300   11.2050   22.4680
C   22.5380   11.3930   22.8610
H   22.7390   11.7980   23.8480
C   21.2670   11.2310   22.2990
H   20.3950   11.6100   22.8240
C   29.8070   21.0370   16.6750
H   29.7320   22.0770   16.3350
H   30.3810   20.5460   15.8790
H   30.3680   20.9570   17.6140
C   28.4450   20.3010   16.9690
C   28.2260   19.5640   18.1860
H   29.0220   19.4550   18.9170
C   26.8940   19.1050   18.4470
H   26.6720   18.4880   19.3130
C   25.8510   19.3550   17.6180
H   24.8790   18.9520   17.8890
C   26.0900   20.0720   16.3750
H   25.2500   20.2200   15.7020
C   27.3720   20.5830   16.0780
H   27.4500   21.3560   15.3190
C   18.5500   10.0140   11.4130
H   18.7830   9.7570   12.4530
H   19.3500   9.5800   10.8000
H   17.6150   9.5640   11.0570
C   18.6360   11.5680   11.2050
C   19.5130   12.2330   10.3370
H   20.2410   11.5850   9.8580
C   19.5720   13.6310   10.2560
H   20.3650   14.1740   9.7510
C   18.5680   14.3480   10.9390
H   18.6520   15.4260   10.8390
C   17.6480   13.7120   11.7250
H   17.1040   14.3100   12.4500
C   17.7060   12.3240   11.9490
H   17.2340   11.8230   12.7890
C   22.1020   25.4310   5.5970
H   21.4160   26.2880   5.5930
H   21.7860   24.8510   4.7220
H   23.1330   25.7650   5.4260
C   21.9980   24.6230   6.8970
C   21.0770   23.5600   6.9970
H   20.5490   23.2000   6.1180
C   20.8770   22.8840   8.2000
H   20.2320   22.0110   8.2230
C   21.4880   23.3510   9.3830
H   21.2750   22.8260   10.3090
C   22.4070   24.4640   9.3180
H   22.8440   24.9190   10.2020
C   22.7460   25.0220   8.0470
H   23.4980   25.8030   7.9750
C   19.3551   18.5300   21.4531
H   20.1086   18.4701   22.2234
H   18.7531   19.4122   21.6334
H   19.8788   18.6772   20.5124
C   18.5128   17.2747   21.4245
C   17.1202   17.2943   21.2380
H   16.6190   18.2514   21.1150
C   16.3725   16.1187   21.2556
H   15.2975   16.1823   21.1374
C   16.9808   14.8842   21.4338
H   16.4074   13.9792   21.4083
C   18.3587   14.8518   21.6209
H   18.8739   13.9074   21.7592
C   19.1172   16.0194   21.6362
H   20.1709   15.9602   21.8285
562
Frame 44
C   16.2789   15.9353   17.2790
C   18.6188   16.6537   16.8345
C   15.7658   17.3695   17.4466
C   19.3013   16.0240   18.0335
C   19.5492   16.7469   15.6472
N   17.4487   15.8583   16.4356
N   15.2455   15.0606   16.7619
O   15.2841   17.9203   16.2128
H   14.3443   17.7256   16.1698
H   17.1870   16.1225   15.4940
H   16.5666   15.5852   18.2683
H   18.3161   17.6617   17.1082
H   14.3855   15.2092   17.2849
H   15.0503   15.2865   15.7941
H   16.5695   18.0096   17.7936
H   14.9851   17.3677   18.2150
H   20.1157   16.6648   18.3962
H   18.9683   16.8236   14.7312
H   19.7059   15.0541   17.7705
H   18.6007   15.8788   18.8497
H   20.1981   17.6124   15.7216
H   20.1667   15.8454   15.5893
C   31.0130   13.4690   20.5000
H   31.2490   12.6100   21.1410
H   31.6000   14.3580   20.7590
H   31.3090   13.1730   19.4860
C   29.5240   13.6930   20.5110
C   28.9490   14.9820   20.4600
H   29.6230   15.8190   20.3030
C   27.5460   15.1780   20.4020
H   27.1240   16.1710   20.2790
C   26.7510   14.0910   20.7820
H   25.6720   14.1250   20.8970
C   27.2930   12.7880   20.7300
H   26.5470   12.0120   20.8740
C   28.6890   12.5880   20.6520
H   29.0430   11.5650   20.7440
C   9.2210   14.9750   13.0480
H   9.9180   14.2170   12.6700
H   8.7250   15.4390   12.1860
H   8.5460   14.3880   13.6810
C   9.9500   16.0790   13.9260
C   11.1730   16.6700   13.5290
H   11.6950   16.2330   12.6830
C   11.7790   17.6500   14.3810
H   12.6890   18.1940   14.1470
C   11.0580   18.1190   15.4870
H   11.4490   19.0070   15.9740
C   9.8790   17.5550   15.8260
H   9.3990   17.9040   16.7360
C   9.3470   16.4720   15.1090
H   8.3400   16.1840   15.3940
C   13.1040   20.9490   22.1230
H   12.1100   21.0700   22.5720
H   13.3280   19.8760   22.1570
H   12.9300   21.4440   21.1600
C   14.1720   21.7290   22.9410
C   13.9780   23.0550   23.3640
H   12.9880   23.4780   23.2220
C   14.9570   23.7090   24.0980
H   14.8720   24.7370   24.4370
C   16.0910   23.0190   24.4910
H   16.8240   23.5570   25.0840
C   16.3390   21.7000   24.0260
H   17.2960   21.2060   24.1580
C   15.3480   21.0720   23.2660
H   15.4870   20.1110   22.7800
C   22.3270   16.0930   8.4030
H   22.3260   16.2600   9.4870
H   21.4310   15.6720   7.9300
H   22.4190   17.0690   7.9110
C   23.4930   15.2320   7.9250
C   24.6760   15.8080   7.3600
H   24.7170   16.8840   7.2220
C   25.8340   15.0550   7.0100
H   26.7290   15.6050   6.7360
C   25.7140   13.6410   7.1510
H   26.5440   12.9840   6.9070
C   24.5170   13.0840   7.6510
H   24.4140   12.0140   7.8020
C   23.4280   13.8620   7.9640
H   22.4620   13.4500   8.2420
C   13.3770   8.3710   11.1840
H   13.9280   8.9300   11.9500
H   12.7730   7.5980   11.6750
H   12.7470   9.0620   10.6100
C   14.2950   7.7300   10.0940
C   14.0090   6.4760   9.6240
H   13.0770   6.0180   9.9390
C   14.8900   5.7890   8.7340
H   14.6040   4.8470   8.2740
C   16.0940   6.4030   8.4280
H   16.8170   5.9830   7.7360
C   16.3240   7.7020   8.8800
H   17.2290   8.1990   8.5440
C   15.3900   8.3770   9.6670
H   15.4990   9.4410   9.8550
C   22.3720   27.5750   12.3440
H   22.6740   28.6260   12.2520
H   21.8660   27.2750   11.4180
H   23.3360   27.0640   12.4640
C   21.5860   27.1640   13.5380
C   20.6270   26.1270   13.4710
H   20.5230   25.5770   12.5400
C   19.8190   25.9080   14.6070
H   19.0410   25.1530   14.6740
C   19.8330   26.8130   15.6810
H   19.1800   26.6280   16.5280
C   20.7150   27.8320   15.6880
H   20.6750   28.5050   16.5390
C   21.6510   27.9300   14.6880
H   22.3640   28.7490   14.7160
C   26.3230   15.1720   24.4190
H   27.1730   15.7810   24.7530
H   26.9100   14.3730   23.9500
H   25.8350   14.6810   25.2700
C   25.2980   15.8310   23.5700
C   25.3310   17.2270   23.3880
H   26.0260   17.7850   24.0090
C   24.4240   17.8360   22.4700
H   24.3120   18.9080   22.3350
C   23.4800   16.9710   21.8510
H   22.7300   17.3880   21.1860
C   23.4350   15.6140   22.0990
H   22.6180   15.0160   21.7070
C   24.3990   15.0550   22.9540
H   24.2710   14.0400   23.3190
C   12.5310   21.3930   17.8850
H   13.2140   21.0900   17.0820
H   11.5950   21.6280   17.3640
H   12.3060   20.6590   18.6680
C   13.0320   22.5830   18.7360
C   12.2150   23.1990   19.6560
H   11.1450   23.0160   19.6540
C   12.8150   24.0790   20.5840
H   12.1470   24.6520   21.2210
C   14.2070   24.1490   20.7110
H   14.6570   24.8010   21.4530
C   15.0790   23.3670   19.9600
H   16.1550   23.3650   20.1040
C   14.4560   22.6230   18.9390
H   15.0290   21.9490   18.3100
C   14.8830   6.8570   21.3950
H   14.5830   5.8040   21.4680
H   14.1110   7.5640   21.0690
H   14.9540   7.1620   22.4460
C   16.2700   6.9730   20.7720
C   17.3370   6.4110   21.5060
H   17.0910   5.8820   22.4210
C   18.6390   6.6200   20.9560
H   19.4860   6.2070   21.4970
C   18.8360   7.1840   19.6870
H   19.8020   7.2850   19.2010
C   17.7740   7.7920   19.0310
H   17.9360   8.3530   18.1150
C   16.4720   7.7040   19.5680
H   15.6290   8.1750   19.0710
C   14.8160   10.5740   15.3720
H   14.3440   11.0040   14.4800
H   15.1400   11.3900   16.0290
H   13.9830   10.0440   15.8500
C   15.8760   9.5730   14.9300
C   15.5810   8.3740   14.2260
H   14.5360   8.2410   13.9630
C   16.5460   7.4790   13.7060
H   16.2100   6.6290   13.1200
C   17.8520   7.6230   14.2370
H   18.6540   6.9360   13.9850
C   18.1870   8.7030   14.9950
H   19.2350   8.8200   15.2580
C   17.2460   9.6850   15.4350
H   17.6780   10.4650   16.0550
C   8.0650   7.4040   17.5740
H   8.1270   8.0850   16.7160
H   7.5600   7.9240   18.3970
H   7.4880   6.4980   17.3480
C   9.4790   7.0660   18.0080
C   10.5440   7.9760   17.7650
H   10.3730   8.9450   17.3060
C   11.8290   7.6370   18.2640
H   12.7100   8.2510   18.1010
C   12.0090   6.4900   19.0190
H   13.0130   6.2290   19.3400
C   10.9610   5.6080   19.2070
H   11.1880   4.6980   19.7550
C   9.6610   5.8390   18.6640
H   8.8970   5.0800   18.8040
C   18.2400   9.3350   23.8980
H   18.4220   9.0030   24.9280
H   18.8890   10.1800   23.6390
H   18.3460   8.4310   23.2860
C   16.8430   9.7990   23.8620
C   16.4750   10.9760   23.2580
H   17.2340   11.5320   22.7170
C   15.1310   11.3650   23.2170
H   14.8330   12.3010   22.7540
C   14.1480   10.5800   23.8790
H   13.1240   10.9410   23.8510
C   14.5070   9.3760   24.4910
H   13.6960   8.7620   24.8720
C   15.8380   9.0020   24.5510
H   16.1540   8.1380   25.1280
C   10.9060   11.5230   15.8000
H   10.2660   12.1380   16.4450
H   11.8110   12.1010   15.5760
H   11.3030   10.7560   16.4760
C   10.1450   10.8230   14.6590
C   8.8800   11.1470   14.2680
H   8.3050   11.8430   14.8720
C   8.2310   10.3560   13.3000
H   7.1860   10.6060   13.1480
C   8.9080   9.2900   12.6040
H   8.3580   8.8160   11.7960
C   10.2410   9.0790   12.9680
H   10.7620   8.2900   12.4330
C   10.8540   9.7140   14.0870
H   11.8650   9.4940   14.4180
C   12.4900   20.4970   8.7300
H   11.7150   20.4740   7.9540
H   12.2270   19.9760   9.6590
H   13.3460   20.0150   8.2410
C   12.8650   21.9680   8.9270
C   12.1420   22.7970   9.8120
H   11.2610   22.4200   10.3220
C   12.3840   24.1720   9.8850
H   11.8920   24.7890   10.6310
C   13.4520   24.6990   9.1480
H   13.6750   25.7620   9.1740
C   14.2260   23.9500   8.2820
H   15.0110   24.4020   7.6830
C   13.8970   22.5400   8.1400
H   14.4070   21.9210   7.4080
C   25.2240   23.2580   12.7270
H   25.5120   24.3000   12.9180
H   24.9920   23.1420   11.6620
H   26.0960   22.6100   12.8790
C   24.1020   22.8110   13.7090
C   24.1040   23.2240   14.9730
H   24.9610   23.8230   15.2650
C   23.1140   22.7650   15.8740
H   23.0750   23.1170   16.9010
C   22.0540   21.9550   15.3630
H   21.3500   21.5740   16.0970
C   21.9790   21.6570   14.0120
H   21.2210   20.9940   13.6040
C   22.9780   22.0850   13.1860
H   22.9530   21.7500   12.1530
C   15.9690   24.2190   11.3740
H   16.8540   24.6850   11.8250
H   15.3350   25.1120   11.4330
H   16.1270   23.9390   10.3250
C   15.4160   23.1270   12.1800
C   15.0320   21.8940   11.5900
H   15.1170   21.7510   10.5170
C   14.4730   20.9160   12.4130
H   14.1800   19.9440   12.0280
C   14.3810   21.0610   13.7930
H   14.0500   20.2450   14.4290
C   14.8220   22.2110   14.4320
H   14.6700   22.2620   15.5060
C   15.2630   23.2580   13.6150
H   15.6250   24.2030   14.0110
C   7.9820   23.6640   20.2210
H   7.6700   24.1780   19.3030
H   8.8810   24.2110   20.5300
H   7.2090   23.8760   20.9700
C   8.2150   22.1450   20.0450
C   8.9820   21.3660   20.9660
H   9.4280   21.8310   21.8400
C   9.3410   20.0110   20.7260
H   9.9200   19.4750   21.4720
C   8.8720   19.3730   19.6080
H   9.2540   18.3910   19.3440
C   8.1140   20.1330   18.6130
H   7.8040   19.7260   17.6550
C   7.8120   21.5360   18.8670
H   7.2650   22.1110   18.1260
C   16.6400   17.6150   24.7630
H   16.2880   18.1500   25.6540
H   16.0580   17.8970   23.8770
H   17.6690   17.9180   24.5330
C   16.4320   16.1690   24.9640
C   17.4700   15.2850   24.7630
H   18.3820   15.6110   24.2700
C   17.2870   13.9420   25.1470
H   18.0430   13.2190   24.8550
C   16.0500   13.5080   25.7080
H   15.9690   12.4530   25.9550
C   15.0160   14.4460   25.9100
H   14.0840   14.0850   26.3350
C   15.2290   15.7710   25.5010
H   14.4230   16.4770   25.6750
C   9.8970   25.7470   14.8340
H   9.2600   26.2100   14.0700
H   10.9030   26.1810   14.8020
H   9.4340   25.9280   15.8120
C   10.1050   24.2760   14.5480
C   9.4830   23.4020   15.4380
H   8.7910   23.7840   16.1820
C   9.7180   22.0020   15.3700
H   9.2880   21.4530   16.2030
C   10.5190   21.4980   14.3610
H   10.5880   20.4200   14.2480
C   11.0160   22.3430   13.3520
H   11.7280   21.9650   12.6240
C   10.8610   23.7380   13.4830
H   11.4610   24.3570   12.8230
C   21.4460   7.1060   12.4470
H   20.6860   6.3340   12.6150
H   22.2500   6.4780   12.0440
H   21.0510   7.7230   11.6300
C   21.6030   8.0210   13.6490
C   21.7540   7.6760   14.9780
H   21.7640   6.6430   15.3150
C   21.9350   8.6230   16.0550
H   22.0640   8.3230   17.0910
C   22.1380   9.9860   15.6920
H   22.3350   10.8010   16.3830
C   22.0340   10.3260   14.3310
H   22.1590   11.3300   13.9360
C   21.6750   9.3700   13.3830
H   21.5590   9.7230   12.3630
C   22.9880   17.6800   12.2810
H   22.9180   16.8740   13.0210
H   23.7730   18.3620   12.6300
H   23.2480   17.2650   11.3000
C   21.6550   18.3490   12.1870
C   20.6220   18.0880   13.0570
H   20.7970   17.3350   13.8210
C   19.4340   18.7990   13.0450
H   18.7570   18.7330   13.8920
C   19.1760   19.7760   12.0220
H   18.2920   20.4060   12.0440
C   20.1570   19.9410   11.0580
H   19.9550   20.5700   10.1960
C   21.4170   19.2580   11.1840
H   22.2080   19.5330   10.4920
C   11.5670   16.9320   9.5720
H   12.2140   17.1360   8.7100
H   11.2820   15.8920   9.3700
H   12.1900   17.0270   10.4710
C   10.3380   17.8120   9.7330
C   9.4070   17.9080   8.6630
H   9.2760   17.1270   7.9200
C   8.4820   18.9870   8.6270
H   7.7350   19.0310   7.8400
C   8.4710   19.9600   9.6310
H   7.7480   20.7700   9.6540
C   9.3540   19.8350   10.7390
H   9.3650   20.4890   11.6050
C   10.1940   18.7130   10.7970
H   10.9300   18.6810   11.5950
C   12.7180   16.6050   23.0210
H   12.8130   16.8270   21.9510
H   13.7280   16.3210   23.3450
H   12.5000   17.5290   23.5710
C   11.8010   15.4010   23.1530
C   10.6200   15.4240   22.3970
H   10.4520   16.2470   21.7090
C   9.7560   14.2780   22.4410
H   8.8510   14.2660   21.8410
C   10.0090   13.2210   23.3230
H   9.3460   12.3640   23.2430
C   11.1890   13.1930   24.0600
H   11.5060   12.4190   24.7520
C   12.1210   14.2630   23.8890
H   13.0670   14.1720   24.4150
C   18.8420   17.6350   27.7520
H   18.1240   17.0240   28.3120
H   18.2540   18.2490   27.0590
H   19.3830   18.2440   28.4880
C   19.7860   16.8740   26.9420
C   20.9230   17.5130   26.3330
H   21.0460   18.5910   26.2770
C   21.9600   16.7460   25.6900
H   22.7590   17.2130   25.1220
C   21.8200   15.3540   25.7340
H   22.5620   14.8350   25.1340
C   20.7780   14.7860   26.4240
H   20.6730   13.7070   26.4980
C   19.7540   15.4920   26.9560
H   18.9700   15.0490   27.5620
C   25.2430   22.7500   18.9430
H   24.6510   23.3730   19.6240
H   24.6070   22.0920   18.3390
H   25.7690   23.4530   18.2840
C   26.2890   22.0890   19.8050
C   27.6530   22.5380   19.7650
H   27.8930   23.3990   19.1490
C   28.6720   21.9360   20.4790
H   29.6960   22.2960   20.4470
C   28.3120   20.9270   21.3620
H   29.1140   20.5670   22.0000
C   26.9480   20.4890   21.5060
H   26.7050   19.7450   22.2580
C   25.9360   21.0700   20.7010
H   24.8820   20.8350   20.8180
C   8.6660   14.0750   6.3660
H   9.5670   14.3180   5.7890
H   8.3130   15.1000   6.5330
H   8.0120   13.6260   5.6080
C   8.9520   13.1750   7.5700
C   9.2520   13.8780   8.7390
H   9.0790   14.9490   8.7860
C   9.7250   13.1670   9.8870
H   10.1540   13.6370   10.7670
C   9.7320   11.7360   9.9480
H   9.9080   11.1180   10.8230
C   9.4160   11.0830   8.7270
H   9.5500   10.0100   8.6190
C   9.0570   11.7790   7.5340
H   8.9280   11.2640   6.5870
C   8.9500   11.1620   20.3870
H   9.6770   10.3770   20.1430
H   8.1570   10.6850   20.9760
H   9.5010   11.9120   20.9680
C   8.2120   11.8340   19.2710
C   8.5700   13.1620   18.8940
H   9.3950   13.6460   19.4100
C   7.8880   13.7660   17.8650
H   8.0520   14.7920   17.5510
C   6.8730   13.0430   17.1600
H   6.3940   13.5060   16.3020
C   6.6020   11.7170   17.5240
H   5.9300   11.0650   16.9750
C   7.2670   11.0920   18.5130
H   6.9380   10.1170   18.8610
C   26.4570   12.4450   13.5550
H   27.1280   12.9590   14.2540
H   26.8800   12.5280   12.5470
H   26.3480   11.3870   13.8240
C   25.0650   13.0040   13.5080
C   24.3200   13.0670   12.3170
H   24.6950   12.4320   11.5200
C   23.1080   13.7070   12.1810
H   22.5800   13.8270   11.2400
C   22.5170   14.2950   13.4070
H   21.5280   14.7440   13.3850
C   23.1780   14.0720   14.6700
H   22.7680   14.3710   15.6300
C   24.4820   13.4620   14.6840
H   25.0670   13.3620   15.5930
C   17.5710   21.2480   6.8890
H   18.6510   21.3700   6.7390
H   17.1030   22.0750   7.4370
H   17.0720   21.3190   5.9150
C   17.2290   19.8820   7.3990
C   18.1980   19.0800   7.9940
H   19.2050   19.4850   8.0050
C   17.9790   17.8310   8.6610
H   18.7330   17.2870   9.2230
C   16.6260   17.3740   8.6220
H   16.3320   16.4460   9.1030
C   15.6520   18.0670   7.8430
H   14.6170   17.7430   7.7980
C   15.9210   19.3400   7.2650
H   15.0810   19.8910   6.8510
C   21.3760   21.0260   23.7240
H   20.4220   20.4870   23.7730
H   21.7020   21.4030   24.7020
H   22.0140   20.1900   23.4130
C   21.3200   22.2390   22.7430
C   21.4220   21.9180   21.3730
H   21.5590   20.8770   21.0950
C   21.1640   22.8820   20.4680
H   21.2420   22.6310   19.4150
C   20.8980   24.2170   20.9180
H   20.7360   25.0150   20.1990
C   20.8810   24.5300   22.2790
H   20.7390   25.5510   22.6190
C   21.0600   23.5250   23.2330
H   21.0710   23.7440   24.2960
C   13.4980   11.9160   9.8290
H   12.9760   11.0440   9.4180
H   12.8920   12.3220   10.6480
H   14.4620   11.6150   10.2580
C   13.7160   13.0320   8.7680
C   15.0200   13.6160   8.6070
H   15.8970   13.3430   9.1870
C   15.2000   14.6260   7.6390
H   16.2250   14.9300   7.4480
C   14.1260   14.9630   6.7830
H   14.1730   15.7170   6.0030
C   12.8520   14.5840   7.1130
H   12.0640   15.0130   6.5020
C   12.6470   13.5090   8.0450
H   11.7110   12.9710   8.1580
C   19.7440   10.5210   20.4450
H   19.1710   11.4550   20.4980
H   19.2620   9.7620   21.0740
H   19.7140   10.3290   19.3650
C   21.1430   10.7570   21.0140
C   22.2290   10.3180   20.2850
H   22.1500   9.9270   19.2750
C   23.5250   10.5680   20.8390
H   24.4000   10.2310   20.2920
C   23.7170   11.1630   22.0780
H   24.7300   11.2050   22.4680
C   22.5380   11.3930   22.8610
H   22.7390   11.7980   23.8480
C   21.2670   11.2310   22.2990
H   20.3950   11.6100   22.8240
C   29.8070   21.0370   16.6750
H   29.7320   22.0770   16.3350
H   30.3810   20.5460   15.8790
H   30.3680   20.9570   17.6140
C   28.4450   20.3010   16.9690
C   28.2260   19.5640   18.1860
H   29.0220   19.4550   18.9170
C   26.8940   19.1050   18.4470
H   26.6720   18.4880   19.3130
C   25.8510   19.3550   17.6180
H   24.8790   18.9520   17.8890
C   26.0900   20.0720   16.3750
H   25.2500   20.2200   15.7020
C   27.3720   20.5830   16.0780
H   27.4500   21.3560   15.3190
C   18.5500   10.0140   11.4130
H   18.7830   9.7570   12.4530
H   19.3500   9.5800   10.8000
H   17.6150   9.5640   11.0570
C   18.6360   11.5680   11.2050
C   19.5130   12.2330   10.3370
H   20.2410   11.5850   9.8580
C   19.5720   13.6310   10.2560
H   20.3650   14.1740   9.7510
C   18.5680   14.3480   10.9390
H   18.6520   15.4260   10.8390
C   17.6480   13.7120   11.7250
H   17.1040   14.3100   12.4500
C   17.7060   12.3240   11.9490
H   17.2340   11.8230   12.7890
C   22.1020   25.4310   5.5970
H   21.4160   26.2880   5.5930
H   21.7860   24.8510   4.7220
H   23.1330   25.7650   5.4260
C   21.9980   24.6230   6.8970
C   21.0770   23.5600   6.9970
H   20.5490   23.2000   6.1180
C   20.8770   22.8840   8.2000
H   20.2320   22.0110   8.2230
C   21.4880   23.3510   9.3830
H   21.2750   22.8260   10.3090
C   22.4070   24.4640   9.3180
H   22.8440   24.9190   10.2020
C   22.7460   25.0220   8.0470
H   23.4980   25.8030   7.9750
C   19.3551   18.5305   21.4534
H   20.1081   18.4702   22.2237
H   18.7537   19.4128   21.6327
H   19.8792   18.6769   20.5121
C   18.5148   17.2730   21.4255
C   17.1207   17.2945   21.2391
H   16.6191   18.2498   21.1140
C   16.3725   16.1179   21.2546
H   15.2976   16.1823   21.1357
C   16.9792   14.8847   21.4325
H   16.4074   13.9794   21.4096
C   18.3594   14.8508   21.6205
H   18.8736   13.9080   21.7596
C   19.1167   16.0197   21.6361
H   20.1715   15.9607   21.8277
562
Frame 45
C   16.2778   15.9361   17.2798
C   18.6185   16.6526   16.8338
C   15.7655   17.3705   17.4476
C   19.3006   16.0239   18.0336
C   19.5498   16.7464   15.6469
N   17.4474   15.8595   16.4369
N   15.2460   15.0615   16.7621
O   15.2841   17.9209   16.2142
H   14.3448   17.7250   16.1700
H   17.1865   16.1215   15.4928
H   16.5664   15.5862   18.2691
H   18.3157   17.6608   17.1077
H   14.3847   15.2061   17.2850
H   15.0514   15.2840   15.7937
H   16.5691   18.0114   17.7950
H   14.9846   17.3669   18.2158
H   20.1141   16.6648   18.3961
H   18.9697   16.8236   14.7306
H   19.7052   15.0525   17.7706
H   18.6004   15.8794   18.8496
H   20.1991   17.6113   15.7233
H   20.1678   15.8448   15.5885
C   31.0130   13.4690   20.5000
H   31.2490   12.6100   21.1410
H   31.6000   14.3580   20.7590
H   31.3090   13.1730   19.4860
C   29.5240   13.6930   20.5110
C   28.9490   14.9820   20.4600
H   29.6230   15.8190   20.3030
C   27.5460   15.1780   20.4020
H   27.1240   16.1710   20.2790
C   26.7510   14.0910   20.7820
H   25.6720   14.1250   20.8970
C   27.2930   12.7880   20.7300
H   26.5470   12.0120   20.8740
C   28.6890   12.5880   20.6520
H   29.0430   11.5650   20.7440
C   9.2210   14.9750   13.0480
H   9.9180   14.2170   12.6700
H   8.7250   15.4390   12.1860
H   8.5460   14.3880   13.6810
C   9.9500   16.0790   13.9260
C   11.1730   16.6700   13.5290
H   11.6950   16.2330   12.6830
C   11.7790   17.6500   14.3810
H   12.6890   18.1940   14.1470
C   11.0580   18.1190   15.4870
H   11.4490   19.0070   15.9740
C   9.8790   17.5550   15.8260
H   9.3990   17.9040   16.7360
C   9.3470   16.4720   15.1090
H   8.3400   16.1840   15.3940
C   13.1040   20.9490   22.1230
H   12.1100   21.0700   22.5720
H   13.3280   19.8760   22.1570
H   12.9300   21.4440   21.1600
C   14.1720   21.7290   22.9410
C   13.9780   23.0550   23.3640
H   12.9880   23.4780   23.2220
C   14.9570   23.7090   24.0980
H   14.8720   24.7370   24.4370
C   16.0910   23.0190   24.4910
H   16.8240   23.5570   25.0840
C   16.3390   21.7000   24.0260
H   17.2960   21.2060   24.1580
C   15.3480   21.0720   23.2660
H   15.4870   20.1110   22.7800
C   22.3270   16.0930   8.4030
H   22.3260   16.2600   9.4870
H   21.4310   15.6720   7.9300
H   22.4190   17.0690   7.9110
C   23.4930   15.2320   7.9250
C   24.6760   15.8080   7.3600
H   24.7170   16.8840   7.2220
C   25.8340   15.0550   7.0100
H   26.7290   15.6050   6.7360
C   25.7140   13.6410   7.1510
H   26.5440   12.9840   6.9070
C   24.5170   13.0840   7.6510
H   24.4140   12.0140   7.8020
C   23.4280   13.8620   7.9640
H   22.4620   13.4500   8.2420
C   13.3770   8.3710   11.1840
H   13.9280   8.9300   11.9500
H   12.7730   7.5980   11.6750
H   12.7470   9.0620   10.6100
C   14.2950   7.7300   10.0940
C   14.0090   6.4760   9.6240
H   13.0770   6.0180   9.9390
C   14.8900   5.7890   8.7340
H   14.6040   4.8470   8.2740
C   16.0940   6.4030   8.4280
H   16.8170   5.9830   7.7360
C   16.3240   7.7020   8.8800
H   17.2290   8.1990   8.5440
C   15.3900   8.3770   9.6670
H   15.4990   9.4410   9.8550
C   22.3720   27.5750   12.3440
H   22.6740   28.6260   12.2520
H   21.8660   27.2750   11.4180
H   23.3360   27.0640   12.4640
C   21.5860   27.1640   13.5380
C   20.6270   26.1270   13.4710
H   20.5230   25.5770   12.5400
C   19.8190   25.9080   14.6070
H   19.0410   25.1530   14.6740
C   19.8330   26.8130   15.6810
H   19.1800   26.6280   16.5280
C   20.7150   27.8320   15.6880
H   20.6750   28.5050   16.5390
C   21.6510   27.9300   14.6880
H   22.3640   28.7490   14.7160
C   26.3230   15.1720   24.4190
H   27.1730   15.7810   24.7530
H   26.9100   14.3730   23.9500
H   25.8350   14.6810   25.2700
C   25.2980   15.8310   23.5700
C   25.3310   17.2270   23.3880
H   26.0260   17.7850   24.0090
C   24.4240   17.8360   22.4700
H   24.3120   18.9080   22.3350
C   23.4800   16.9710   21.8510
H   22.7300   17.3880   21.1860
C   23.4350   15.6140   22.0990
H   22.6180   15.0160   21.7070
C   24.3990   15.0550   22.9540
H   24.2710   14.0400   23.3190
C   12.5310   21.3930   17.8850
H   13.2140   21.0900   17.0820
H   11.5950   21.6280   17.3640
H   12.3060   20.6590   18.6680
C   13.0320   22.5830   18.7360
C   12.2150   23.1990   19.6560
H   11.1450   23.0160   19.6540
C   12.8150   24.0790   20.5840
H   12.1470   24.6520   21.2210
C   14.2070   24.1490   20.7110
H   14.6570   24.8010   21.4530
C   15.0790   23.3670   19.9600
H   16.1550   23.3650   20.1040
C   14.4560   22.6230   18.9390
H   15.0290   21.9490   18.3100
C   14.8830   6.8570   21.3950
H   14.5830   5.8040   21.4680
H   14.1110   7.5640   21.0690
H   14.9540   7.1620   22.4460
C   16.2700   6.9730   20.7720
C   17.3370   6.4110   21.5060
H   17.0910   5.8820   22.4210
C   18.6390   6.6200   20.9560
H   19.4860   6.2070   21.4970
C   18.8360   7.1840   19.6870
H   19.8020   7.2850   19.2010
C   17.7740   7.7920   19.0310
H   17.9360   8.3530   18.1150
C   16.4720   7.7040   19.5680
H   15.6290   8.1750   19.0710
C   14.8160   10.5740   15.3720
H   14.3440   11.0040   14.4800
H   15.1400   11.3900   16.0290
H   13.9830   10.0440   15.8500
C   15.8760   9.5730   14.9300
C   15.5810   8.3740   14.2260
H   14.5360   8.2410   13.9630
C   16.5460   7.4790   13.7060
H   16.2100   6.6290   13.1200
C   17.8520   7.6230   14.2370
H   18.6540   6.9360   13.9850
C   18.1870   8.7030   14.9950
H   19.2350   8.8200   15.2580
C   17.2460   9.6850   15.4350
H   17.6780   10.4650   16.0550
C   8.0650   7.4040   17.5740
H   8.1270   8.0850   16.7160
H   7.5600   7.9240   18.3970
H   7.4880   6.4980   17.3480
C   9.4790   7.0660   18.0080
C   10.5440   7.9760   17.7650
H   10.3730   8.9450   17.3060
C   11.8290   7.6370   18.2640
H   12.7100   8.2510   18.1010
C   12.0090   6.4900   19.0190
H   13.0130   6.2290   19.3400
C   10.9610   5.6080   19.2070
H   11.1880   4.6980   19.7550
C   9.6610   5.8390   18.6640
H   8.8970   5.0800   18.8040
C   18.2400   9.3350   23.8980
H   18.4220   9.0030   24.9280
H   18.8890   10.1800   23.6390
H   18.3460   8.4310   23.2860
C   16.8430   9.7990   23.8620
C   16.4750   10.9760   23.2580
H   17.2340   11.5320   22.7170
C   15.1310   11.3650   23.2170
H   14.8330   12.3010   22.7540
C   14.1480   10.5800   23.8790
H   13.1240   10.9410   23.8510
C   14.5070   9.3760   24.4910
H   13.6960   8.7620   24.8720
C   15.8380   9.0020   24.5510
H   16.1540   8.1380   25.1280
C   10.9060   11.5230   15.8000
H   10.2660   12.1380   16.4450
H   11.8110   12.1010   15.5760
H   11.3030   10.7560   16.4760
C   10.1450   10.8230   14.6590
C   8.8800   11.1470   14.2680
H   8.3050   11.8430   14.8720
C   8.2310   10.3560   13.3000
H   7.1860   10.6060   13.1480
C   8.9080   9.2900   12.6040
H   8.3580   8.8160   11.7960
C   10.2410   9.0790   12.9680
H   10.7620   8.2900   12.4330
C   10.8540   9.7140   14.0870
H   11.8650   9.4940   14.4180
C   12.4900   20.4970   8.7300
H   11.7150   20.4740   7.9540
H   12.2270   19.9760   9.6590
H   13.3460   20.0150   8.2410
C   12.8650   21.9680   8.9270
C   12.1420   22.7970   9.8120
H   11.2610   22.4200   10.3220
C   12.3840   24.1720   9.8850
H   11.8920   24.7890   10.6310
C   13.4520   24.6990   9.1480
H   13.6750   25.7620   9.1740
C   14.2260   23.9500   8.2820
H   15.0110   24.4020   7.6830
C   13.8970   22.5400   8.1400
H   14.4070   21.9210   7.4080
C   25.2240   23.2580   12.7270
H   25.5120   24.3000   12.9180
H   24.9920   23.1420   11.6620
H   26.0960   22.6100   12.8790
C   24.1020   22.8110   13.7090
C   24.1040   23.2240   14.9730
H   24.9610   23.8230   15.2650
C   23.1140   22.7650   15.8740
H   23.0750   23.1170   16.9010
C   22.0540   21.9550   15.3630
H   21.3500   21.5740   16.0970
C   21.9790   21.6570   14.0120
H   21.2210   20.9940   13.6040
C   22.9780   22.0850   13.1860
H   22.9530   21.7500   12.1530
C   15.9690   24.2190   11.3740
H   16.8540   24.6850   11.8250
H   15.3350   25.1120   11.4330
H   16.1270   23.9390   10.3250
C   15.4160   23.1270   12.1800
C   15.0320   21.8940   11.5900
H   15.1170   21.7510   10.5170
C   14.4730   20.9160   12.4130
H   14.1800   19.9440   12.0280
C   14.3810   21.0610   13.7930
H   14.0500   20.2450   14.4290
C   14.8220   22.2110   14.4320
H   14.6700   22.2620   15.5060
C   15.2630   23.2580   13.6150
H   15.6250   24.2030   14.0110
C   7.9820   23.6640   20.2210
H   7.6700   24.1780   19.3030
H   8.8810   24.2110   20.5300
H   7.2090   23.8760   20.9700
C   8.2150   22.1450   20.0450
C   8.9820   21.3660   20.9660
H   9.4280   21.8310   21.8400
C   9.3410   20.0110   20.7260
H   9.9200   19.4750   21.4720
C   8.8720   19.3730   19.6080
H   9.2540   18.3910   19.3440
C   8.1140   20.1330   18.6130
H   7.8040   19.7260   17.6550
C   7.8120   21.5360   18.8670
H   7.2650   22.1110   18.1260
C   16.6400   17.6150   24.7630
H   16.2880   18.1500   25.6540
H   16.0580   17.8970   23.8770
H   17.6690   17.9180   24.5330
C   16.4320   16.1690   24.9640
C   17.4700   15.2850   24.7630
H   18.3820   15.6110   24.2700
C   17.2870   13.9420   25.1470
H   18.0430   13.2190   24.8550
C   16.0500   13.5080   25.7080
H   15.9690   12.4530   25.9550
C   15.0160   14.4460   25.9100
H   14.0840   14.0850   26.3350
C   15.2290   15.7710   25.5010
H   14.4230   16.4770   25.6750
C   9.8970   25.7470   14.8340
H   9.2600   26.2100   14.0700
H   10.9030   26.1810   14.8020
H   9.4340   25.9280   15.8120
C   10.1050   24.2760   14.5480
C   9.4830   23.4020   15.4380
H   8.7910   23.7840   16.1820
C   9.7180   22.0020   15.3700
H   9.2880   21.4530   16.2030
C   10.5190   21.4980   14.3610
H   10.5880   20.4200   14.2480
C   11.0160   22.3430   13.3520
H   11.7280   21.9650   12.6240
C   10.8610   23.7380   13.4830
H   11.4610   24.3570   12.8230
C   21.4460   7.1060   12.4470
H   20.6860   6.3340   12.6150
H   22.2500   6.4780   12.0440
H   21.0510   7.7230   11.6300
C   21.6030   8.0210   13.6490
C   21.7540   7.6760   14.9780
H   21.7640   6.6430   15.3150
C   21.9350   8.6230   16.0550
H   22.0640   8.3230   17.0910
C   22.1380   9.9860   15.6920
H   22.3350   10.8010   16.3830
C   22.0340   10.3260   14.3310
H   22.1590   11.3300   13.9360
C   21.6750   9.3700   13.3830
H   21.5590   9.7230   12.3630
C   22.9880   17.6800   12.2810
H   22.9180   16.8740   13.0210
H   23.7730   18.3620   12.6300
H   23.2480   17.2650   11.3000
C   21.6550   18.3490   12.1870
C   20.6220   18.0880   13.0570
H   20.7970   17.3350   13.8210
C   19.4340   18.7990   13.0450
H   18.7570   18.7330   13.8920
C   19.1760   19.7760   12.0220
H   18.2920   20.4060   12.0440
C   20.1570   19.9410   11.0580
H   19.9550   20.5700   10.1960
C   21.4170   19.2580   11.1840
H   22.2080   19.5330   10.4920
C   11.5670   16.9320   9.5720
H   12.2140   17.1360   8.7100
H   11.2820   15.8920   9.3700
H   12.1900   17.0270   10.4710
C   10.3380   17.8120   9.7330
C   9.4070   17.9080   8.6630
H   9.2760   17.1270   7.9200
C   8.4820   18.9870   8.6270
H   7.7350   19.0310   7.8400
C   8.4710   19.9600   9.6310
H   7.7480   20.7700   9.6540
C   9.3540   19.8350   10.7390
H   9.3650   20.4890   11.6050
C   10.1940   18.7130   10.7970
H   10.9300   18.6810   11.5950
C   12.7180   16.6050   23.0210
H   12.8130   16.8270   21.9510
H   13.7280   16.3210   23.3450
H   12.5000   17.5290   23.5710
C   11.8010   15.4010   23.1530
C   10.6200   15.4240   22.3970
H   10.4520   16.2470   21.7090
C   9.7560   14.2780   22.4410
H   8.8510   14.2660   21.8410
C   10.0090   13.2210   23.3230
H   9.3460   12.3640   23.2430
C   11.1890   13.1930   24.0600
H   11.5060   12.4190   24.7520
C   12.1210   14.2630   23.8890
H   13.0670   14.1720   24.4150
C   18.8420   17.6350   27.7520
H   18.1240   17.0240   28.3120
H   18.2540   18.2490   27.0590
H   19.3830   18.2440   28.4880
C   19.7860   16.8740   26.9420
C   20.9230   17.5130   26.3330
H   21.0460   18.5910   26.2770
C   21.9600   16.7460   25.6900
H   22.7590   17.2130   25.1220
C   21.8200   15.3540   25.7340
H   22.5620   14.8350   25.1340
C   20.7780   14.7860   26.4240
H   20.6730   13.7070   26.4980
C   19.7540   15.4920   26.9560
H   18.9700   15.0490   27.5620
C   25.2430   22.7500   18.9430
H   24.6510   23.3730   19.6240
H   24.6070   22.0920   18.3390
H   25.7690   23.4530   18.2840
C   26.2890   22.0890   19.8050
C   27.6530   22.5380   19.7650
H   27.8930   23.3990   19.1490
C   28.6720   21.9360   20.4790
H   29.6960   22.2960   20.4470
C   28.3120   20.9270   21.3620
H   29.1140   20.5670   22.0000
C   26.9480   20.4890   21.5060
H   26.7050   19.7450   22.2580
C   25.9360   21.0700   20.7010
H   24.8820   20.8350   20.8180
C   8.6660   14.0750   6.3660
H   9.5670   14.3180   5.7890
H   8.3130   15.1000   6.5330
H   8.0120   13.6260   5.6080
C   8.9520   13.1750   7.5700
C   9.2520   13.8780   8.7390
H   9.0790   14.9490   8.7860
C   9.7250   13.1670   9.8870
H   10.1540   13.6370   10.7670
C   9.7320   11.7360   9.9480
H   9.9080   11.1180   10.8230
C   9.4160   11.0830   8.7270
H   9.5500   10.0100   8.6190
C   9.0570   11.7790   7.5340
H   8.9280   11.2640   6.5870
C   8.9500   11.1620   20.3870
H   9.6770   10.3770   20.1430
H   8.1570   10.6850   20.9760
H   9.5010   11.9120   20.9680
C   8.2120   11.8340   19.2710
C   8.5700   13.1620   18.8940
H   9.3950   13.6460   19.4100
C   7.8880   13.7660   17.8650
H   8.0520   14.7920   17.5510
C   6.8730   13.0430   17.1600
H   6.3940   13.5060   16.3020
C   6.6020   11.7170   17.5240
H   5.9300   11.0650   16.9750
C   7.2670   11.0920   18.5130
H   6.9380   10.1170   18.8610
C   26.4570   12.4450   13.5550
H   27.1280   12.9590   14.2540
H   26.8800   12.5280   12.5470
H   26.3480   11.3870   13.8240
C   25.0650   13.0040   13.5080
C   24.3200   13.0670   12.3170
H   24.6950   12.4320   11.5200
C   23.1080   13.7070   12.1810
H   22.5800   13.8270   11.2400
C   22.5170   14.2950   13.4070
H   21.5280   14.7440   13.3850
C   23.1780   14.0720   14.6700
H   22.7680   14.3710   15.6300
C   24.4820   13.4620   14.6840
H   25.0670   13.3620   15.5930
C   17.5710   21.2480   6.8890
H   18.6510   21.3700   6.7390
H   17.1030   22.0750   7.4370
H   17.0720   21.3190   5.9150
C   17.2290   19.8820   7.3990
C   18.1980   19.0800   7.9940
H   19.2050   19.4850   8.0050
C   17.9790   17.8310   8.6610
H   18.7330   17.2870   9.2230
C   16.6260   17.3740   8.6220
H   16.3320   16.4460   9.1030
C   15.6520   18.0670   7.8430
H   14.6170   17.7430   7.7980
C   15.9210   19.3400   7.2650
H   15.0810   19.8910   6.8510
C   21.3760   21.0260   23.7240
H   20.4220   20.4870   23.7730
H   21.7020   21.4030   24.7020
H   22.0140   20.1900   23.4130
C   21.3200   22.2390   22.7430
C   21.4220   21.9180   21.3730
H   21.5590   20.8770   21.0950
C   21.1640   22.8820   20.4680
H   21.2420   22.6310   19.4150
C   20.8980   24.2170   20.9180
H   20.7360   25.0150   20.1990
C   20.8810   24.5300   22.2790
H   20.7390   25.5510   22.6190
C   21.0600   23.5250   23.2330
H   21.0710   23.7440   24.2960
C   13.4980   11.9160   9.8290
H   12.9760   11.0440   9.4180
H   12.8920   12.3220   10.6480
H   14.4620   11.6150   10.2580
C   13.7160   13.0320   8.7680
C   15.0200   13.6160   8.6070
H   15.8970   13.3430   9.1870
C   15.2000   14.6260   7.6390
H   16.2250   14.9300   7.4480
C   14.1260   14.9630   6.7830
H   14.1730   15.7170   6.0030
C   12.8520   14.5840   7.1130
H   12.0640   15.0130   6.5020
C   12.6470   13.5090   8.0450
H   11.7110   12.9710   8.1580
C   19.7440   10.5210   20.4450
H   19.1710   11.4550   20.4980
H   19.2620   9.7620   21.0740
H   19.7140   10.3290   19.3650
C   21.1430   10.7570   21.0140
C   22.2290   10.3180   20.2850
H   22.1500   9.9270   19.2750
C   23.5250   10.5680   20.8390
H   24.4000   10.2310   20.2920
C   23.7170   11.1630   22.0780
H   24.7300   11.2050   22.4680
C   22.5380   11.3930   22.8610
H   22.7390   11.7980   23.8480
C   21.2670   11.2310   22.2990
H   20.3950   11.6100   22.8240
C   29.8070   21.0370   16.6750
H   29.7320   22.0770   16.3350
H   30.3810   20.5460   15.8790
H   30.3680   20.9570   17.6140
C   28.4450   20.3010   16.9690
C   28.2260   19.5640   18.1860
H   29.0220   19.4550   18.9170
C   26.8940   19.1050   18.4470
H   26.6720   18.4880   19.3130
C   25.8510   19.3550   17.6180
H   24.8790   18.9520   17.8890
C   26.0900   20.0720   16.3750
H   25.2500   20.2200   15.7020
C   27.3720   20.5830   16.0780
H   27.4500   21.3560   15.3190
C   18.5500   10.0140   11.4130
H   18.7830   9.7570   12.4530
H   19.3500   9.5800   10.8000
H   17.6150   9.5640   11.0570
C   18.6360   11.5680   11.2050
C   19.5130   12.2330   10.3370
H   20.2410   11.5850   9.8580
C   19.5720   13.6310   10.2560
H   20.3650   14.1740   9.7510
C   18.5680   14.3480   10.9390
H   18.6520   15.4260   10.8390
C   17.6480   13.7120   11.7250
H   17.1040   14.3100   12.4500
C   17.7060   12.3240   11.9490
H   17.2340   11.8230   12.7890
C   22.1020   25.4310   5.5970
H   21.4160   26.2880   5.5930
H   21.7860   24.8510   4.7220
H   23.1330   25.7650   5.4260
C   21.9980   24.6230   6.8970
C   21.0770   23.5600   6.9970
H   20.5490   23.2000   6.1180
C   20.8770   22.8840   8.2000
H   20.2320   22.0110   8.2230
C   21.4880   23.3510   9.3830
H   21.2750   22.8260   10.3090
C   22.4070   24.4640   9.3180
H   22.8440   24.9190   10.2020
C   22.7460   25.0220   8.0470
H   23.4980   25.8030   7.9750
C   19.3550   18.5309   21.4536
H   20.1084   18.4707   22.2233
H   18.7538   19.4133   21.6336
H   19.8782   18.6770   20.5114
C   18.5154   17.2725   21.4267
C   17.1209   17.2943   21.2411
H   16.6192   18.2492   21.1133
C   16.3723   16.1179   21.2546
H   15.2973   16.1821   21.1352
C   16.9785   14.8847   21.4317
H   16.4070   13.9797   21.4103
C   18.3594   14.8509   21.6203
H   18.8732   13.9084   21.7594
C   19.1169   16.0197   21.6369
H   20.1720   15.9615   21.8266
