562
Image 0  Energy = -10167.1702670622
C   16.2777882344  15.9360953486  17.2797536238
C   18.6185112718  16.6526270904  16.8338241847
C   15.7655376550  17.3705464101  17.4476452583
C   19.3005563385  16.0238571171  18.0336498670
C   19.5497872673  16.7463997474  15.6468813952
N   17.4473575043  15.8594753453  16.4369000211
N   15.2459710931  15.0614823758  16.7620630671
O   15.2841239909  17.9209343482  16.2142388744
H   14.3448495954  17.7250249314  16.1699524471
H   17.1865483139  16.1214714208  15.4927684506
H   16.5663787209  15.5862124477  18.2690964485
H   18.3156521638  17.6608336596  17.1077032778
H   14.3847127307  15.2061007286  17.2849984366
H   15.0513774170  15.2840085306  15.7937160164
H   16.5690580702  18.0114196242  17.7949871030
H   14.9846418607  17.3668643009  18.2157810842
H   20.1140850900  16.6648194187  18.3961203550
H   18.9697170944  16.8235970609  14.7306197710
H   19.7051965251  15.0524824242  17.7706186640
H   18.6004469097  15.8793576094  18.8495587170
H   20.1991371753  17.6113471791  15.7233135321
H   20.1677779117  15.8447610447  15.5885133531
C   31.0130004883  13.4689998627  20.5000000000
H   31.2490005493  12.6099996567  21.1410007477
H   31.6000003815  14.3579998016  20.7590007782
H   31.3090000153  13.1730003357  19.4860000610
C   29.5240001678  13.6929998398  20.5109996796
C   28.9489994049  14.9820003510  20.4599990845
H   29.6229991913  15.8190002441  20.3029994965
C   27.5459995270  15.1780004501  20.4020004272
H   27.1240005493  16.1709995270  20.2789993286
C   26.7509994507  14.0909996033  20.7819995880
H   25.6720008850  14.1250000000  20.8969993591
C   27.2929992676  12.7880001068  20.7299995422
H   26.5470008850  12.0120000839  20.8740005493
C   28.6889991760  12.5880002975  20.6520004272
H   29.0429992676  11.5649995804  20.7439994812
C   9.2209997177  14.9750003815  13.0480003357
H   9.9180002213  14.2170000076  12.6700000763
H   8.7250003815  15.4390001297  12.1859998703
H   8.5459995270  14.3879995346  13.6809997559
C   9.9499998093  16.0790004730  13.9259996414
C   11.1730003357  16.6700000763  13.5290002823
H   11.6949996948  16.2329998016  12.6829996109
C   11.7790002823  17.6499996185  14.3809995651
H   12.6890001297  18.1940002441  14.1470003128
C   11.0579996109  18.1189994812  15.4870004654
H   11.4490003586  19.0069999695  15.9739999771
C   9.8789997101  17.5550003052  15.8260002136
H   9.3990001678  17.9039993286  16.7360000610
C   9.3470001221  16.4720001221  15.1090002060
H   8.3400001526  16.1840000153  15.3940000534
C   13.1040000916  20.9489994049  22.1229991913
H   12.1099996567  21.0699996948  22.5720005035
H   13.3280000687  19.8759994507  22.1569995880
H   12.9300003052  21.4440002441  21.1599998474
C   14.1719999313  21.7290000916  22.9409999847
C   13.9779996872  23.0550003052  23.3640003204
H   12.9879999161  23.4780006409  23.2220001221
C   14.9569997787  23.7089996338  24.0979995728
H   14.8719997406  24.7369995117  24.4370002747
C   16.0909996033  23.0189990997  24.4909992218
H   16.8239994049  23.5569992065  25.0839996338
C   16.3390007019  21.7000007629  24.0259990692
H   17.2959995270  21.2059993744  24.1580009460
C   15.3479995728  21.0720005035  23.2660007477
H   15.4870004654  20.1110000610  22.7800006866
C   22.3269996643  16.0930004120  8.4029998779
H   22.3260002136  16.2600002289  9.4870004654
H   21.4309997559  15.6719999313  7.9299998283
H   22.4190006256  17.0690002441  7.9109997749
C   23.4930000305  15.2320003510  7.9250001907
C   24.6760005951  15.8079996109  7.3600001335
H   24.7169990540  16.8840007782  7.2220001221
C   25.8339996338  15.0550003052  7.0100002289
H   26.7290000916  15.6049995422  6.7360000610
C   25.7140007019  13.6409997940  7.1510000229
H   26.5440006256  12.9840002060  6.9070000648
C   24.5170001984  13.0839996338  7.6510000229
H   24.4139995575  12.0139999390  7.8020000458
C   23.4279994965  13.8620004654  7.9640002251
H   22.4619998932  13.4499998093  8.2419996262
C   13.3769998550  8.3710002899  11.1840000153
H   13.9280004501  8.9300003052  11.9499998093
H   12.7729997635  7.5980000496  11.6750001907
H   12.7469997406  9.0620002747  10.6099996567
C   14.2950000763  7.7300000191  10.0939998627
C   14.0089998245  6.4759998322  9.6239995956
H   13.0769996643  6.0180001259  9.9390001297
C   14.8900003433  5.7890000343  8.7340002060
H   14.6040000916  4.8470001221  8.2740001678
C   16.0939998627  6.4029998779  8.4280004501
H   16.8169994354  5.9829998016  7.7360000610
C   16.3239994049  7.7020001411  8.8800001144
H   17.2290000916  8.1990003586  8.5439996719
C   15.3900003433  8.3769998550  9.6669998169
H   15.4989995956  9.4409999847  9.8549995422
C   22.3719997406  27.5750007629  12.3439998627
H   22.6739997864  28.6259994507  12.2519998550
H   21.8659992218  27.2749996185  11.4180002213
H   23.3360004425  27.0639991760  12.4639997482
C   21.5860004425  27.1639995575  13.5380001068
C   20.6270008087  26.1270008087  13.4709997177
H   20.5230007172  25.5769996643  12.5399999619
C   19.8190002441  25.9080009460  14.6070003510
H   19.0410003662  25.1529998779  14.6739997864
C   19.8330001831  26.8129997253  15.6809997559
H   19.1800003052  26.6280002594  16.5279998779
C   20.7150001526  27.8320007324  15.6879997253
H   20.6749992371  28.5049991608  16.5389995575
C   21.6509990692  27.9300003052  14.6879997253
H   22.3640003204  28.7490005493  14.7159996033
C   26.3229999542  15.1719999313  24.4190006256
H   27.1730003357  15.7810001373  24.7530002594
H   26.9099998474  14.3730001450  23.9500007629
H   25.8349990845  14.6809997559  25.2700004578
C   25.2980003357  15.8310003281  23.5699996948
C   25.3309993744  17.2269992828  23.3880004883
H   26.0259990692  17.7849998474  24.0090007782
C   24.4239997864  17.8360004425  22.4699993134
H   24.3120002747  18.9080009460  22.3349990845
C   23.4799995422  16.9710006714  21.8509998322
H   22.7299995422  17.3880004883  21.1860008240
C   23.4349994659  15.6140003204  22.0990009308
H   22.6180000305  15.0159997940  21.7070007324
C   24.3990001678  15.0550003052  22.9540004730
H   24.2709999084  14.0399999619  23.3190002441
C   12.5310001373  21.3929996490  17.8850002289
H   13.2139997482  21.0900001526  17.0820007324
H   11.5950002670  21.6280002594  17.3640003204
H   12.3059997559  20.6590003967  18.6679992676
C   13.0319995880  22.5830001831  18.7360000610
C   12.2150001526  23.1989994049  19.6560001373
H   11.1450004578  23.0160007477  19.6539993286
C   12.8149995804  24.0790004730  20.5839996338
H   12.1470003128  24.6520004272  21.2210006714
C   14.2069997787  24.1490001678  20.7110004425
H   14.6569995880  24.8010005951  21.4529991150
C   15.0790004730  23.3670005798  19.9599990845
H   16.1550006866  23.3649997711  20.1040000916
C   14.4560003281  22.6229991913  18.9389991760
H   15.0290002823  21.9489994049  18.3099994659
C   14.8830003738  6.8569998741  21.3950004578
H   14.5830001831  5.8039999008  21.4680004120
H   14.1110000610  7.5640001297  21.0690002441
H   14.9540004730  7.1620001793  22.4459991455
C   16.2700004578  6.9730000496  20.7719993591
C   17.3369998932  6.4109997749  21.5060005188
H   17.0909996033  5.8819999695  22.4209995270
C   18.6389999390  6.6199998856  20.9559993744
H   19.4860000610  6.2069997787  21.4969997406
C   18.8360004425  7.1840000153  19.6870002747
H   19.8020000458  7.2849998474  19.2010002136
C   17.7740001678  7.7919998169  19.0310001373
H   17.9360008240  8.3529996872  18.1149997711
C   16.4720001221  7.7039999962  19.5680007935
H   15.6289997101  8.1750001907  19.0709991455
C   14.8159999847  10.5740003586  15.3719997406
H   14.3439998627  11.0039997101  14.4799995422
H   15.1400003433  11.3900003433  16.0289993286
H   13.9829998016  10.0439996719  15.8500003815
C   15.8760004044  9.5729999542  14.9300003052
C   15.5810003281  8.3739995956  14.2259998322
H   14.5360002518  8.2410001755  13.9630002975
C   16.5459995270  7.4790000916  13.7060003281
H   16.2099990845  6.6290001869  13.1199998856
C   17.8519992828  7.6230001450  14.2370004654
H   18.6539993286  6.9359998703  13.9849996567
C   18.1870002747  8.7030000687  14.9949998856
H   19.2350006104  8.8199996948  15.2580003738
C   17.2460002899  9.6850004196  15.4350004196
H   17.6779994965  10.4650001526  16.0550003052
C   8.0649995804  7.4039998055  17.5739994049
H   8.1269998550  8.0850000381  16.7159996033
H   7.5599999428  7.9239997864  18.3969993591
H   7.4879999161  6.4980001450  17.3479995728
C   9.4790000916  7.0659999847  18.0079994202
C   10.5439996719  7.9759998322  17.7649993896
H   10.3730001450  8.9449996948  17.3059997559
C   11.8290004730  7.6370000839  18.2639999390
H   12.7100000381  8.2510004044  18.1009998322
C   12.0089998245  6.4899997711  19.0189990997
H   13.0129995346  6.2290000916  19.3400001526
C   10.9610004425  5.6079998016  19.2070007324
H   11.1879997253  4.6979999542  19.7549991608
C   9.6610002518  5.8390002251  18.6639995575
H   8.8970003128  5.0799999237  18.8040008545
C   18.2399997711  9.3350000381  23.8980007172
H   18.4220008850  9.0030002594  24.9279994965
H   18.8889999390  10.1800003052  23.6389999390
H   18.3460006714  8.4309997559  23.2859992981
C   16.8430004120  9.7989997864  23.8619995117
C   16.4750003815  10.9759998322  23.2579994202
H   17.2339992523  11.5319995880  22.7169990540
C   15.1309995651  11.3649997711  23.2169990540
H   14.8330001831  12.3009996414  22.7539997101
C   14.1479997635  10.5799999237  23.8789997101
H   13.1239995956  10.9409999847  23.8509998322
C   14.5069999695  9.3760004044  24.4909992218
H   13.6960000992  8.7620000839  24.8719997406
C   15.8380002975  9.0019998550  24.5510005951
H   16.1539993286  8.1379995346  25.1280002594
C   10.9060001373  11.5229997635  15.8000001907
H   10.2659997940  12.1379995346  16.4449996948
H   11.8109998703  12.1009998322  15.5760002136
H   11.3030004501  10.7559995651  16.4759998322
C   10.1450004578  10.8229999542  14.6590003967
C   8.8800001144  11.1470003128  14.2679996490
H   8.3050003052  11.8430004120  14.8719997406
C   8.2309999466  10.3559999466  13.3000001907
H   7.1859998703  10.6059999466  13.1479997635
C   8.9079999924  9.2899999619  12.6040000916
H   8.3579998016  8.8159999847  11.7959995270
C   10.2410001755  9.0790004730  12.9680004120
H   10.7620000839  8.2899999619  12.4329996109
C   10.8540000916  9.7139997482  14.0869998932
H   11.8649997711  9.4940004349  14.4180002213
C   12.4899997711  20.4969997406  8.7299995422
H   11.7150001526  20.4740009308  7.9539999962
H   12.2270002365  19.9759998322  9.6590003967
H   13.3459997177  20.0149993896  8.2410001755
C   12.8649997711  21.9680004120  8.9270000458
C   12.1420001984  22.7970008850  9.8120002747
H   11.2609996796  22.4200000763  10.3219995499
C   12.3839998245  24.1720008850  9.8850002289
H   11.8920001984  24.7889995575  10.6309995651
C   13.4519996643  24.6989994049  9.1479997635
H   13.6750001907  25.7619991302  9.1739997864
C   14.2259998322  23.9500007629  8.2819995880
H   15.0109996796  24.4020004272  7.6830000877
C   13.8970003128  22.5400009155  8.1400003433
H   14.4069995880  21.9209995270  7.4079999924
C   25.2240009308  23.2579994202  12.7270002365
H   25.5119991302  24.2999992371  12.9180002213
H   24.9920005798  23.1420001984  11.6619997025
H   26.0960006714  22.6100006104  12.8789997101
C   24.1019992828  22.8110008240  13.7089996338
C   24.1040000916  23.2240009308  14.9729995728
H   24.9610004425  23.8229999542  15.2650003433
C   23.1140003204  22.7649993896  15.8739995956
H   23.0750007629  23.1170005798  16.9009990692
C   22.0540008545  21.9549999237  15.3629999161
H   21.3500003815  21.5739994049  16.0970001221
C   21.9790000916  21.6569995880  14.0120000839
H   21.2210006714  20.9939994812  13.6040000916
C   22.9780006409  22.0849990845  13.1859998703
H   22.9529991150  21.7500000000  12.1529998779
C   15.9689998627  24.2189998627  11.3739995956
H   16.8540000916  24.6849994659  11.8249998093
H   15.3350000381  25.1119995117  11.4329996109
H   16.1270008087  23.9389991760  10.3249998093
C   15.4160003662  23.1270008087  12.1800003052
C   15.0319995880  21.8939990997  11.5900001526
H   15.1169996262  21.7509994507  10.5170001984
C   14.4729995728  20.9160003662  12.4130001068
H   14.1800003052  19.9440002441  12.0279998779
C   14.3809995651  21.0610008240  13.7930002213
H   14.0500001907  20.2450008392  14.4289999008
C   14.8219995499  22.2110004425  14.4320001602
H   14.6700000763  22.2619991302  15.5059995651
C   15.2629995346  23.2579994202  13.6149997711
H   15.6250000000  24.2029991150  14.0109996796
C   7.9819998741  23.6639995575  20.2210006714
H   7.6700000763  24.1779994965  19.3029994965
H   8.8809995651  24.2110004425  20.5300006866
H   7.2090001106  23.8759994507  20.9699993134
C   8.2150001526  22.1450004578  20.0450000763
C   8.9820003510  21.3659992218  20.9659996033
H   9.4280004501  21.8309993744  21.8400001526
C   9.3409996033  20.0109996796  20.7259998322
H   9.9200000763  19.4750003815  21.4720001221
C   8.8719997406  19.3729991913  19.6079998016
H   9.2539997101  18.3910007477  19.3439998627
C   8.1140003204  20.1329994202  18.6130008698
H   7.8039999008  19.7259998322  17.6550006866
C   7.8119997978  21.5359992981  18.8670005798
H   7.2649998665  22.1110000610  18.1259994507
C   16.6399993896  17.6149997711  24.7630004883
H   16.2880001068  18.1499996185  25.6539993286
H   16.0580005646  17.8969993591  23.8770008087
H   17.6690006256  17.9179992676  24.5330009460
C   16.4319992065  16.1690006256  24.9640007019
C   17.4699993134  15.2849998474  24.7630004883
H   18.3819999695  15.6110000610  24.2700004578
C   17.2870006561  13.9420003891  25.1469993591
H   18.0429992676  13.2189998627  24.8549995422
C   16.0499992371  13.5080003738  25.7080001831
H   15.9689998627  12.4530000687  25.9549999237
C   15.0159997940  14.4460000992  25.9099998474
H   14.0839996338  14.0850000381  26.3349990845
C   15.2290000916  15.7709999084  25.5009994507
H   14.4230003357  16.4769992828  25.6749992371
C   9.8970003128  25.7469997406  14.8339996338
H   9.2600002289  26.2099990845  14.0699996948
H   10.9029998779  26.1809997559  14.8020000458
H   9.4340000153  25.9279994965  15.8120002747
C   10.1049995422  24.2759990692  14.5480003357
C   9.4829998016  23.4020004272  15.4379997253
H   8.7910003662  23.7840003967  16.1819992065
C   9.7180004120  22.0020008087  15.3699998856
H   9.2880001068  21.4529991150  16.2029991150
C   10.5190000534  21.4979991913  14.3610000610
H   10.5880002975  20.4200000763  14.2480001450
C   11.0159997940  22.3430004120  13.3520002365
H   11.7279996872  21.9650001526  12.6239995956
C   10.8610000610  23.7380008698  13.4829998016
H   11.4610004425  24.3570003510  12.8229999542
C   21.4459991455  7.1059999466  12.4469995499
H   20.6860008240  6.3340001106  12.6149997711
H   22.2500000000  6.4780001640  12.0439996719
H   21.0510005951  7.7230000496  11.6300001144
C   21.6030006409  8.0209999084  13.6490001678
C   21.7539997101  7.6760001183  14.9779996872
H   21.7639999390  6.6430001259  15.3149995804
C   21.9349994659  8.6230001450  16.0550003052
H   22.0639991760  8.3229999542  17.0909996033
C   22.1380004883  9.9860000610  15.6920003891
H   22.3349990845  10.8009996414  16.3829994202
C   22.0340003967  10.3260002136  14.3310003281
H   22.1590003967  11.3299999237  13.9359998703
C   21.6749992371  9.3699998856  13.3830003738
H   21.5590000153  9.7229995728  12.3629999161
C   22.9880008698  17.6800003052  12.2810001373
H   22.9179992676  16.8740005493  13.0209999084
H   23.7730007172  18.3619995117  12.6300001144
H   23.2479991913  17.2649993896  11.3000001907
C   21.6550006866  18.3490009308  12.1870002747
C   20.6219997406  18.0879993439  13.0570001602
H   20.7970008850  17.3349990845  13.8210000992
C   19.4340000153  18.7989997864  13.0450000763
H   18.7569999695  18.7329998016  13.8920001984
C   19.1760005951  19.7759990692  12.0220003128
H   18.2919998169  20.4060001373  12.0439996719
C   20.1569995880  19.9409999847  11.0579996109
H   19.9549999237  20.5699996948  10.1960000992
C   21.4169998169  19.2579994202  11.1840000153
H   22.2080001831  19.5330009460  10.4919996262
C   11.5670003891  16.9319992065  9.5719995499
H   12.2139997482  17.1359996796  8.7100000381
H   11.2819995880  15.8920001984  9.3699998856
H   12.1899995804  17.0270004272  10.4709997177
C   10.3380002975  17.8120002747  9.7329998016
C   9.4069995880  17.9080009460  8.6630001068
H   9.2760000229  17.1270008087  7.9200000763
C   8.4820003510  18.9869995117  8.6269998550
H   7.7350001335  19.0310001373  7.8400001526
C   8.4709997177  19.9599990845  9.6309995651
H   7.7480001450  20.7700004578  9.6540002823
C   9.3540000916  19.8349990845  10.7390003204
H   9.3649997711  20.4890003204  11.6049995422
C   10.1940002441  18.7129993439  10.7969999313
H   10.9300003052  18.6809997559  11.5950002670
C   12.7180004120  16.6049995422  23.0209999084
H   12.8129997253  16.8269996643  21.9510002136
H   13.7279996872  16.3209991455  23.3449993134
H   12.5000000000  17.5289993286  23.5709991455
C   11.8009996414  15.4010000229  23.1529998779
C   10.6199998856  15.4239997864  22.3969993591
H   10.4519996643  16.2469997406  21.7089996338
C   9.7559995651  14.2779998779  22.4409999847
H   8.8509998322  14.2659997940  21.8409996033
C   10.0089998245  13.2209997177  23.3229999542
H   9.3459997177  12.3640003204  23.2430000305
C   11.1890001297  13.1929998398  24.0599994659
H   11.5059995651  12.4189996719  24.7520008087
C   12.1210002899  14.2629995346  23.8889999390
H   13.0670003891  14.1719999313  24.4150009155
C   18.8419990540  17.6350002289  27.7520008087
H   18.1240005493  17.0240001678  28.3120002747
H   18.2539997101  18.2490005493  27.0590000153
H   19.3829994202  18.2439994812  28.4880008698
C   19.7859992981  16.8740005493  26.9419994354
C   20.9230003357  17.5130004883  26.3330001831
H   21.0459995270  18.5909996033  26.2770004272
C   21.9599990845  16.7460002899  25.6900005341
H   22.7590007782  17.2129993439  25.1219997406
C   21.8199996948  15.3540000916  25.7339992523
H   22.5620002747  14.8350000381  25.1340007782
C   20.7779998779  14.7860002518  26.4239997864
H   20.6730003357  13.7069997787  26.4979991913
C   19.7539997101  15.4919996262  26.9559993744
H   18.9699993134  15.0489997864  27.5620002747
C   25.2430000305  22.7500000000  18.9430007935
H   24.6509990692  23.3729991913  19.6240005493
H   24.6070003510  22.0919990540  18.3390007019
H   25.7689990997  23.4529991150  18.2840003967
C   26.2889995575  22.0890007019  19.8050003052
C   27.6529998779  22.5380001068  19.7649993896
H   27.8929996490  23.3990001678  19.1490001678
C   28.6720008850  21.9360008240  20.4790000916
H   29.6959991455  22.2959995270  20.4470005035
C   28.3120002747  20.9270000458  21.3619995117
H   29.1140003204  20.5669994354  22.0000000000
C   26.9479999542  20.4890003204  21.5060005188
H   26.7049999237  19.7450008392  22.2579994202
C   25.9360008240  21.0699996948  20.7010002136
H   24.8819999695  20.8349990845  20.8180007935
C   8.6660003662  14.0749998093  6.3660001755
H   9.5670003891  14.3179998398  5.7890000343
H   8.3129997253  15.1000003815  6.5329999924
H   8.0120000839  13.6260004044  5.6079998016
C   8.9519996643  13.1750001907  7.5700001717
C   9.2519998550  13.8780002594  8.7390003204
H   9.0790004730  14.9490003586  8.7860002518
C   9.7250003815  13.1669998169  9.8870000839
H   10.1540002823  13.6370000839  10.7670001984
C   9.7320003510  11.7360000610  9.9479999542
H   9.9079999924  11.1180000305  10.8229999542
C   9.4160003662  11.0830001831  8.7270002365
H   9.5500001907  10.0100002289  8.6190004349
C   9.0570001602  11.7790002823  7.5339999199
H   8.9280004501  11.2639999390  6.5869998932
C   8.9499998093  11.1619997025  20.3869991302
H   9.6770000458  10.3769998550  20.1429996490
H   8.1569995880  10.6850004196  20.9759998322
H   9.5010004044  11.9119997025  20.9680004120
C   8.2119998932  11.8339996338  19.2709999084
C   8.5699996948  13.1619997025  18.8939990997
H   9.3950004578  13.6459999084  19.4099998474
C   7.8880000114  13.7659997940  17.8649997711
H   8.0520000458  14.7919998169  17.5510005951
C   6.8730001450  13.0430002213  17.1599998474
H   6.3940000534  13.5059995651  16.3020000458
C   6.6020002365  11.7170000076  17.5240001678
H   5.9299998283  11.0649995804  16.9750003815
C   7.2670001984  11.0920000076  18.5130004883
H   6.9380002022  10.1169996262  18.8610000610
C   26.4570007324  12.4449996948  13.5550003052
H   27.1280002594  12.9589996338  14.2539997101
H   26.8799991608  12.5279998779  12.5469999313
H   26.3479995728  11.3870000839  13.8240003586
C   25.0650005341  13.0039997101  13.5080003738
C   24.3199996948  13.0670003891  12.3170003891
H   24.6949996948  12.4320001602  11.5200004578
C   23.1079998016  13.7069997787  12.1809997559
H   22.5799999237  13.8269996643  11.2399997711
C   22.5170001984  14.2950000763  13.4069995880
H   21.5279998779  14.7440004349  13.3850002289
C   23.1779994965  14.0719995499  14.6700000763
H   22.7679996490  14.3710002899  15.6300001144
C   24.4820003510  13.4619998932  14.6840000153
H   25.0669994354  13.3620004654  15.5930004120
C   17.5709991455  21.2479991913  6.8889999390
H   18.6509990692  21.3700008392  6.7389998436
H   17.1030006409  22.0750007629  7.4369997978
H   17.0720005035  21.3190002441  5.9149999619
C   17.2290000916  19.8819999695  7.3990001678
C   18.1979999542  19.0799999237  7.9939999580
H   19.2049999237  19.4850006104  8.0050001144
C   17.9790000916  17.8309993744  8.6610002518
H   18.7329998016  17.2870006561  9.2229995728
C   16.6259994507  17.3740005493  8.6219997406
H   16.3320007324  16.4459991455  9.1029996872
C   15.6520004272  18.0669994354  7.8429999352
H   14.6169996262  17.7430000305  7.7979998589
C   15.9209995270  19.3400001526  7.2649998665
H   15.0810003281  19.8910007477  6.8509998322
C   21.3759994507  21.0259990692  23.7240009308
H   20.4220008850  20.4869995117  23.7730007172
H   21.7019996643  21.4029998779  24.7019996643
H   22.0139999390  20.1900005341  23.4130001068
C   21.3199996948  22.2390003204  22.7430000305
C   21.4220008850  21.9179992676  21.3729991913
H   21.5590000153  20.8770008087  21.0949993134
C   21.1639995575  22.8819999695  20.4680004120
H   21.2420005798  22.6310005188  19.4150009155
C   20.8980007172  24.2169990540  20.9179992676
H   20.7360000610  25.0149993896  20.1989994049
C   20.8810005188  24.5300006866  22.2789993286
H   20.7390003204  25.5510005951  22.6189994812
C   21.0599994659  23.5249996185  23.2329998016
H   21.0709991455  23.7439994812  24.2959995270
C   13.4980001450  11.9160003662  9.8290004730
H   12.9759998322  11.0439996719  9.4180002213
H   12.8920001984  12.3219995499  10.6479997635
H   14.4619998932  11.6149997711  10.2580003738
C   13.7159996033  13.0319995880  8.7679996490
C   15.0200004578  13.6160001755  8.6070003510
H   15.8970003128  13.3430004120  9.1870002747
C   15.1999998093  14.6260004044  7.6389999390
H   16.2250003815  14.9300003052  7.4479999542
C   14.1260004044  14.9630002975  6.7829999924
H   14.1730003357  15.7170000076  6.0029997826
C   12.8520002365  14.5839996338  7.1129999161
H   12.0640001297  15.0129995346  6.5019998550
C   12.6470003128  13.5089998245  8.0450000763
H   11.7110004425  12.9709997177  8.1579999924
C   19.7439994812  10.5209999084  20.4449996948
H   19.1709995270  11.4549999237  20.4979991913
H   19.2619991302  9.7620000839  21.0739994049
H   19.7140007019  10.3290004730  19.3649997711
C   21.1429996490  10.7569999695  21.0139999390
C   22.2290000916  10.3179998398  20.2849998474
H   22.1499996185  9.9270000458  19.2749996185
C   23.5249996185  10.5679998398  20.8390007019
H   24.3999996185  10.2309999466  20.2919998169
C   23.7169990540  11.1630001068  22.0779991150
H   24.7299995422  11.2049999237  22.4680004120
C   22.5380001068  11.3929996490  22.8610000610
H   22.7390003204  11.7980003357  23.8479995728
C   21.2670001984  11.2309999466  22.2989997864
H   20.3950004578  11.6099996567  22.8239994049
C   29.8069992065  21.0370006561  16.6749992371
H   29.7320003510  22.0769996643  16.3349990845
H   30.3810005188  20.5459995270  15.8789997101
H   30.3680000305  20.9570007324  17.6140003204
C   28.4449996948  20.3010005951  16.9689998627
C   28.2259998322  19.5639991760  18.1860008240
H   29.0219993591  19.4549999237  18.9169998169
C   26.8939990997  19.1049995422  18.4470005035
H   26.6720008850  18.4880008698  19.3129997253
C   25.8509998322  19.3549995422  17.6180000305
H   24.8789997101  18.9519996643  17.8889999390
C   26.0900001526  20.0720005035  16.3750000000
H   25.2500000000  20.2199993134  15.7019996643
C   27.3719997406  20.5830001831  16.0779991150
H   27.4500007629  21.3560009003  15.3190002441
C   18.5499992371  10.0139999390  11.4130001068
H   18.7830009460  9.7569999695  12.4530000687
H   19.3500003815  9.5799999237  10.8000001907
H   17.6149997711  9.5640001297  11.0570001602
C   18.6359996796  11.5679998398  11.2049999237
C   19.5130004883  12.2329998016  10.3369998932
H   20.2409992218  11.5850000381  9.8579998016
C   19.5720005035  13.6309995651  10.2559995651
H   20.3649997711  14.1739997864  9.7510004044
C   18.5680007935  14.3479995728  10.9390001297
H   18.6520004272  15.4259996414  10.8389997482
C   17.6480007172  13.7119998932  11.7250003815
H   17.1040000916  14.3100004196  12.4499998093
C   17.7059993744  12.3240003586  11.9490003586
H   17.2339992523  11.8229999542  12.7889995575
C   22.1019992828  25.4309997559  5.5970001221
H   21.4160003662  26.2880001068  5.5929999352
H   21.7859992981  24.8509998322  4.7220001221
H   23.1329994202  25.7649993896  5.4260001183
C   21.9979991913  24.6229991913  6.8969998360
C   21.0769996643  23.5599994659  6.9970002174
H   20.5489997864  23.2000007629  6.1180000305
C   20.8770008087  22.8840007782  8.1999998093
H   20.2320003510  22.0109996796  8.2229995728
C   21.4880008698  23.3509998322  9.3830003738
H   21.2749996185  22.8260002136  10.3090000153
C   22.4069995880  24.4640007019  9.3179998398
H   22.8439998627  24.9190006256  10.2019996643
C   22.7460002899  25.0219993591  8.0469999313
H   23.4979991913  25.8029994965  7.9749999046
C   19.3550360136  18.5309256544  21.4535809364
H   20.1083913577  18.4707060290  22.2233113203
H   18.7537727339  19.4132675028  21.6335801901
H   19.8781765737  18.6770011748  20.5114127601
C   18.5153611123  17.2725221710  21.4267472273
C   17.1209130239  17.2943360139  21.2411204364
H   16.6191952485  18.2492218223  21.1133432527
C   16.3723111244  16.1179028937  21.2545627718
H   15.2972936806  16.1821269380  21.1351868354
C   16.9784697043  14.8846968156  21.4317357177
H   16.4069599634  13.9796940538  21.4103301498
C   18.3593955035  14.8508622465  21.6202595163
H   18.8732490820  13.9084353022  21.7593546015
C   19.1168828855  16.0196759813  21.6368616025
H   20.1719922650  15.9614664635  21.8266472453
