22
Image 0  Energy = -383.7224159538
C  -0.8710968119 -0.4499873372  0.4363401247
C   1.4546911463  0.3041291797 -0.0435280386
C  -1.4976060967  0.8878993265  0.8222180768
C   2.0450952209 -0.4038728963  1.1675927499
C   2.4374486162  0.2870423397 -1.2061308506
N   0.2323392408 -0.3585360374 -0.4979812348
N  -1.9088805950 -1.2167860417 -0.2519775193
O  -1.9863650293  1.5519238570 -0.3241448090
H  -2.4528853201  0.8706968831 -0.8345206664
H  -0.1026361660  0.1129151181 -1.3349384330
H  -0.5121615520 -0.9422172594  1.3477442230
H   1.2717443854  1.3554618256  0.2310338602
H  -2.6115885417 -1.5492675469  0.3997738141
H  -1.4816825940 -2.0237241140 -0.6943975859
H  -0.7562219078  1.5361088723  1.2936096024
H  -2.2977810910  0.7086123301  1.5563136576
H   2.9915326828  0.0630009860  1.4418277079
H   2.0082796368  0.7726501257 -2.0848226944
H   2.2276344745 -1.4558122699  0.9366725066
H   1.3921591305 -0.3512242513  2.0391978831
H   3.3602962026  0.8086936715 -0.9488833580
H   2.6775970151 -0.7440709921 -1.4725378683
