22
Image 0  Energy = -383.6556745394
C  -0.8731535569 -0.4712532650  0.4302325698
C   1.4464665952  0.2963727957 -0.0462090107
C  -1.4860208955  0.8732916451  0.8225939144
C   2.0538989652 -0.3938724862  1.1686429581
C   2.4341277653  0.3064415079 -1.2058455897
N   0.2379475490 -0.3944694238 -0.5003328306
N  -1.9208111094 -1.2262664998 -0.2577744944
O  -1.9530681936  1.5718315383 -0.3131991522
H  -2.4189708148  0.9140795756 -0.8500825637
H  -0.1008943209  0.0655195799 -1.3400471600
H  -0.5215784263 -0.9690238233  1.3408843685
H   1.2272968608  1.3403533284  0.2261636063
H  -2.6479776552 -1.5108499781  0.3865831071
H  -1.5149847944 -2.0578934823 -0.6696583980
H  -0.7480292104  1.5076036338  1.3137712158
H  -2.2957197592  0.6969398926  1.5445526302
H   3.0181880795  0.0561090217  1.4068265982
H   2.0132292779  0.8126208596 -2.0774065515
H   2.2100274364 -1.4549570364  0.9625428110
H   1.4265862817 -0.3050388663  2.0562616211
H   3.3530165600  0.8242210385 -0.9273412200
H   2.6803342426 -0.7181177466 -1.4926930761
