17
Image 0  Energy = -421.90257529
C  -2.0150774069  0.5009900075  0.0316565427
O  -2.0506409204  1.7089933989 -0.0104071010
C  -0.7880650573 -0.3575776995  0.0056812505
C   0.5087754474  0.4337803236 -0.0838284970
C   1.8020425575 -0.3600229877 -0.1295953746
O   1.7993076247 -1.5948532431 -0.1110493204
C   3.0249797475  0.4550715549 -0.0322636441
O   4.5760352993  2.5795873204  0.2678824081
H  -2.9851432656 -0.0356156756  0.0951596935
H  -0.8280242540 -0.9851874887  0.9024930165
H  -0.8986209347 -1.0497298815 -0.8336801876
H   0.5463670583  1.1099186912  0.7721534616
H   0.5010406773  1.0580994876 -0.9766318359
H   2.8767865049  1.0160962428  0.8869510896
H   3.8029737762  1.4285397462 -0.2950748703
H   3.8589532219 -0.2238261804 -0.0538864375
H   4.8183099131  3.1857362345 -0.4355601935
17
Image 1  Energy = -421.90365194
C  -1.9939719446  0.4953461368  0.0245841181
O  -2.0551741534  1.6992678283 -0.0083346705
C  -0.7619399216 -0.3225086579 -0.0069965681
C   0.5195080083  0.4924516397 -0.0830356250
C   1.7933469794 -0.3500697009 -0.1227981782
O   1.7316692507 -1.5772877368 -0.2976799138
C   3.0420645679  0.3748277038  0.1188411538
O   4.4646055380  2.5262227475  0.1106218393
H  -2.9405180155 -0.0758366310  0.0867771077
H  -0.7765119912 -0.9605526123  0.8821323125
H  -0.8419077238 -1.0238676576 -0.8416817388
H   0.5633521078  1.1661063096  0.7755254515
H   0.4884245810  1.1121264795 -0.9798100029
H   2.9709253789  0.8685054234  1.0651692291
H   3.7229196318  1.5996813553 -0.2451355592
H   3.8939785809 -0.2948013787  0.0959960941
H   4.7292297408  3.1403883193 -0.5741750898
17
Image 2  Energy = -421.92567475
C  -2.0001427340  0.4916808815  0.0265531668
O  -2.0786029414  1.7057566438 -0.0033623135
C  -0.7540081565 -0.3145987341 -0.0022191456
C   0.5308298644  0.4839527193 -0.0602137934
C   1.7996337699 -0.3773214810 -0.1202927410
O   1.6704040550 -1.5819602800 -0.4339298438
C   2.9950279188  0.2855454603  0.1807543814
O   4.4460495183  2.5351828173  0.0862527382
H  -2.9391748505 -0.0912857599  0.0842787605
H  -0.7712254098 -0.9576904406  0.8839690486
H  -0.8268722255 -1.0102117088 -0.8411754250
H   0.5769114679  1.1666832869  0.7818509499
H   0.5133708232  1.0928154287 -0.9652038941
H   2.9176766888  0.9332693108  1.0646518669
H   3.8939016778  1.7446521728 -0.1431222767
H   3.8982574632 -0.3203109709  0.1289218696
H   4.6779639117  3.0838401032 -0.6677133232
17
Image 3  Energy = -421.95544011
C  -2.0117464158  0.4792730081  0.0348379371
O  -2.1165187052  1.6915160121  0.0240654732
C  -0.7667656476 -0.3093467077  0.0068914212
C   0.5221233915  0.4834862198 -0.0686380555
C   1.7718509715 -0.4024628183 -0.1338198347
O   1.6229714026 -1.5749428318 -0.5923827803
C   2.9516124277  0.2022037323  0.2926789935
O   4.6203896602  2.6089892013  0.0640645386
H  -2.9438415099 -0.1150543199  0.0757752326
H  -0.7743894671 -0.9465089334  0.8963655786
H  -0.8135650647 -1.0151451287 -0.8246630112
H   0.5923972648  1.1624179714  0.7752720761
H   0.5040190927  1.0931257834 -0.9700012929
H   2.8586653527  0.9844384137  1.0330112423
H   4.0576981039  1.8095421555 -0.0530173449
H   3.8796448820 -0.3548678853  0.2119440051
H   4.5954554421  3.0733349195 -0.7723823796
17
Image 4  Energy = -421.91331987
C  -1.9760486580  0.5090695052  0.0154802914
O  -2.0724342831  1.7143257861  0.0029562152
C  -0.7080763610 -0.2763485932 -0.0215855232
C   0.5675016928  0.5393853908 -0.0639459565
C   1.8163017490 -0.3244689371 -0.1133620748
O   1.6966805569 -1.5189761123 -0.4090588742
C   3.0934985926  0.3143361207  0.2217328016
O   4.2708755422  2.7510403577  0.0647344180
H  -2.9008825137 -0.1005351644  0.0662245331
H  -0.7262029577 -0.9267715344  0.8590665997
H  -0.7719886834 -0.9592079827 -0.8714042154
H   0.6148709946  1.2193717169  0.7850649469
H   0.5837675059  1.1683259287 -0.9563457992
H   3.0553366869  0.6982813970  1.2381267241
H   3.4099416833  1.2867244933 -0.2571894111
H   3.9219583154 -0.3769735380  0.1370374991
H   4.6749010412  3.1524210017 -0.6975315768
17
Image 5  Energy = -421.95585717
C  -2.0073002718  0.4795465230  0.0352569676
O  -2.1158444676  1.6897554284  0.0307083511
C  -0.7551715074 -0.3059680434  0.0038999829
C   0.5298361264  0.4961876245 -0.0610830005
C   1.7910580922 -0.3736777021 -0.1405986032
O   1.6600204142 -1.5295494727 -0.6342005479
C   2.9655833137  0.2296232253  0.3030560188
O   4.5757458809  2.5551745625  0.0311275711
H  -2.9385051460 -0.1218560993  0.0718717357
H  -0.7637304970 -0.9495198981  0.8898017276
H  -0.8058081532 -1.0048448504 -0.8330477910
H   0.5859281796  1.1735791787  0.7863519360
H   0.5156079481  1.1084496280 -0.9617341261
H   2.8606780440  0.9814026540  1.0751754459
H   4.0079610041  1.7584723741 -0.0531237525
H   3.8865894462 -0.3454651897  0.2576456031
H   4.5573523072  3.0286902061 -0.8011065023
17
Image 6  Energy = -421.92777694
C  -1.8171028858  0.3194548277  0.5175953670
O  -1.9069761067  1.4571697159  0.9123468473
C  -0.7558771653 -0.2555104677 -0.3502261143
C   0.5213686219  0.5693937964 -0.5159010491
C   1.7930795641 -0.2340821969 -0.1697418324
O   1.9875183063 -1.2669592998 -0.8816036036
C   2.5676153026  0.2657765169  0.8497474586
O   4.7754798238  2.4695838619 -0.0455286708
H  -2.6210951795 -0.3928486257  0.7979928329
H  -0.5299475267 -1.2493692289  0.0420023322
H  -1.2501136911 -0.4525001592 -1.3080915991
H   0.4545494488  1.4831124329  0.0676107937
H   0.6207125423  0.8717322954 -1.5581444827
H   2.1455277849  0.9119504301  1.6100189271
H   4.2174141034  1.6793104991 -0.0839987334
H   3.5517231831 -0.1451324904  1.0448357874
H   4.7961236908  2.8389179816 -0.9289143963
