17
Image 0  Energy = -421.91223593
C  -1.9796071670  0.5173571043  0.0145639889
O  -2.0712527858  1.7157678145  0.0004625630
C  -0.7113895236 -0.2766548242 -0.0199423241
C   0.5672112170  0.5327309861 -0.0586535713
C   1.8127964980 -0.3403725906 -0.0958190747
O   1.7018805116 -1.5374296671 -0.3566100546
C   3.0898538354  0.3213022821  0.1941465632
O   4.2792228876  2.7356185722  0.1120751793
H  -2.9039370072 -0.0968340531  0.0632448288
H  -0.7325403828 -0.9275670178  0.8591750375
H  -0.7752879663 -0.9559204287 -0.8717161481
H   0.6161188238  1.2139475265  0.7883346411
H   0.5964422562  1.1537932575 -0.9540158618
H   3.0824187922  0.7482528049  1.1935045520
H   3.3623569515  1.2566876273 -0.3503006174
H   3.9230232015 -0.3627970448  0.1078773770
H   4.6926901289  3.1721173078 -0.6263270069
17
Image 1  Energy = -421.89069034
C  -1.9717225985  0.5137855803  0.0137013967
O  -2.0702365349  1.7149692290  0.0079579456
C  -0.7008635806 -0.2718299271 -0.0274608811
C   0.5715125606  0.5535672232 -0.0638587675
C   1.8213192574 -0.3290280924 -0.1099439745
O   1.6719359773 -1.5102008552 -0.4083295376
C   3.1084892356  0.2938770446  0.2363143638
O   4.1799871117  2.7585036365  0.0086766704
H  -2.8962162394 -0.1016261423  0.0605769852
H  -0.7168462826 -0.9283449087  0.8490637404
H  -0.7531024802 -0.9528571395 -0.8796942826
H   0.6207950696  1.2288043466  0.7881589751
H   0.5841255514  1.1855646164 -0.9531272905
H   3.0491935561  0.6257408063  1.2701015935
H   3.4693188545  1.3709109555 -0.1994617328
H   3.9191463490 -0.4166393991  0.1387030509
H   4.6631650051  3.1348029562 -0.7313777624
17
Image 2  Energy = -421.94939693
C  -2.0140686633  0.4937219966  0.0317064118
O  -2.0804838954  1.7041089420 -0.0078854021
C  -0.7902898961 -0.3365269302  0.0072952496
C   0.5062276003  0.4415584263 -0.0685538867
C   1.7657940480 -0.4332683340 -0.0932562662
O   1.6315358648 -1.6660197978 -0.3221868313
C   2.9521143290  0.2723376986  0.1324880050
O   4.6123714727  2.5507921822  0.1762860168
H  -2.9624849390 -0.0754674612  0.0952076392
H  -0.8097017330 -0.9737218438  0.8960494816
H  -0.8733273980 -1.0357904379 -0.8276534158
H   0.5618967320  1.1338948843  0.7690702293
H   0.4932547346  1.0434682993 -0.9772494353
H   2.8752310353  1.0617065006  0.8637874974
H   4.0436907200  1.8045094634 -0.1356916604
H   3.8905990579 -0.2578285109  0.0226260830
H   4.7476403020  3.1425254357 -0.5620396704
17
Image 3  Energy = -421.93107887
C  -1.7752926865  0.2649013928  0.5385804100
O  -1.9240474619  1.3995443818  0.9275761613
C  -0.7200447105 -0.2344026259 -0.3767732988
C   0.5307065106  0.6306178747 -0.5313868996
C   1.8026873179 -0.1757437906 -0.2034303004
O   2.0102772225 -1.1639349316 -0.9721226633
C   2.5393365839  0.2588653485  0.8745640757
O   4.8275118468  2.4045718703 -0.0775619161
H  -2.5235453178 -0.4946160800  0.8476028087
H  -0.4225835652 -1.2377440198 -0.0657168414
H  -1.2471814359 -0.3837814942 -1.3256162744
H   0.4496927108  1.5313913382  0.0724110349
H   0.6151097819  0.9334256620 -1.5727550105
H   2.1228610673  0.9823192735  1.5654426121
H   4.1784176417  1.7097049986  0.1252712390
H   3.4746447912 -0.2172438545  1.1499685509
H   4.6114494739  2.6621244334 -0.9760545309
17
Image 4  Energy = -421.91156550
C  -0.6965876409 -0.1632963846  0.9984835040
O  -1.2654408704  0.7914012458  1.6931920397
C  -0.6669040989  0.0912153225 -0.5652474023
C   0.6302083142  0.8271544359 -0.8439223299
C   1.6007011523  0.4511236133  0.2495968795
O   2.7822517852  0.7352731669  0.2378792906
C   0.8850739454 -0.3335921866  1.3058638403
O   5.0430833981  2.2790350349 -0.6871531628
H  -1.1763836156 -1.1761468544  1.0983548880
H  -0.7093895335 -0.8530504949 -1.1160907485
H  -1.5320391050  0.6826010003 -0.8674570543
H   0.4997133808  1.9078811639 -0.7883110678
H   1.0810198984  0.5902926645 -1.8086881288
H   1.2236425504 -1.3739094015  1.2350722171
H   4.6701357688  1.4667120784 -1.0343522190
H   1.2089226133  0.0284364947  2.2873215747
H   4.9719920808  2.9188691960 -1.3945418994
