17
Image 0  Energy = -421.94768610
C  -2.0120500570  0.4930224868  0.0309100403
O  -2.0734759953  1.7035750504 -0.0068054287
C  -0.7896368998 -0.3400653575  0.0040600461
C   0.5027106959  0.4451607593 -0.0714886165
C   1.7719725768 -0.4149257752 -0.0943775876
O   1.6663575450 -1.6550620380 -0.2845933862
C   2.9542400961  0.3044930925  0.1044838016
O   4.6159593478  2.5077495310  0.1782957647
H  -2.9643595385 -0.0697376053  0.0933804091
H  -0.8104733599 -0.9782753680  0.8919166148
H  -0.8776274692 -1.0380585048 -0.8312796921
H   0.5526793292  1.1324230525  0.7713582920
H   0.4842089299  1.0517613422 -0.9775191282
H   2.8804982709  1.0463331700  0.8856092572
H   4.0162700207  1.7927595331 -0.1747708357
H   3.8866429704 -0.2426704626  0.0168017031
H   4.7460840314  3.1315170845 -0.5359811546
17
Image 1  Energy = -421.95025797
C  -2.0179025589  0.4871801660  0.0327972038
O  -2.0899961066  1.6977056472 -0.0018854814
C  -0.7890926419 -0.3348092592  0.0050359910
C   0.5033030007  0.4513230728 -0.0722836018
C   1.7652892212 -0.4194395564 -0.0977487530
O   1.6347494712 -1.6468235964 -0.3586865649
C   2.9498584066  0.2762030532  0.1583614433
O   4.6528942194  2.5244808481  0.1471830027
H  -2.9639570898 -0.0863705863  0.0942116025
H  -0.8033120350 -0.9717987860  0.8943506502
H  -0.8680491907 -1.0344487142 -0.8294292319
H   0.5567168699  1.1423967888  0.7661686616
H   0.4872163163  1.0532955115 -0.9816811817
H   2.8653564345  1.0542446793  0.9017282451
H   4.0563831314  1.7908041193 -0.1370358519
H   3.8858955030 -0.2598953264  0.0550308508
H   4.7246477783  3.1459514389 -0.5761167970
17
Image 2  Energy = -421.93606767
C  -2.0262304051  0.4847779480  0.0348839134
O  -2.1069035081  1.6894869330  0.0034930972
C  -0.7865872450 -0.3299793983  0.0058053016
C   0.5028113135  0.4576616424 -0.0734503311
C   1.7575277704 -0.4283076396 -0.1036162841
O   1.6069977666 -1.6285305851 -0.4322933037
C   2.9451342227  0.2469349427  0.2126625572
O   4.6926951163  2.5415692257  0.1160718611
H  -2.9658267661 -0.1042393790  0.0952280505
H  -0.7957098495 -0.9658891192  0.8972742435
H  -0.8585136819 -1.0312953128 -0.8275312612
H   0.5611955848  1.1532120144  0.7610722126
H   0.4905958137  1.0557040880 -0.9869089059
H   2.8487990902  1.0598156511  0.9190042353
H   4.0979274866  1.7889664993 -0.1005125534
H   3.8851930982 -0.2786532401  0.0955912428
H   4.7008948149  3.1587648946 -0.6167738152
17
Image 3  Energy = -421.93689045
C  -2.0358602006  0.4704552063  0.0414618073
O  -2.1211763646  1.6749926900  0.0132883743
C  -0.7919792276 -0.3371379062  0.0072686390
C   0.4874635153  0.4638949919 -0.0873174599
C   1.7507128994 -0.4093081494 -0.1229053006
O   1.6123616520 -1.6040614933 -0.4785179177
C   2.9314959975  0.2616479911  0.2223720537
O   4.7818812683  2.5255434528  0.1127665268
H  -2.9713915323 -0.1244250671  0.1051914261
H  -0.7899750144 -0.9640663815  0.9057971334
H  -0.8655371692 -1.0468858753 -0.8187310458
H   0.5447683993  1.1603174681  0.7472058276
H   0.4579190154  1.0584712814 -1.0032815264
H   2.8196443534  1.1094155640  0.8837183283
H   4.1847501296  1.7636200658 -0.0407423500
H   3.8703151693 -0.2700934233  0.1305861024
H   4.6846078218  3.1376192804 -0.6181603262
17
Image 4  Energy = -421.93858877
C  -2.0293935784  0.4752732752  0.0379614067
O  -2.1173834914  1.6800286876  0.0194176146
C  -0.7831639459 -0.3288478350  0.0072645093
C   0.4989018105  0.4702298186 -0.0761234011
C   1.7584366482 -0.4121459348 -0.1231540252
O   1.6124844637 -1.5874087456 -0.5349880331
C   2.9375484615  0.2328189981  0.2693729617
O   4.7461918567  2.5503142549  0.0717116098
H  -2.9633511490 -0.1236534534  0.0908229834
H  -0.7854406665 -0.9596073991  0.9033728750
H  -0.8483737527 -1.0361845990 -0.8214039879
H   0.5589627234  1.1600514612  0.7622000771
H   0.4747531698  1.0712747466 -0.9869604366
H   2.8284750378  1.0777679694  0.9349615337
H   4.1554859609  1.7755258917 -0.0323800522
H   3.8799276823 -0.2918424192  0.1697912653
H   4.6259395535  3.1164057563 -0.6918670731
17
Image 5  Energy = -421.93930059
C  -2.0325804510  0.4653789352  0.0442573897
O  -2.1339994032  1.6691087819  0.0253254943
C  -0.7780093704 -0.3244463308  0.0061187529
C   0.4956520771  0.4856861675 -0.0929250952
C   1.7573061985 -0.3930982647 -0.1408300944
O   1.6194743756 -1.5552012442 -0.5925518590
C   2.9304352250  0.2331110366  0.2943916265
O   4.7703248483  2.5266121234  0.0680948646
H  -2.9591182699 -0.1440289423  0.1047134732
H  -0.7663655537 -0.9503498227  0.9059689761
H  -0.8436943726 -1.0373321587 -0.8176195623
H   0.5537831442  1.1868649557  0.7365421484
H   0.4628092534  1.0738144403 -1.0119117519
H   2.8195203134  1.0728176370  0.9658998963
H   4.1692986642  1.7577615893 -0.0230444670
H   3.8691849532 -0.2996041293  0.2090574965
H   4.6159787456  3.1029037925 -0.6814873549
17
Image 6  Energy = -421.93915817
C  -2.0493253113  0.4500033007  0.0563071370
O  -2.1551616426  1.6532466569  0.0293451334
C  -0.7915312103 -0.3350247227  0.0082629500
C   0.4740160171  0.4841111342 -0.1164745141
C   1.7458115992 -0.3815918068 -0.1583708886
O   1.6157236153 -1.5530039073 -0.5878924212
C   2.9169767170  0.2599174750  0.2590243258
O   4.8604831476  2.5346327728  0.1164060192
H  -2.9729487921 -0.1617600882  0.1333780385
H  -0.7639825066 -0.9518739441  0.9140431855
H  -0.8665068735 -1.0557005723 -0.8079419318
H   0.5309219163  1.2000391128  0.7007535402
H   0.4257278368  1.0536477025 -1.0461335262
H   2.7967879405  1.1370414449  0.8785662336
H   4.3016337222  1.7372577757  0.0648468364
H   3.8541624330 -0.2782113237  0.1935539115
H   4.6272106375  3.0772712469 -0.6376752377
17
Image 7  Energy = -421.93875271
C  -2.0595205495  0.4432818614  0.0576396417
O  -2.1650986942  1.6465313280  0.0255197062
C  -0.8014447655 -0.3417345066  0.0106720915
C   0.4636042388  0.4778438789 -0.1192833353
C   1.7382962163 -0.3854519971 -0.1583003888
O   1.6073171542 -1.5680219398 -0.5565310325
C   2.9112908772  0.2714154858  0.2270885884
O   4.9029373158  2.5498779113  0.1518281252
H  -2.9837910738 -0.1676069790  0.1390135074
H  -0.7708195343 -0.9555983337  0.9182574032
H  -0.8782374363 -1.0651228469 -0.8030548837
H   0.5199521151  1.1970815375  0.6955114475
H   0.4138107441  1.0436763925 -1.0510996106
H   2.7853692322  1.1791023927  0.7987610033
H   4.3701246226  1.7373003986  0.1166624469
H   3.8523900587 -0.2598286575  0.1588381339
H   4.6438195227  3.0672524306 -0.6115231877
17
Image 8  Energy = -421.93858705
C  -2.0609494562  0.4400969234  0.0743605072
O  -2.1689892863  1.6430499723  0.0433933089
C  -0.8035438882 -0.3444121732  0.0063180230
C   0.4584676242  0.4766299205 -0.1367672554
C   1.7348200902 -0.3852866137 -0.1643859153
O   1.6089896235 -1.5715965907 -0.5517584591
C   2.9040373046  0.2757193844  0.2218019272
O   4.9201997387  2.5662880635  0.1700646356
H  -2.9826467850 -0.1704377748  0.1723524141
H  -0.7615129830 -0.9616987657  0.9110588254
H  -0.8955297552 -1.0648125097 -0.8086766573
H   0.5125360726  1.2069526751  0.6687741814
H   0.4058270045  1.0290184823 -1.0765938230
H   2.7726097471  1.2027613473  0.7585636710
H   4.4068655674  1.7425066780  0.1738109196
H   3.8485126732 -0.2497333948  0.1584146165
H   4.6503082397  3.0349568486 -0.6207312442
17
Image 9  Energy = -421.93895603
C  -2.0559378949  0.4431680015  0.0787517145
O  -2.1647844944  1.6461624854  0.0532204659
C  -0.7983917624 -0.3404070342  0.0020446470
C   0.4638188283  0.4812568912 -0.1393181782
C   1.7401467572 -0.3806344220 -0.1645646857
O   1.6180464240 -1.5601598631 -0.5726506616
C   2.9073010197  0.2701270601  0.2460860495
O   4.9022690607  2.5592149249  0.1470082799
H  -2.9766674680 -0.1689654317  0.1785288660
H  -0.7541537154 -0.9631464639  0.9029339925
H  -0.8952182015 -1.0561981726 -0.8164889782
H   0.5157144658  1.2135177761  0.6646494146
H   0.4124866706  1.0313643836 -1.0804158138
H   2.7731716119  1.1799153511  0.8105481267
H   4.3742189644  1.7427580310  0.1414381637
H   3.8483165810 -0.2628087994  0.1898831797
H   4.6396629668  3.0348365030 -0.6416545900
17
Image 10  Energy = -421.95530498
C  -2.0451097467  0.4427691428  0.0916559431
O  -2.1592277568  1.6505535358  0.0769664184
C  -0.7917027093 -0.3339206637 -0.0072095564
C   0.4719057720  0.4891360658 -0.1481386486
C   1.7478817322 -0.3679372926 -0.1639673419
O   1.6324854002 -1.5463452284 -0.6042957668
C   2.9070373549  0.2625102768  0.2830717169
O   4.8713019376  2.5492866964  0.1156090151
H  -2.9644882649 -0.1665278409  0.1988860433
H  -0.7378946133 -0.9689146555  0.8837421529
H  -0.8978615658 -1.0390312087 -0.8341233777
H   0.5193421916  1.2253826464  0.6515041200
H   0.4236259873  1.0324070774 -1.0922762168
H   2.7703467015  1.1496842665  0.8816334266
H   4.3202788945  1.7449804223  0.1052994099
H   3.8457499389 -0.2772446790  0.2437895403
H   4.6363281454  3.0232108293 -0.6821468484
17
Image 11  Energy = -421.95580447
C  -2.0351092873  0.4450568985  0.1113910378
O  -2.1533047365  1.6524059614  0.1138842759
C  -0.7815143537 -0.3264916926 -0.0221834219
C   0.4812105158  0.4990900584 -0.1614705956
C   1.7565850411 -0.3584724261 -0.1648695901
O   1.6518139346 -1.5259217901 -0.6346476901
C   2.9060308096  0.2580840003  0.3270026179
O   4.8322032769  2.5361943520  0.0825312782
H  -2.9503608061 -0.1681866427  0.2292405707
H  -0.7139075156 -0.9809695949  0.8534899251
H  -0.9020113512 -1.0139041019 -0.8620782509
H   0.5230530501  1.2414017914  0.6327570432
H   0.4397014367  1.0354956908 -1.1096162787
H   2.7597655215  1.1196651016  0.9592926678
H   4.2504948150  1.7491186452  0.0661234162
H   3.8400865235 -0.2909834926  0.3134701418
H   4.6452631860  2.9984171080 -0.7343169267
17
Image 12  Energy = -421.95654313
C  -2.0228031729  0.4438941816  0.1377980432
O  -2.1466061954  1.6505682805  0.1665666234
C  -0.7697077186 -0.3184135027 -0.0424841311
C   0.4898526879  0.5118288365 -0.1814540031
C   1.7646746301 -0.3455999620 -0.1633201218
O   1.6739357694 -1.5033657637 -0.6635630269
C   2.8949574010  0.2566165387  0.3817180863
O   4.7969381004  2.5203570412  0.0492439060
H  -2.9324986927 -0.1751572150  0.2660621511
H  -0.6809326173 -0.9984871839  0.8117837012
H  -0.9080775016 -0.9819430086 -0.8990169129
H   0.5223163149  1.2624916081  0.6053826020
H   0.4580507909  1.0375757387 -1.1358070916
H   2.7409986390  1.0997009414  1.0341063046
H   4.1890050476  1.7492151486  0.0345568748
H   3.8259828709 -0.2989766359  0.3870632786
H   4.6539133934  2.9596937717 -0.7886363104
17
Image 13  Energy = -421.95698368
C  -2.0095269290  0.4387393740  0.1741818343
O  -2.1411974998  1.6425344200  0.2469170817
C  -0.7580095053 -0.3080296409 -0.0701187844
C   0.4990410347  0.5273004792 -0.2095106239
C   1.7720478273 -0.3313557927 -0.1622107567
O   1.6974511123 -1.4808169537 -0.6837505455
C   2.8824334119  0.2589181976  0.4329574125
O   4.7643827940  2.5022016152  0.0214625496
H  -2.9106093298 -0.1913012379  0.3093929084
H  -0.6421184745 -1.0207467449  0.7536276906
H  -0.9223747716 -0.9386710276 -0.9469337728
H   0.5195109957  1.2905111578  0.5655180015
H   0.4818525042  1.0370272593 -1.1724841496
H   2.7135880694  1.0992895532  1.0855600350
H   4.1395409416  1.7412857018  0.0170237107
H   3.8077194671 -0.3043586685  0.4767022661
H   4.6562690179  2.9074725665 -0.8383352760
17
Image 14  Energy = -421.95721743
C  -1.9942004974  0.4286596225  0.2185060853
O  -2.1331420926  1.6264469297  0.3495921884
C  -0.7476991348 -0.2966824155 -0.1034573645
C   0.5065823096  0.5441897965 -0.2466413801
C   1.7777745478 -0.3150828022 -0.1628222207
O   1.7205436455 -1.4585000311 -0.7000476766
C   2.8644290786  0.2650776165  0.4816098598
O   4.7423493099  2.4845253863  0.0016267663
H  -2.8850475509 -0.2148205852  0.3575221927
H  -0.5998660523 -1.0457622063  0.6817927023
H  -0.9447256332 -0.8883065403 -1.0007858929
H   0.5138714331  1.3241663255  0.5116579114
H   0.5071506652  1.0311801296 -1.2210079154
H   2.6798126608  1.1108824130  1.1232919419
H   4.1092007725  1.7287022314  0.0167833079
H   3.7819488612 -0.3056252517  0.5695045539
H   4.6510172442  2.8509487300 -0.8771251950
17
Image 15  Energy = -421.93873906
C  -1.9725942496  0.4135627922  0.2693511074
O  -2.1146915872  1.6024893242  0.4616793097
C  -0.7377860469 -0.2865653436 -0.1432003132
C   0.5122753774  0.5610593184 -0.2905559983
C   1.7823692176 -0.3028049183 -0.1683075462
O   1.7365583393 -1.4323992836 -0.7125598703
C   2.8428002164  0.2763912926  0.5280453305
O   4.7282754898  2.4679910653 -0.0097231827
H  -2.8518293532 -0.2431570062  0.4189646307
H  -0.5571203333 -1.0771052570  0.5926121529
H  -0.9764982623 -0.8300652633 -1.0615894068
H   0.5068860222  1.3599222060  0.4481052946
H   0.5314188780  1.0228928492 -1.2761070049
H   2.6393210013  1.1305188590  1.1528417248
H   4.0930729367  1.7162459517  0.0331679716
H   3.7482331046 -0.3022167987  0.6640867461
H   4.6393090934  2.7932418364 -0.9068114613
17
Image 16  Energy = -421.93821610
C  -1.9492155036  0.3936887709  0.3221707741
O  -2.0909596752  1.5725845830  0.5679300401
C  -0.7364279285 -0.2767493301 -0.1883117910
C   0.5146311361  0.5726411096 -0.3350077214
C   1.7771916196 -0.2965805751 -0.1688531849
O   1.7282748049 -1.4367533100 -0.6910022159
C   2.8230416036  0.2860317741  0.5456691761
O   4.7211237982  2.4824399523  0.0054034674
H  -2.8133880818 -0.2772414357  0.4947280292
H  -0.5243159932 -1.1141821702  0.4826256402
H  -1.0203566326 -0.7600770285 -1.1281144566
H   0.5002606190  1.3892667271  0.3840176176
H   0.5532084423  1.0109725778 -1.3299554651
H   2.6041158467  1.1483548118  1.1542591452
H   4.0974497841  1.7229666352  0.0715734067
H   3.7171002423 -0.2986053415  0.7244007345
H   4.6482657181  2.7512435005 -0.9115333580
17
Image 17  Energy = -421.93769432
C  -1.9242983630  0.3763098031  0.3662423649
O  -2.0626727603  1.5476332445  0.6468895486
C  -0.7366973525 -0.2701431767 -0.2259465153
C   0.5164055871  0.5792207924 -0.3711537200
C   1.7771978384 -0.2866470968 -0.1695249489
O   1.7440424528 -1.4281100804 -0.6904472754
C   2.8019260793  0.2966902606  0.5722821138
O   4.7155261651  2.4806511694  0.0148228283
H  -2.7738938770 -0.3065085294  0.5638774246
H  -0.5031240495 -1.1466146642  0.3831781060
H  -1.0663706929 -0.6948899445 -1.1793309264
H   0.4942931275  1.4094582857  0.3317696767
H   0.5698127502  0.9968459431 -1.3738275322
H   2.5678505485  1.1648083304  1.1658592255
H   4.0931539797  1.7219280353  0.0978414531
H   3.6907762009 -0.2867442929  0.7787958189
H   4.6460717929  2.7161118836 -0.9113281045
17
Image 18  Energy = -421.93505357
C  -1.9008348634  0.3585212788  0.4046269952
O  -2.0392507075  1.5213230900  0.7076382366
C  -0.7335032500 -0.2638257467 -0.2574843192
C   0.5202113536  0.5897854435 -0.4038852472
C   1.7836156356 -0.2656879297 -0.1743757697
O   1.7699788769 -1.4139286031 -0.7099139447
C   2.7763339233  0.3069881157  0.5929763099
O   4.7193692176  2.4645573910  0.0231868254
H  -2.7346895769 -0.3390195680  0.6271714783
H  -0.4802795247 -1.1703184841  0.2965054571
H  -1.1023333931 -0.6389532886 -1.2172782598
H   0.4817953400  1.4355474380  0.2797876320
H   0.5796218665  0.9864390153 -1.4151379006
H   2.5316269991  1.1758024766  1.1862679096
H   4.0850905119  1.7164374849  0.1365082696
H   3.6641606007 -0.2716195018  0.8283390206
H   4.6290877546  2.6779521042 -0.9049320765
17
Image 19  Energy = -421.93489915
C  -1.8729322866  0.3402575327  0.4372917175
O  -2.0121863211  1.4968168237  0.7619953854
C  -0.7268778700 -0.2579318562 -0.2823973830
C   0.5231030373  0.6012984487 -0.4349313036
C   1.7880386212 -0.2448830412 -0.1842072701
O   1.8086912566 -1.3706790702 -0.7660794150
C   2.7387976256  0.3060260643  0.6463208499
O   4.7156443855  2.4480887265  0.0178853990
H  -2.6908980261 -0.3697424689  0.6784952856
H  -0.4573849543 -1.1861173399  0.2249185921
H  -1.1319965705 -0.5911673098 -1.2431964861
H   0.4767103403  1.4599840118  0.2318162893
H   0.5846044990  0.9766295731 -1.4535718777
H   2.4870931875  1.1848953896  1.2230050758
H   4.0789472477  1.7097421108  0.1633535852
H   3.6270753835 -0.2658672303  0.8949162528
H   4.6135704390  2.6326501282 -0.9156146191
17
Image 20  Energy = -421.93417911
C  -1.8480125967  0.3195674156  0.4687035355
O  -1.9903333739  1.4697014251  0.8130769564
C  -0.7245428631 -0.2515773053 -0.3083514459
C   0.5246059373  0.6106013847 -0.4658524648
C   1.7913051312 -0.2260320266 -0.1915695332
O   1.8496559174 -1.3253510131 -0.8202779450
C   2.6954489395  0.3027680029  0.7013924419
O   4.7445268620  2.4263994494 -0.0042221744
H  -2.6476849525 -0.4042893852  0.7307710032
H  -0.4432173349 -1.2019592962  0.1480407526
H  -1.1654799406 -0.5390840745 -1.2685457647
H   0.4701478463  1.4836980460  0.1809952537
H   0.5910709225  0.9635654986 -1.4920365491
H   2.4171399056  1.1577802384  1.3035564840
H   4.0858206784  1.7153661570  0.1609356435
H   3.5791985300 -0.2640115331  0.9749879559
H   4.6203497349  2.6328570838 -0.9316043377
17
Image 21  Energy = -421.93326253
C  -1.8407279156  0.3106404510  0.4804111716
O  -1.9834945978  1.4587700718  0.8309037206
C  -0.7272881305 -0.2507636259 -0.3194077803
C   0.5228595104  0.6104995899 -0.4759028170
C   1.7899503392 -0.2215799756 -0.1908180814
O   1.8771962070 -1.2968158929 -0.8579363487
C   2.6580195444  0.2869731345  0.7465948566
O   4.7809359356  2.4210480550 -0.0303516834
H  -2.6326026239 -0.4184708811  0.7514003535
H  -0.4434025408 -1.2113151258  0.1137276759
H  -1.1813683579 -0.5154502059 -1.2803057627
H   0.4634502859  1.4887594455  0.1626255850
H   0.5930963576  0.9559248498 -1.5046524167
H   2.3616082440  1.1255040660  1.3644429652
H   4.1174403890  1.7229567580  0.1444780750
H   3.5586450231 -0.2547261002  1.0134943735
H   4.6356827471  2.6580454929 -0.9487037874
17
Image 22  Energy = -421.93232866
C  -1.8308627372  0.3024444233  0.4924276105
O  -1.9707407336  1.4479978386  0.8519992274
C  -0.7289388587 -0.2497579515 -0.3307725843
C   0.5224532337  0.6107641777 -0.4862786287
C   1.7907149769 -0.2151674282 -0.1904270237
O   1.9109615792 -1.2653626644 -0.8923377781
C   2.6203374475  0.2722631931  0.7908302034
O   4.8078632352  2.4192738164 -0.0518477191
H  -2.6177085143 -0.4296433343  0.7699346721
H  -0.4446085175 -1.2207096561  0.0785933316
H  -1.1976039069 -0.4900051975 -1.2912588741
H   0.4577662222  1.4945980132  0.1435074916
H   0.5966361884  0.9464476924 -1.5181921805
H   2.2961083209  1.0862200359  1.4276738751
H   4.1514450988  1.7197453569  0.1202321099
H   3.5421564713 -0.2377078997  1.0473288346
H   4.6440206254  2.6786005143 -0.9614122741
17
Image 23  Energy = -421.93132158
C  -1.8194829177  0.3003295775  0.5050247306
O  -1.9483673511  1.4431208186  0.8771227197
C  -0.7325523016 -0.2486701278 -0.3412247887
C   0.5234740877  0.6055806268 -0.4977371025
C   1.7912208188 -0.2158652055 -0.1873946341
O   1.9371100505 -1.2508846860 -0.9072047149
C   2.5922431005  0.2637133923  0.8214062946
O   4.8169926642  2.4257940179 -0.0591685455
H  -2.6065217626 -0.4299191132  0.7864284563
H  -0.4520348672 -1.2296119027  0.0469969714
H  -1.2160155531 -0.4655482640 -1.2999199817
H   0.4563622898  1.4988902490  0.1180133147
H   0.6047221583  0.9259267890 -1.5342000033
H   2.2245870012  1.0294520228  1.4937588020
H   4.1691748613  1.7129192586  0.0753598836
H   3.5372285316 -0.2085166566  1.0659225864
H   4.6718582934  2.7132900596 -0.9631844475
17
Image 24  Energy = -421.93121001
C  -1.7975982202  0.2826885121  0.5220938908
O  -1.9362685567  1.4215737648  0.9025391519
C  -0.7260878832 -0.2414630512 -0.3590921465
C   0.5271231271  0.6182323694 -0.5147088656
C   1.7968636717 -0.1957109761 -0.1956687264
O   1.9736089820 -1.2080350117 -0.9404174169
C   2.5660386397  0.2615582881  0.8484375412
O   4.8225484030  2.4151971007 -0.0681229913
H  -2.5652974631 -0.4623982169  0.8172895760
H  -0.4369982414 -1.2342719797 -0.0093043688
H  -1.2317787138 -0.4246120418 -1.3134277472
H   0.4530214849  1.5153106833  0.0950748047
H   0.6099105917  0.9297412518 -1.5536146628
H   2.1736816033  1.0062108705  1.5302227398
H   4.1735840607  1.7110460612  0.1005317570
H   3.5061603403 -0.2128987946  1.1082184726
H   4.6414876212  2.6878315854 -0.9700517888
17
Image 25  Energy = -421.93107887
C  -1.7752926865  0.2649013928  0.5385804100
O  -1.9240474619  1.3995443818  0.9275761613
C  -0.7200447105 -0.2344026259 -0.3767732988
C   0.5307065106  0.6306178747 -0.5313868996
C   1.8026873179 -0.1757437906 -0.2034303004
O   2.0102772225 -1.1639349316 -0.9721226633
C   2.5393365839  0.2588653485  0.8745640757
O   4.8275118468  2.4045718703 -0.0775619161
H  -2.5235453178 -0.4946160800  0.8476028087
H  -0.4225835652 -1.2377440198 -0.0657168414
H  -1.2471814359 -0.3837814942 -1.3256162744
H   0.4496927108  1.5313913382  0.0724110349
H   0.6151097819  0.9334256620 -1.5727550105
H   2.1228610673  0.9823192735  1.5654426121
H   4.1784176417  1.7097049986  0.1252712390
H   3.4746447912 -0.2172438545  1.1499685509
H   4.6114494739  2.6621244334 -0.9760545309
17
Image 26  Energy = -421.93134019
C  -1.7551655965  0.2443581835  0.5498166393
O  -1.9214079085  1.3738642565  0.9463226321
C  -0.7116784552 -0.2258809921 -0.3947598864
C   0.5333403630  0.6494379592 -0.5459521108
C   1.8090519102 -0.1475132125 -0.2128344261
O   2.0459847692 -1.1150394566 -0.9983425818
C   2.5216398386  0.2663397229  0.8903864384
O   4.8258873111  2.3898958257 -0.0881962329
H  -2.4763333376 -0.5346119872  0.8740528510
H  -0.4073682062 -1.2352434954 -0.1121406436
H  -1.2536134270 -0.3521317844 -1.3387175996
H   0.4436829660  1.5484406161  0.0590674594
H   0.6173172500  0.9534976239 -1.5871827841
H   2.0934192056  0.9782623101  1.5855949139
H   4.1873190679  1.7031416425  0.1702973973
H   3.4373328185 -0.2357344144  1.1862949143
H   4.5605911127  2.6089173794 -0.9837078131
17
Image 27  Energy = -421.93331089
C  -1.7069037964  0.1831635822  0.5615793617
O  -1.9401743856  1.2947754017  0.9777311044
C  -0.6832350274 -0.1878928850 -0.4482517211
C   0.5496046291  0.7097983315 -0.5539334003
C   1.8118517077 -0.0978363251 -0.2036700214
O   2.0421002918 -1.0727071352 -0.9820290800
C   2.5229702468  0.3030269792  0.9048208170
O   4.7413266781  2.3653003509 -0.1306740703
H  -2.3403932604 -0.6539481725  0.9113063317
H  -0.3489423391 -1.2087954194 -0.2607892640
H  -1.2494452149 -0.2403851030 -1.3846305344
H   0.4412315248  1.5937364759  0.0698108652
H   0.6540879289  1.0374585660 -1.5867666501
H   2.1199453016  1.0539340337  1.5730501486
H   4.1822539047  1.7115866219  0.3250851178
H   3.3839541205 -0.2661366079  1.2429979984
H   4.3697678812  2.3449217849 -1.0156371760
