17
Image 0  Energy = -421.92084065
C  -1.9799731226  0.5151297064  0.0126900221
O  -2.0637332774  1.7207401409 -0.0070861517
C  -0.7239852380 -0.2867525749 -0.0128300255
C   0.5569890451  0.5086293438 -0.0481291775
C   1.7967024324 -0.3580541404 -0.0583174502
O   1.6976213146 -1.5765165404 -0.2297316515
C   3.0810643453  0.3473972703  0.1153674921
O   4.3705497523  2.7079892868  0.2237378052
H  -2.9106453306 -0.0870085404  0.0577072799
H  -0.7529989666 -0.9359373289  0.8677172861
H  -0.7911940024 -0.9635069507 -0.8662868947
H   0.6079014232  1.1980090778  0.7931618635
H   0.5985246714  1.1222977508 -0.9513790969
H   3.1304294566  0.8687885693  1.0702486216
H   3.2585954668  1.1831498761 -0.5577336072
H   3.9225863143 -0.3342416263  0.0538179177
H   4.7515657298  3.2398868579 -0.4629539484
17
Image 1  Energy = -421.92194752
C  -1.9796449374  0.5170541094  0.0133347724
O  -2.0686411044  1.7200125551 -0.0024911713
C  -0.7165411785 -0.2773719833 -0.0179243784
C   0.5655844694  0.5227778981 -0.0539541987
C   1.8047011033 -0.3526239675 -0.0751126078
O   1.6963950354 -1.5606883212 -0.2957894725
C   3.0869927666  0.3263323494  0.1615222451
O   4.3043986176  2.7385381463  0.1665608902
H  -2.9056844230 -0.0912567378  0.0606660192
H  -0.7400863267 -0.9291783047  0.8602376555
H  -0.7799261983 -0.9554084393 -0.8711538698
H   0.6161978489  1.2081727370  0.7897255215
H   0.6060979038  1.1385717382 -0.9526578995
H   3.1104051298  0.7975160508  1.1409833652
H   3.3058827110  1.2179572455 -0.4511232199
H   3.9242900218 -0.3539250201  0.0787293755
H   4.7195785035  3.2035192495 -0.5515529827
17
Image 2  Energy = -421.91223593
C  -1.9796071670  0.5173571043  0.0145639889
O  -2.0712527858  1.7157678145  0.0004625630
C  -0.7113895236 -0.2766548242 -0.0199423241
C   0.5672112170  0.5327309861 -0.0586535713
C   1.8127964980 -0.3403725906 -0.0958190747
O   1.7018805116 -1.5374296671 -0.3566100546
C   3.0898538354  0.3213022821  0.1941465632
O   4.2792228876  2.7356185722  0.1120751793
H  -2.9039370072 -0.0968340531  0.0632448288
H  -0.7325403828 -0.9275670178  0.8591750375
H  -0.7752879663 -0.9559204287 -0.8717161481
H   0.6161188238  1.2139475265  0.7883346411
H   0.5964422562  1.1537932575 -0.9540158618
H   3.0824187922  0.7482528049  1.1935045520
H   3.3623569515  1.2566876273 -0.3503006174
H   3.9230232015 -0.3627970448  0.1078773770
H   4.6926901289  3.1721173078 -0.6263270069
17
Image 3  Energy = -421.91331989
C  -1.9760486580  0.5090695052  0.0154802914
O  -2.0724342831  1.7143257861  0.0029562152
C  -0.7080763610 -0.2763485932 -0.0215855232
C   0.5675016928  0.5393853908 -0.0639459565
C   1.8163017490 -0.3244689371 -0.1133620748
O   1.6966805569 -1.5189761123 -0.4090588742
C   3.0934985926  0.3143361207  0.2217328016
O   4.2708755422  2.7510403577  0.0647344180
H  -2.9008825137 -0.1005351644  0.0662245331
H  -0.7262029577 -0.9267715344  0.8590665997
H  -0.7719886834 -0.9592079827 -0.8714042154
H   0.6148709946  1.2193717169  0.7850649469
H   0.5837675059  1.1683259287 -0.9563457992
H   3.0553366869  0.6982813970  1.2381267241
H   3.4099416833  1.2867244933 -0.2571894111
H   3.9219583154 -0.3769735380  0.1370374991
H   4.6749010412  3.1524210017 -0.6975315768
