17
Image 0  Energy = -421.92084064
C  -1.9799731226  0.5151297064  0.0126900221
O  -2.0637332774  1.7207401409 -0.0070861517
C  -0.7239852380 -0.2867525749 -0.0128300255
C   0.5569890451  0.5086293438 -0.0481291775
C   1.7967024324 -0.3580541404 -0.0583174502
O   1.6976213146 -1.5765165404 -0.2297316515
C   3.0810643453  0.3473972703  0.1153674921
O   4.3705497523  2.7079892868  0.2237378052
H  -2.9106453306 -0.0870085404  0.0577072799
H  -0.7529989666 -0.9359373289  0.8677172861
H  -0.7911940024 -0.9635069507 -0.8662868947
H   0.6079014232  1.1980090778  0.7931618635
H   0.5985246714  1.1222977508 -0.9513790969
H   3.1304294566  0.8687885693  1.0702486216
H   3.2585954668  1.1831498761 -0.5577336072
H   3.9225863143 -0.3342416263  0.0538179177
H   4.7515657298  3.2398868579 -0.4629539484
17
Image 1  Energy = -421.92295013
C  -1.9616778373  0.5404862601  0.0099112151
O  -2.0491732743  1.7438718840 -0.0036097902
C  -0.7047267977 -0.2613209932 -0.0132710147
C   0.5882771401  0.5199644970 -0.0419059209
C   1.8154502496 -0.3702813042 -0.0658134768
O   1.6948361573 -1.5828703532 -0.2550645996
C   3.1042703519  0.3032966476  0.1344598878
O   4.1280504660  2.7938691159  0.1749499970
H  -2.8855345780 -0.0706870876  0.0450639338
H  -0.7456052465 -0.9190765317  0.8593258617
H  -0.7726054999 -0.9290097762 -0.8742468447
H   0.6529459779  1.2002638880  0.8053849447
H   0.6336543056  1.1346103905 -0.9402200684
H   3.1336996595  0.7918406159  1.1035560118
H   3.3149183554  1.1867548500 -0.4903785215
H   3.9310246741 -0.3861101344  0.0598679961
H   4.6721952794  3.1743968714 -0.5080094812
17
Image 2  Energy = -421.88808794
C  -1.9570585702  0.5285375177  0.0074624540
O  -2.0439085509  1.7322321823  0.0057603706
C  -0.6922020984 -0.2679545075 -0.0241252704
C   0.5879079597  0.5502337039 -0.0484295210
C   1.8192887581 -0.3536509555 -0.0786872647
O   1.6330102683 -1.5482868027 -0.2688158298
C   3.1161278262  0.2831924441  0.1521814858
O   4.0451965312  2.7495459760  0.0820975842
H  -2.8893758854 -0.0757154883  0.0437043814
H  -0.7290604941 -0.9375376708  0.8432162589
H  -0.7374595158 -0.9420114889 -0.8840908530
H   0.6443249866  1.2224525058  0.8062023567
H   0.6222075896  1.1818096705 -0.9370777803
H   3.1330904743  0.7239293278  1.1425270177
H   3.3937085843  1.3003184218 -0.3535790256
H   3.9479901422 -0.3980840349  0.0696720962
H   4.6562113315  3.1209885398 -0.5580191953
17
Image 3  Energy = -421.89172652
C  -1.9585844017  0.5189658884  0.0100821880
O  -2.0522562306  1.7222990071  0.0106934034
C  -0.6895777238 -0.2681138056 -0.0255715747
C   0.5823517493  0.5594541541 -0.0521142844
C   1.8267767883 -0.3318169566 -0.1019011936
O   1.6452174424 -1.5208077568 -0.3735472650
C   3.1105490086  0.2781021120  0.1986130554
O   4.0683178644  2.7051627230  0.0390167438
H  -2.8896976242 -0.0898283680  0.0534149407
H  -0.7189618925 -0.9358614111  0.8429163190
H  -0.7245939518 -0.9470032008 -0.8808605857
H   0.6364458817  1.2334627654  0.8009244395
H   0.6023520895  1.1911990968 -0.9409405109
H   3.0862980419  0.6932709445  1.1947563503
H   3.4719227115  1.4081410588 -0.2419744985
H   3.9329430997 -0.4086726070  0.1316113985
H   4.6204978076  3.0620462516 -0.6651189566
17
Image 4  Energy = -421.89529837
C  -1.9654510841  0.5132741630  0.0134356681
O  -2.0640213233  1.7172132401  0.0081732144
C  -0.6993662616 -0.2726979220 -0.0215699212
C   0.5790133595  0.5470825917 -0.0504452379
C   1.8272679665 -0.3344866634 -0.1133941472
O   1.6739883950 -1.5160865148 -0.4336111690
C   3.0999643732  0.2943939289  0.2142901188
O   4.1228504183  2.6564289908  0.0406389927
H  -2.8957165226 -0.0919755948  0.0605845265
H  -0.7226719938 -0.9339311304  0.8526702798
H  -0.7420852099 -0.9549526989 -0.8747181357
H   0.6238492349  1.2245328300  0.7990623631
H   0.5893098557  1.1757600218 -0.9408675333
H   3.0533537334  0.7317011462  1.2043684272
H   3.5377757875  1.4960673134 -0.2133913903
H   3.9197882919 -0.4118819946  0.1490598076
H   4.6121519801  3.0295579152 -0.6942854930
17
Image 5  Energy = -421.89692755
C  -1.9688052851  0.5119093552  0.0139606174
O  -2.0698050744  1.7156673674  0.0073081276
C  -0.7008920172 -0.2708529827 -0.0232612269
C   0.5772792398  0.5499639525 -0.0543980830
C   1.8296925135 -0.3296296403 -0.1162825837
O   1.6808372183 -1.5087112003 -0.4499379556
C   3.1049527356  0.2929034427  0.2322410409
O   4.1323586476  2.6878946447  0.0213021859
H  -2.8957860629 -0.0995936235  0.0601423262
H  -0.7172776047 -0.9317178207  0.8516476867
H  -0.7468246105 -0.9534314871 -0.8762161276
H   0.6154782059  1.2269817061  0.7962205514
H   0.5799080914  1.1814308109 -0.9443347850
H   3.0409427326  0.6958241319  1.2368507443
H   3.5671495882  1.5068561794 -0.1562517393
H   3.9095317786 -0.4317457517  0.1400001394
H   4.6112604452  3.0262500889 -0.7389900532
17
Image 6  Energy = -421.90708401
C  -1.9707650847  0.5122545961  0.0135624921
O  -2.0785699822  1.7175868759  0.0049785056
C  -0.7033388955 -0.2640830620 -0.0212957101
C   0.5826416731  0.5451423251 -0.0504959327
C   1.8202840585 -0.3692950962 -0.1018894715
O   1.6543336145 -1.5433777707 -0.4750639848
C   3.0742504644  0.2310975410  0.2554721144
O   4.1065787846  2.6478044232  0.0237612460
H  -2.8984752769 -0.1007799033  0.0600203356
H  -0.7156068272 -0.9305432634  0.8512574394
H  -0.7480530660 -0.9496286307 -0.8737770133
H   0.6200775412  1.2267063522  0.7960993935
H   0.5888013579  1.1730193831 -0.9447525570
H   3.0376182985  0.7413836080  1.2142854858
H   3.6868120575  1.6919040507 -0.1382183938
H   3.9098474565 -0.4539271009  0.1216710647
H   4.5835643983  2.9947344027 -0.7356143074
17
Image 7  Energy = -421.91319678
C  -1.9697028142  0.5133957919  0.0133126143
O  -2.0857316928  1.7179946410  0.0075209613
C  -0.7003590141 -0.2583240004 -0.0197570603
C   0.5889182304  0.5435248179 -0.0417552125
C   1.8135974432 -0.3942839310 -0.0954257389
O   1.6309599817 -1.5558952812 -0.5143101254
C   3.0502656130  0.1705554817  0.2873941760
O   4.0704655357  2.7155869988  0.0154744574
H  -2.8953446475 -0.1030296378  0.0552410786
H  -0.7139831794 -0.9324663818  0.8462272156
H  -0.7345382842 -0.9388281333 -0.8754100418
H   0.6297655752  1.2234722712  0.8077994606
H   0.6045944803  1.1716915985 -0.9361750351
H   3.0381928333  0.7509237304  1.2046265358
H   3.7311571355  1.7820821947 -0.1355160448
H   3.9015758323 -0.4919511314  0.1343120665
H   4.5901685562  2.9555515369 -0.7535591157
17
Image 8  Energy = -421.93514699
C  -1.9572593567  0.5173436993  0.0152702626
O  -2.0800470889  1.7205855445  0.0303728617
C  -0.6879054642 -0.2514688233 -0.0190923629
C   0.6018728041  0.5420791552 -0.0243306042
C   1.8038325957 -0.4163397520 -0.1099945119
O   1.5809770421 -1.5300233474 -0.6545853608
C   3.0214833220  0.0746235850  0.3720240495
O   4.0032373583  2.8308230772 -0.0773938371
H  -2.8794299817 -0.1030546148  0.0393798329
H  -0.6972613734 -0.9349787306  0.8385621986
H  -0.6907421744 -0.9270293139 -0.8785713939
H   0.6612346735  1.1936686578  0.8455781420
H   0.6364195650  1.1770823848 -0.9104948625
H   3.0199158395  0.7732619340  1.2016689613
H   3.6974444916  1.8928285837 -0.0794071115
H   3.8981390077 -0.5551322962  0.2227152302
H   4.6180898455  2.8657298128 -0.8117004094
17
Image 9  Energy = -421.94196125
C  -1.9625514739  0.5128112861  0.0226812550
O  -2.0892066780  1.7150231687  0.0570517798
C  -0.6921448890 -0.2540294728 -0.0154731481
C   0.5959977456  0.5365875984 -0.0323698075
C   1.7947567023 -0.4160624651 -0.1397219657
O   1.5979569732 -1.4966535053 -0.7588815304
C   2.9799313662  0.0388252984  0.4322388000
O   4.1255393359  2.8389527544 -0.0650302492
H  -2.8799471439 -0.1148058531  0.0296896727
H  -0.6974846224 -0.9314840901  0.8453419028
H  -0.6880083201 -0.9361842949 -0.8691908172
H   0.6730885460  1.1663793410  0.8492377377
H   0.6036431713  1.1865670498 -0.9053428589
H   2.9320651449  0.8071641839  1.1946068272
H   3.7970476761  1.9152343856 -0.0260497820
H   3.8878068965 -0.5445638655  0.2957805724
H   4.5715099797  2.8462385291 -0.9145677878
17
Image 10  Energy = -421.94256126
C  -1.9767044119  0.4937220951  0.0314037137
O  -2.1077904917  1.6946648269  0.0784818844
C  -0.7049202183 -0.2673764028 -0.0099306662
C   0.5713827433  0.5386758030 -0.0443229712
C   1.7957809916 -0.3880408506 -0.1598438456
O   1.6424773112 -1.4444409452 -0.8222880512
C   2.9534109915  0.0729654459  0.4662652820
O   4.3617656730  2.7450291185 -0.0666495043
H  -2.8940402402 -0.1344393559  0.0279418687
H  -0.7035612991 -0.9328488713  0.8611287668
H  -0.7035552122 -0.9551902705 -0.8575896667
H   0.6505378679  1.1726225739  0.8366768884
H   0.5642199604  1.1905556649 -0.9177755793
H   2.8652233037  0.8607258101  1.2019224519
H   3.9476501592  1.8626502473  0.0182454494
H   3.8648969995 -0.5052102143  0.3720778643
H   4.4232283195  2.8659344597 -1.0157439737
17
Image 11  Energy = -421.94237760
C  -2.0033574216  0.4764565549  0.0404489353
O  -2.1294029047  1.6780525216  0.0761309561
C  -0.7328201020 -0.2922217928 -0.0024499979
C   0.5403082890  0.5240272673 -0.0712104738
C   1.7922500549 -0.3645851472 -0.1655255668
O   1.6661935646 -1.4388076663 -0.8084131306
C   2.9367934079  0.1510101513  0.4448970896
O   4.6063107426  2.6073042975 -0.0542056634
H  -2.9236953119 -0.1488232025  0.0523992215
H  -0.7278458035 -0.9315525017  0.8885872859
H  -0.7587610301 -0.9966689134 -0.8362748194
H   0.6094833118  1.1856253756  0.7881721747
H   0.5167272152  1.1507144711 -0.9630422973
H   2.8178353864  0.9534999597  1.1628575758
H   4.0606610668  1.7916487121 -0.0005406682
H   3.8586994589 -0.4169186645  0.3816048952
H   4.4206214117  2.9412378154 -0.9334347643
17
Image 12  Energy = -421.94067800
C  -2.0170453275  0.4704158373  0.0390383309
O  -2.1302876982  1.6757415462  0.0482175986
C  -0.7541666173 -0.3057861954  0.0038501002
C   0.5197007049  0.5105240162 -0.0809833412
C   1.7677711632 -0.3865398823 -0.1473484961
O   1.6181752784 -1.4944685236 -0.7312239538
C   2.9186161572  0.1590595202  0.4219972752
O   4.6995644398  2.5622297013 -0.0057521045
H  -2.9388424632 -0.1520297861  0.0728305594
H  -0.7397764109 -0.9369330660  0.9015754886
H  -0.7742162542 -1.0220299867 -0.8225985303
H   0.5927029689  1.1927922816  0.7615466666
H   0.4878643387  1.1201753656 -0.9853902865
H   2.8022234422  1.0131181527  1.0823884257
H   4.1109451061  1.7752253339 -0.0354072841
H   3.8712527641 -0.3423687959  0.2991650548
H   4.5155188808  3.0308753556 -0.8219038354
17
Image 13  Energy = -421.93913566
C  -2.0281864045  0.4764527975  0.0371722706
O  -2.1279457697  1.6806633784  0.0242824702
C  -0.7738424346 -0.3166737117  0.0074026460
C   0.5064211546  0.4846638850 -0.0802577152
C   1.7509896870 -0.4171260947 -0.1283993128
O   1.5890794598 -1.5721812357 -0.6002219197
C   2.9237891667  0.1875770734  0.3348580608
O   4.7459174665  2.5579386004  0.0537327230
H  -2.9572760575 -0.1352861422  0.0865427916
H  -0.7658340904 -0.9463904285  0.9057296021
H  -0.8099162316 -1.0327608058 -0.8181504957
H   0.5803704078  1.1765729605  0.7550158029
H   0.4853251487  1.0833903003 -0.9919389552
H   2.8146614878  1.0506814732  0.9827759692
H   4.1466527112  1.7926797469 -0.0586819238
H   3.8780597515 -0.3134358280  0.2005602167
H   4.5917349763  3.1132335136 -0.7104223241
17
Image 14  Energy = -421.93735264
C  -2.0230722767  0.4885403005  0.0335732926
O  -2.0979781418  1.6954627578  0.0052466112
C  -0.7826653638 -0.3285333622  0.0072788750
C   0.5052705823  0.4591094842 -0.0751051696
C   1.7523002949 -0.4430145533 -0.1097061674
O   1.5809848861 -1.6355553103 -0.4691079084
C   2.9377189302  0.2129213503  0.2437022219
O   4.6734179693  2.5919282410  0.1287076809
H  -2.9641642508 -0.1011449275  0.0929708881
H  -0.7834651060 -0.9593775234  0.9041816075
H  -0.8369446657 -1.0404218749 -0.8208071678
H   0.5783218843  1.1495813664  0.7621438306
H   0.4907896903  1.0606856054 -0.9850879895
H   2.8372543072  1.0567580642  0.9146988789
H   4.1154645813  1.8159750763 -0.0873592208
H   3.8858793547 -0.2949486152  0.1084233402
H   4.6808861304  3.1420348355 -0.6537535407
17
Image 15  Energy = -421.93566087
C  -2.0213008502  0.4893757009  0.0328062612
O  -2.0979658218  1.6930230264  0.0013965351
C  -0.7872471088 -0.3314279338  0.0072612668
C   0.5041230297  0.4491389980 -0.0683274980
C   1.7476567306 -0.4517317214 -0.0971013282
O   1.5787526677 -1.6525184835 -0.4224589622
C   2.9379827228  0.2155995557  0.2237318147
O   4.6775400627  2.5843242073  0.1377718541
H  -2.9620027950 -0.0962670681  0.0920382859
H  -0.7957789982 -0.9675922235  0.8979397442
H  -0.8512114884 -1.0367736298 -0.8240386216
H   0.5694427141  1.1436641220  0.7667706654
H   0.4954297338  1.0493478290 -0.9790429582
H   2.8511961925  1.0644100217  0.8887869433
H   4.0827888634  1.8449497699 -0.1059664902
H   3.8876663126 -0.2855212079  0.0746184013
H   4.7329282864  3.1579983429 -0.6261854109
17
Image 16  Energy = -421.93322079
C  -2.0321995482  0.4928384826  0.0365103241
O  -2.1133174314  1.6988541458 -0.0092474777
C  -0.7935672702 -0.3237062724  0.0218850947
C   0.5111697180  0.4322535075 -0.0515512132
C   1.7228603342 -0.5147933378 -0.0849056442
O   1.4843300663 -1.6813643126 -0.4991135881
C   2.9214828217  0.0952082846  0.3103165556
O   4.6938549792  2.7425198767  0.1514841100
H  -2.9718867699 -0.1027737190  0.0970304618
H  -0.8030953688 -0.9705139873  0.9068236040
H  -0.8413062494 -1.0249192868 -0.8155075591
H   0.6006021541  1.1399813099  0.7692170789
H   0.5384981258  1.0110722178 -0.9758544546
H   2.8147142081  1.0737285906  0.7823500558
H   4.1574151138  1.9454932895  0.0118452637
H   3.8952420490 -0.3210215198  0.0509829692
H   4.7652002427  3.1771446579 -0.7022654086
17
Image 17  Energy = -421.93514153
C  -2.0169871075  0.4928191023  0.0322660334
O  -2.0908305535  1.6985181362 -0.0035967428
C  -0.7875156227 -0.3303846279  0.0107283850
C   0.5087468146  0.4440328053 -0.0635456933
C   1.7504555870 -0.4586699282 -0.0931941985
O   1.5769298145 -1.6657083771 -0.4058009536
C   2.9423857815  0.2079414616  0.2117673679
O   4.6456536288  2.5987290116  0.1556287624
H  -2.9599167464 -0.0877230764  0.0916990351
H  -0.8038958241 -0.9668349174  0.9006387302
H  -0.8532567308 -1.0342392501 -0.8216891933
H   0.5768216349  1.1375318828  0.7722361785
H   0.5050455085  1.0408529438 -0.9762789161
H   2.8543227689  1.0775487240  0.8486804000
H   4.0727873439  1.8449429104 -0.0930075900
H   3.8960752017 -0.2834603950  0.0521096790
H   4.7331783416  3.1541049333 -0.6186415028
17
Image 18  Energy = -421.93806136
C  -2.0196143426  0.4881966647  0.0339510166
O  -2.1090772332  1.6888453788  0.0106061531
C  -0.7785663583 -0.3209762481  0.0083348265
C   0.5090175203  0.4688105929 -0.0707094792
C   1.7585651870 -0.4250882879 -0.1187978859
O   1.6034307663 -1.6033724183 -0.5161392234
C   2.9430928954  0.2191994193  0.2642484716
O   4.6892057404  2.5495661397  0.0851835180
H  -2.9492194582 -0.1169262950  0.0871052822
H  -0.7908301192 -0.9530288924  0.9034328684
H  -0.8336437820 -1.0271796412 -0.8237984618
H   0.5720113434  1.1575033660  0.7669912944
H   0.4929936731  1.0650262461 -0.9822437696
H   2.8549913925  1.0576818408  0.9427826906
H   4.0775626350  1.7960988026 -0.0672274879
H   3.8867874493 -0.3033606512  0.1517958014
H   4.6432929297  3.1290031649 -0.6755151368
17
Image 19  Energy = -421.95498769
C  -2.0361945289  0.4646825969  0.0411449536
O  -2.1507737056  1.6736700629  0.0214761724
C  -0.7839450563 -0.3163297403  0.0100531922
C   0.4972553344  0.4861896979 -0.0851194348
C   1.7530284657 -0.3985697541 -0.1307947484
O   1.6020202517 -1.5764800729 -0.5742461301
C   2.9279978936  0.2248131209  0.2877621417
O   4.7890788282  2.5154635100  0.0550761679
H  -2.9583150427 -0.1508144101  0.0968009310
H  -0.7839290059 -0.9461248200  0.9070381782
H  -0.8298294331 -1.0285184685 -0.8180667514
H   0.5559807554  1.1881237288  0.7420413613
H   0.4752472812  1.0628407978 -1.0089542057
H   2.8417530677  1.0778596367  0.9491395128
H   4.1681232851  1.7620548417 -0.0435751494
H   3.8718324140 -0.3016199312  0.2048298053
H   4.6106696523  3.1327584089 -0.6546054242
17
Image 20  Energy = -421.95532501
C  -2.0366632437  0.4624821019  0.0418195654
O  -2.1479239639  1.6689889064  0.0335433102
C  -0.7802901443 -0.3228051953  0.0097579434
C   0.4918750036  0.4861098079 -0.0822027681
C   1.7558206646 -0.3850371275 -0.1402104135
O   1.6249474918 -1.5604040738 -0.5782254338
C   2.9295242751  0.2530732092  0.2707023413
O   4.8024807414  2.5151778906  0.0381981703
H  -2.9622039423 -0.1501734975  0.0875580209
H  -0.7858741950 -0.9505597593  0.9073312733
H  -0.8269185873 -1.0349630500 -0.8155485695
H   0.5493866608  1.1800799393  0.7532664550
H   0.4633883403  1.0771367834 -0.9980490793
H   2.8343688525  1.0928420429  0.9463550083
H   4.2030833106  1.7386449641 -0.0212442889
H   3.8595322858 -0.3013676348  0.2321406653
H   4.5754678677  3.1007757838 -0.6851919192
17
Image 21  Energy = -421.95666127
C  -2.0364384350  0.4483304112  0.0506071761
O  -2.1715675190  1.6521285889  0.0503229096
C  -0.7667945626 -0.3102415408  0.0072909934
C   0.4966688371  0.5124877830 -0.1033000907
C   1.7642296773 -0.3525464159 -0.1722039534
O   1.6496774759 -1.4959806044 -0.6916231774
C   2.9264016214  0.2437713275  0.3222015925
O   4.8049866113  2.4944479754  0.0021163602
H  -2.9538647704 -0.1700994993  0.0991117075
H  -0.7554897064 -0.9321870159  0.9074427154
H  -0.8049372117 -1.0311908403 -0.8089572234
H   0.5605936205  1.2134561844  0.7247439853
H   0.4578600146  1.0932654512 -1.0240141529
H   2.8193178633  1.0664062686  1.0149346413
H   4.2040435673  1.7150250006  0.0183252249
H   3.8457976185 -0.3296588938  0.3215302268
H   4.5095159234  3.0525853831 -0.7185285840
17
Image 22  Energy = -421.95644223
C  -2.0509629989  0.4308856860  0.0597211699
O  -2.1922960960  1.6375867289  0.0527712588
C  -0.7794345622 -0.3194397640  0.0085545211
C   0.4765600292  0.5141547608 -0.1257526286
C   1.7514290580 -0.3416833482 -0.1804382562
O   1.6364664170 -1.4975050684 -0.6872597721
C   2.9101649774  0.2592917644  0.3068848103
O   4.8884338253  2.4846480448  0.0366917137
H  -2.9643311642 -0.1923942925  0.1238099600
H  -0.7495784670 -0.9302341265  0.9164123597
H  -0.8214935747 -1.0506879711 -0.7998013275
H   0.5357250351  1.2305435563  0.6892729022
H   0.4218535229  1.0752218433 -1.0579749759
H   2.8118642029  1.1326345187  0.9373347363
H   4.3094142800  1.6957263056  0.0672064892
H   3.8373370331 -0.3022475406  0.3057815048
H   4.5288480408  3.0435015312 -0.6532157874
17
Image 23  Energy = -421.93996897
C  -2.0673569054  0.4311590753  0.0588278295
O  -2.1998310194  1.6304353345  0.0468023828
C  -0.7868204724 -0.3312476821  0.0092975298
C   0.4609273514  0.5063545303 -0.1304656644
C   1.7397279509 -0.3558576910 -0.1794039220
O   1.6177647721 -1.5127875474 -0.6462274438
C   2.9050998151  0.2762402316  0.2770259441
O   4.9421748390  2.4949093474  0.0800617057
H  -2.9774401048 -0.2091317333  0.1299407766
H  -0.7577570044 -0.9350846795  0.9250173082
H  -0.8349608240 -1.0669092469 -0.7955973501
H   0.5173398692  1.2287576959  0.6834576733
H   0.4005232421  1.0640718817 -1.0678711488
H   2.8101885829  1.1891776937  0.8511892045
H   4.3816363031  1.6962004752  0.1085540895
H   3.8372697213 -0.2749159830  0.2607355147
H   4.5615138886  3.0386255112 -0.6113447163
17
Image 24  Energy = -421.93954720
C  -2.0690868155  0.4241308530  0.0779391020
O  -2.2049985869  1.6207428774  0.0601201000
C  -0.7970332358 -0.3341331921  0.0082262722
C   0.4530542173  0.5043743052 -0.1502704739
C   1.7282420469 -0.3590988481 -0.1847196735
O   1.6050299595 -1.5242640601 -0.6335539221
C   2.8901456899  0.2771345373  0.2684602780
O   4.9641154957  2.5184114881  0.1242212627
H  -2.9727772959 -0.2150279109  0.1710309107
H  -0.7443320513 -0.9375485636  0.9225189588
H  -0.8539251489 -1.0699210562 -0.7974725598
H   0.5080129110  1.2391465895  0.6510575345
H   0.3915466737  1.0404390581 -1.0987357347
H   2.7947039527  1.2255915116  0.7804477655
H   4.4284083666  1.7082904324  0.1699381273
H   3.8333919503 -0.2552961507  0.2435134445
H   4.5955045261  3.0070315187 -0.6127218123
17
Image 25  Energy = -421.93991406
C  -2.0647044470  0.4277741289  0.0754261029
O  -2.1988389447  1.6251234678  0.0600806513
C  -0.7910257138 -0.3308338138  0.0072203186
C   0.4591945695  0.5089468789 -0.1461231198
C   1.7346214784 -0.3549502512 -0.1849079115
O   1.6116346173 -1.5126321777 -0.6515024341
C   2.8955462039  0.2732113380  0.2837796377
O   4.9440344135  2.5066802454  0.1021449812
H  -2.9694725087 -0.2115287437  0.1652394632
H  -0.7415064387 -0.9367500265  0.9204310421
H  -0.8439432540 -1.0651019201 -0.8003716628
H   0.5152960599  1.2399697643  0.6591386027
H   0.3980144298  1.0487569055 -1.0929561710
H   2.7969770519  1.2064968577  0.8232313557
H   4.3949015465  1.7036057592  0.1395816646
H   3.8345806218 -0.2673225833  0.2649193052
H   4.5746913469  3.0085565121 -0.6253319971
17
Image 26  Energy = -421.94050841
C  -2.0560455617  0.4298428110  0.0832412468
O  -2.1928708054  1.6291342000  0.0721513784
C  -0.7794200015 -0.3243605781  0.0021608208
C   0.4682648704  0.5171044056 -0.1489286272
C   1.7442059513 -0.3458057004 -0.1871082390
O   1.6273171334 -1.4911363604 -0.6871716111
C   2.8989176359  0.2626512480  0.3172454747
O   4.9071794608  2.4961534804  0.0738552026
H  -2.9630750115 -0.2035832437  0.1779687969
H  -0.7260544372 -0.9386492064  0.9085630737
H  -0.8352465017 -1.0519711766 -0.8097237517
H   0.5273610932  1.2490969001  0.6552137179
H   0.4109059746  1.0559542016 -1.0963818436
H   2.7891096690  1.1758148437  0.8876032472
H   4.3405747915  1.7025528959  0.1071146932
H   3.8336952080 -0.2866207474  0.3090918326
H   4.5551802652  2.9938222708 -0.6648956388
17
Image 27  Energy = -421.94091248
C  -2.0382783833  0.4301946003  0.0967112467
O  -2.1826790856  1.6346208821  0.0945230176
C  -0.7672785989 -0.3149538935 -0.0073348952
C   0.4817570642  0.5277512886 -0.1554643577
C   1.7546069812 -0.3309166640 -0.1866608669
O   1.6484110765 -1.4701786041 -0.7264433362
C   2.8954122781  0.2528686998  0.3588175719
O   4.8527082523  2.4815246123  0.0448639227
H  -2.9423747933 -0.2004812256  0.2005705412
H  -0.7047348023 -0.9441446283  0.8871191205
H  -0.8320535421 -1.0292229686 -0.8307077293
H   0.5381158211  1.2586019645  0.6483393647
H   0.4273937652  1.0640826404 -1.1034019565
H   2.7771558037  1.1419222536  0.9645418855
H   4.2586185793  1.7044116202  0.0744845242
H   3.8270966173 -0.3023849925  0.3654594265
H   4.5561221340  2.9663036976 -0.7254176103
17
Image 28  Energy = -421.95757157
C  -2.0248066297  0.4329668694  0.1178059851
O  -2.1761803586  1.6361573918  0.1339828574
C  -0.7520423740 -0.3047440804 -0.0237542261
C   0.4978156961  0.5410676068 -0.1667428844
C   1.7695952909 -0.3180892916 -0.1892096205
O   1.6765749969 -1.4410289348 -0.7620703070
C   2.8965478100  0.2498841612  0.4002695096
O   4.7930240726  2.4638473507  0.0142787163
H  -2.9234245474 -0.2041348621  0.2335445569
H  -0.6769130770 -0.9573398791  0.8528552296
H  -0.8348333774 -0.9984323233 -0.8630805911
H   0.5448919726  1.2759958499  0.6342919104
H   0.4505033675  1.0738204282 -1.1173251552
H   2.7559327622  1.1090122360  1.0438446658
H   4.1669816844  1.7065475641  0.0464159868
H   3.8202610976 -0.3147191891  0.4412703470
H   4.5660710561  2.9191886391 -0.7963770573
17
Image 29  Energy = -421.93978656
C  -2.0065612562  0.4298960740  0.1533656654
O  -2.1647133896  1.6314984098  0.2100438678
C  -0.7350152309 -0.2946520737 -0.0522830731
C   0.5078911697  0.5585906281 -0.1936924717
C   1.7818556281 -0.3049096737 -0.1904986643
O   1.7053368393 -1.4062571031 -0.7859785313
C   2.8840921676  0.2581538621  0.4564208359
O   4.7408236616  2.4466776207 -0.0156499295
H  -2.8976550932 -0.2153915298  0.2785921645
H  -0.6292556360 -0.9813481015  0.7957202096
H  -0.8471841190 -0.9567883626 -0.9133076509
H   0.5435574702  1.3025593545  0.6000006953
H   0.4764080592  1.0792067923 -1.1511002448
H   2.7232132258  1.0960331551  1.1176776169
H   4.1030752554  1.6983805300  0.0303745032
H   3.7969696017 -0.3221245778  0.5284888749
H   4.5671627122  2.8504745554 -0.8681742154
17
Image 30  Energy = -421.93987529
C  -1.9872603237  0.4179333951  0.2045521237
O  -2.1525702504  1.6126876502  0.3322123056
C  -0.7221688075 -0.2843133724 -0.0928489371
C   0.5189122308  0.5782075146 -0.2371273720
C   1.7863470286 -0.2863147869 -0.1887152295
O   1.7044476191 -1.3910955750 -0.7890978496
C   2.8681686499  0.2681426142  0.4964443870
O   4.7080289568  2.4421964082 -0.0294309850
H  -2.8679826453 -0.2406967449  0.3331405651
H  -0.5753720044 -1.0150892825  0.7119139249
H  -0.8785109400 -0.9043201256 -0.9798417062
H   0.5421625519  1.3405908013  0.5381460273
H   0.5100941936  1.0764062683 -1.2067401805
H   2.6860408887  1.1127429008  1.1490931602
H   4.0758511126  1.6884239191  0.0441763386
H   3.7696896860 -0.3222144895  0.6295506369
H   4.5641219904  2.7767121132 -0.9154276846
17
Image 31  Energy = -421.93936287
C  -1.9706794706  0.4011271479  0.2610231102
O  -2.1390646867  1.5857276616  0.4588952059
C  -0.7189569071 -0.2698409872 -0.1378534823
C   0.5197529904  0.5950360467 -0.2850726796
C   1.7772664548 -0.2860939486 -0.1829895743
O   1.6935503091 -1.4084861676 -0.7438261302
C   2.8485566150  0.2745384458  0.5106464033
O   4.6966519180  2.4616463832 -0.0144600689
H  -2.8376452449 -0.2737078086  0.3988463456
H  -0.5249191227 -1.0514826571  0.6055467951
H  -0.9189907713 -0.8376793291 -1.0505889204
H   0.5333688014  1.3789733485  0.4704630023
H   0.5385863575  1.0646469972 -1.2687043507
H   2.6572084384  1.1334875743  1.1364815327
H   4.0820194131  1.6978206659  0.0806971403
H   3.7369429518 -0.3203704082  0.6892317192
H   4.5763523008  2.7246583753 -0.9283363660
17
Image 32  Energy = -421.93879330
C  -1.9517595405  0.3871598875  0.3099912163
O  -2.1167143388  1.5630466280  0.5551070025
C  -0.7211988849 -0.2646343671 -0.1785390309
C   0.5217336621  0.5984533080 -0.3245034148
C   1.7818536629 -0.2765770557 -0.1803160840
O   1.7183258285 -1.4040278255 -0.7340336013
C   2.8342598045  0.2893560383  0.5363461448
O   4.6834449714  2.4558773089  0.0010322439
H  -2.8086542913 -0.2961532222  0.4672320209
H  -0.4972660055 -1.0893493067  0.5056924086
H  -0.9783601569 -0.7750714815 -1.1114080950
H   0.5202437548  1.3991713885  0.4131655726
H   0.5600098068  1.0447165095 -1.3180851422
H   2.6368990350  1.1612480005  1.1419555267
H   4.0638153144  1.6969414696  0.1024846891
H   3.7159369579 -0.3083950440  0.7377112463
H   4.5874300604  2.6882377654 -0.9238334401
17
Image 33  Energy = -421.94527458
C  -1.9278868993  0.3710540160  0.3531595192
O  -2.0870677007  1.5405338030  0.6307049048
C  -0.7224881530 -0.2602190027 -0.2161545615
C   0.5241669782  0.6043739212 -0.3598776029
C   1.7851222671 -0.2624668360 -0.1792645539
O   1.7385064649 -1.3979637117 -0.7318041388
C   2.8149972143  0.3005059023  0.5582586571
O   4.6773493337  2.4476525675  0.0098491302
H  -2.7720424601 -0.3212587499  0.5381901153
H  -0.4736211613 -1.1233694824  0.4076618283
H  -1.0261725981 -0.7146810914 -1.1641015517
H   0.5087328841  1.4194914850  0.3617119862
H   0.5757171592  1.0301251980 -1.3619219604
H   2.6080214097  1.1787483232  1.1515015681
H   4.0523326783  1.6983851710  0.1300582313
H   3.6901155475 -0.2961913823  0.7908628456
H   4.5842168055  2.6552790970 -0.9188349665
17
Image 34  Energy = -421.93565892
C  -1.9064925129  0.3544333890  0.3919396037
O  -2.0667846606  1.5171007010  0.6851416005
C  -0.7187595869 -0.2554607305 -0.2488054743
C   0.5269090168  0.6146967289 -0.3930516312
C   1.7915409974 -0.2447506383 -0.1843693468
O   1.7779527734 -1.3655417558 -0.7751500416
C   2.7788766924  0.2978064546  0.6104535906
O   4.6800747554  2.4369190545  0.0136396034
H  -2.7335083378 -0.3532065563  0.6114989512
H  -0.4478119716 -1.1479855016  0.3213523615
H  -1.0647118713 -0.6622625979 -1.2052828986
H   0.4927191300  1.4455686518  0.3101248154
H   0.5819018877  1.0182787885 -1.4044363557
H   2.5775308865  1.1939180208  1.1789940885
H   4.0466452190  1.6962047785  0.1627420463
H   3.6621310619 -0.2837447967  0.8475760452
H   4.5717874253  2.6080267716 -0.9223665637
17
Image 35  Energy = -421.93538206
C  -1.8716445977  0.3322335027  0.4317091282
O  -2.0344530710  1.4876910984  0.7499939035
C  -0.7103711020 -0.2474154728 -0.2815572691
C   0.5322189775  0.6287740795 -0.4329674537
C   1.7999027768 -0.2192978786 -0.1994286976
O   1.8127244482 -1.3327020698 -0.8038906006
C   2.7576310420  0.3211413302  0.6321372199
O   4.6738359789  2.4132550946  0.0121874860
H  -2.6780235961 -0.3910118352  0.6780179380
H  -0.4192766719 -1.1669775376  0.2312875820
H  -1.1016630071 -0.6023928486 -1.2410619570
H   0.4897221424  1.4726253249  0.2535089101
H   0.5891177996  1.0146448551 -1.4507421242
H   2.5175542974  1.1921594315  1.2259485767
H   4.0274635515  1.6900056491  0.1957951583
H   3.6103982958 -0.2809507580  0.9259100410
H   4.5548626524  2.5582186272 -0.9268480550
17
Image 36  Energy = -421.93513447
C  -1.8442409978  0.3100566059  0.4616566698
O  -2.0119881778  1.4596785595  0.7968796900
C  -0.7066904821 -0.2419539220 -0.3090855035
C   0.5330342023  0.6381566737 -0.4598491910
C   1.8019403685 -0.1990938563 -0.2034818672
O   1.8465603459 -1.2966788832 -0.8351815943
C   2.7234775728  0.3309412429  0.6729139567
O   4.6890100237  2.3828970355  0.0054025907
H  -2.6292792564 -0.4289556309  0.7295657659
H  -0.4025863826 -1.1851388233  0.1490118766
H  -1.1366442811 -0.5445454867 -1.2698984069
H   0.4800465648  1.4937052067  0.2102798744
H   0.5950695085  1.0075902185 -1.4823987229
H   2.4610350696  1.1921587297  1.2731188981
H   4.0287916006  1.6794357734  0.2131324923
H   3.5753166465 -0.2666823933  0.9770754712
H   4.5471473281  2.5384290091 -0.9291417023
17
Image 37  Energy = -421.93420984
C  -1.8270478228  0.2940597277  0.4821478651
O  -1.9935409179  1.4387141628  0.8329596223
C  -0.7087556621 -0.2407109505 -0.3293704022
C   0.5313007666  0.6390099396 -0.4789217129
C   1.8026427270 -0.1875812620 -0.2037782594
O   1.8919750812 -1.2519136374 -0.8860783187
C   2.6714394245  0.3192324202  0.7364793042
O   4.7417987739  2.3716703776 -0.0329329420
H  -2.5999171211 -0.4533339888  0.7619702937
H  -0.4041331029 -1.2024026736  0.0876612656
H  -1.1657624264 -0.5001683269 -1.2904030604
H   0.4685112989  1.5054423196  0.1749834102
H   0.5972154429  0.9962548247 -1.5049604954
H   2.3615769272  1.1396705517  1.3721125623
H   4.0802086131  1.6817044670  0.1976604886
H   3.5457042275 -0.2486180422  1.0333273689
H   4.5567833746  2.5689714357 -0.9528567001
17
Image 38  Energy = -421.93312556
C  -1.8167993950  0.2908224538  0.4939951707
O  -1.9741341695  1.4327094327  0.8571714726
C  -0.7133037819 -0.2399769162 -0.3403558574
C   0.5306559255  0.6330931338 -0.4920180787
C   1.7987925130 -0.1926659571 -0.2012851589
O   1.9109805841 -1.2451194456 -0.8989755522
C   2.6346291978  0.3015857336  0.7730398861
O   4.7781198708  2.3845255262 -0.0542957877
H  -2.5882126117 -0.4562534037  0.7778286638
H  -0.4126212564 -1.2110311965  0.0576035833
H  -1.1848056849 -0.4773454121 -1.2999517265
H   0.4665171316  1.5068091396  0.1514204855
H   0.6017833859  0.9816735138 -1.5204903006
H   2.2908257053  1.0910657541  1.4298583473
H   4.1209668315  1.6955577762  0.1736625684
H   3.5323626474 -0.2347480001  1.0572279345
H   4.5742412385  2.6092987104 -0.9644357636
17
Image 39  Energy = -421.93311742
C  -1.8129685079  0.2829549588  0.4975201949
O  -1.9775284783  1.4235041495  0.8616036207
C  -0.7120612466 -0.2385723659 -0.3461420941
C   0.5293573562  0.6382875362 -0.4966395108
C   1.7979322104 -0.1862303661 -0.2053405560
O   1.9174798442 -1.2337591655 -0.9093709381
C   2.6247000009  0.2966537492  0.7824722182
O   4.8035417367  2.3801874739 -0.0709533926
H  -2.5754394162 -0.4709558323  0.7867175266
H  -0.4071068968 -1.2121445810  0.0424319815
H  -1.1881387438 -0.4683275836 -1.3053419795
H   0.4639271698  1.5092924980  0.1499781043
H   0.5988349795  0.9917542363 -1.5233518779
H   2.2883940300  1.0999430742  1.4266229442
H   4.1377117576  1.7185350825  0.2033271156
H   3.5106389995 -0.2542279764  1.0787531267
H   4.5507249525  2.5931053701 -0.9722872298
17
Image 40  Energy = -421.93283856
C  -1.7972386573  0.2691486249  0.5101876526
O  -1.9671852363  1.4049273434  0.8861513050
C  -0.7104304399 -0.2318777209 -0.3650394088
C   0.5317900417  0.6467623812 -0.5107289539
C   1.8010956959 -0.1730997707 -0.2077466176
O   1.9424517997 -1.2090837884 -0.9242446541
C   2.6056025543  0.2992349903  0.8039914284
O   4.8065538801  2.3782087890 -0.0803483048
H  -2.5428527923 -0.4961143169  0.8133746722
H  -0.4049837487 -1.2160126788 -0.0052416521
H  -1.2002770964 -0.4346312046 -1.3236753119
H   0.4621372776  1.5216699708  0.1302991164
H   0.6057435708  0.9950305221 -1.5391309975
H   2.2441407331  1.0752138739  1.4677502293
H   4.1544851028  1.7148625320  0.2178172350
H   3.4929788561 -0.2477963824  1.1039747078
H   4.5259877591  2.5735576780 -0.9773916742
17
Image 41  Energy = -421.93260953
C  -1.7756205978  0.2494601632  0.5262460847
O  -1.9577094728  1.3782383973  0.9167529155
C  -0.7072368270 -0.2219490906 -0.3890782380
C   0.5351841623  0.6594264554 -0.5285552217
C   1.8057662439 -0.1530894896 -0.2116324645
O   1.9788127031 -1.1709081393 -0.9462296251
C   2.5809839875  0.3020917366  0.8313704006
O   4.8061213334  2.3745607957 -0.0913884286
H  -2.4949099726 -0.5338219420  0.8471491605
H  -0.4008701947 -1.2187232941 -0.0678820462
H  -1.2162356572 -0.3881345755 -1.3450678891
H   0.4574306660  1.5386939500  0.1054133605
H   0.6153420480  1.0011590209 -1.5588231811
H   2.1935401493  1.0492040098  1.5135107540
H   4.1730173350  1.7117880845  0.2435869338
H   3.4648376786 -0.2479139201  1.1379645883
H   4.4915457821  2.5399176772 -0.9833375086
17
Image 42  Energy = -421.93272770
C  -1.7322287311  0.2044221359  0.5511837749
O  -1.9529836614  1.3213096586  0.9560787748
C  -0.6906141654 -0.2025554328 -0.4260644824
C   0.5406809876  0.6978884808 -0.5530512840
C   1.8147649658 -0.1027938695 -0.2243134534
O   2.0432668137 -1.0736994149 -1.0059279194
C   2.5365148125  0.3042853245  0.8755090956
O   4.7863075430  2.3517923367 -0.1140184658
H  -2.3945921152 -0.6162171066  0.9007446419
H  -0.3608389767 -1.2130811835 -0.1810372635
H  -1.2327023166 -0.3090588281 -1.3723511246
H   0.4438151468  1.5790324660  0.0763754714
H   0.6269477445  1.0331373532 -1.5850726006
H   2.1274385875  1.0380584884  1.5589208474
H   4.2041981377  1.7026818966  0.3215198469
H   3.3992392081 -0.2651620494  1.2084030989
H   4.3907856115  2.4199606311 -0.9868996741
17
Image 43  Energy = -421.93311183
C  -1.7331321344  0.2026421672  0.5411883494
O  -1.9600034116  1.3157498202  0.9532707326
C  -0.6880183754 -0.1951484394 -0.4310759538
C   0.5490851566  0.6971134628 -0.5320690612
C   1.8110181223 -0.1188737296 -0.1955401497
O   2.0107202356 -1.1100156334 -0.9604396930
C   2.5523150405  0.3012296935  0.8847667493
O   4.7405815320  2.3716613649 -0.1216616698
H  -2.4003814736 -0.6212309494  0.8765309274
H  -0.3609949854 -1.2117357376 -0.2088128050
H  -1.2297334056 -0.2741106522 -1.3803279803
H   0.4489826573  1.5739539072  0.1026987177
H   0.6516150289  1.0381358436 -1.5606871717
H   2.1647305034  1.0604323402  1.5525648647
H   4.1617498173  1.7077190281  0.2952738383
H   3.4264950673 -0.2561168732  1.2051294758
H   4.4049712758  2.3885950039 -1.0208099366
17
Image 44  Energy = -421.91851943
C  -1.6709719313  0.1506538175  0.5758184902
O  -1.9363537229  1.2351126669  1.0152256850
C  -0.6752289464 -0.1598603279 -0.4936141985
C   0.5639912511  0.7294148123 -0.5622124912
C   1.8160259333 -0.0881317530 -0.1860286747
O   2.0438304137 -1.0739094613 -0.9263018853
C   2.5254265426  0.3302739869  0.9256304722
O   4.6791562692  2.3542921410 -0.1673386742
H  -2.2430134551 -0.7161332134  0.9543808102
H  -0.3448577267 -1.1904768443 -0.3864280005
H  -1.2655392319 -0.1362411529 -1.4135695532
H   0.4455247136  1.6137917617  0.0570545901
H   0.6979002901  1.0598423655 -1.5878583450
H   2.1204799314  1.0867701667  1.5800667506
H   4.1402751977  1.7329561854  0.3581872689
H   3.3445333838 -0.2731573910  1.3003388354
H   4.3088207422  2.2148024926 -1.0433503431
17
Image 45  Energy = -421.91905764
C  -1.5782526451  0.1258532415  0.6293961114
O  -1.8259027217  1.2087594764  1.0952175884
C  -0.6701447053 -0.1502904365 -0.5261003767
C   0.5715099053  0.7385419858 -0.6233976820
C   1.8135266057 -0.0653680473 -0.1953769731
O   2.1053181698 -1.0306863687 -0.9528104245
C   2.4498856776  0.3373229219  0.9656393928
O   4.6490547414  2.3290166904 -0.1547466323
H  -2.1105390009 -0.7606731445  1.0312765837
H  -0.3455842149 -1.1906309167 -0.4891947200
H  -1.3163515256 -0.0619902688 -1.4070365627
H   0.4399983595  1.6464641795 -0.0375669962
H   0.7111359312  1.0232617454 -1.6656492970
H   2.0124405405  1.0931043662  1.6053785977
H   4.1025793082  1.7268870653  0.3816139059
H   3.2604869275 -0.2672811917  1.3707300268
H   4.2808385512  2.1677099222 -1.0273719512
17
Image 46  Energy = -421.91925567
C  -1.4989304652  0.1032966661  0.6702394876
O  -1.6659015715  1.1682974282  1.2061363983
C  -0.6686117495 -0.1486594701 -0.5493794555
C   0.5686452283  0.7399851487 -0.6823027339
C   1.8116016270 -0.0404102038 -0.2187215331
O   2.1637650686 -0.9816854373 -0.9801320664
C   2.3799478704  0.3525151201  0.9823623851
O   4.6478095700  2.3107135479 -0.1284379921
H  -2.0489445474 -0.7802008356  1.0549176290
H  -0.3506476999 -1.1921504560 -0.5547663419
H  -1.3609193624 -0.0296658941 -1.3907204882
H   0.4291963407  1.6672193195 -0.1290437788
H   0.7074975465  0.9854257464 -1.7345074498
H   1.8912391362  1.0798790046  1.6181970374
H   4.1009600073  1.7171118666  0.4150130830
H   3.1841289623 -0.2425562398  1.4155418011
H   4.2591643495  2.1608855246 -0.9943959508
17
Image 47  Energy = -421.91846438
C  -1.4810762536  0.0794762287  0.6827838773
O  -1.6283470840  1.1343559804  1.2440535765
C  -0.6697969097 -0.1561419857 -0.5542823714
C   0.5543032742  0.7482119795 -0.7031488223
C   1.8180019309  0.0018820708 -0.2332669756
O   2.2562706362 -0.8659324132 -1.0390944512
C   2.3134345621  0.3328021612  1.0170393751
O   4.7110573641  2.2998872825 -0.1150938617
H  -2.0348132942 -0.8066361795  1.0564791691
H  -0.3471370003 -1.1983864391 -0.5692969346
H  -1.3766068468 -0.0396039268 -1.3843547932
H   0.3951684346  1.6809401183 -0.1638700806
H   0.6888415920  0.9758527325 -1.7596076173
H   1.7853754673  1.0194343469  1.6667260156
H   4.1655453890  1.6644069214  0.3778551935
H   3.1142820421 -0.2622794363  1.4523916845
H   4.2854969288  2.2617314670 -0.9753131919
17
Image 48  Energy = -421.91684494
C  -1.4948403575  0.0806296616  0.6780809464
O  -1.6530205393  1.1382708986  1.2315415551
C  -0.6704545426 -0.1591625601 -0.5501507000
C   0.5501831542  0.7513740711 -0.6954175365
C   1.8179212795  0.0150515886 -0.2180173106
O   2.3077477362 -0.8044132571 -1.0466051461
C   2.2639353131  0.2930723549  1.0620311846
O   4.7708873229  2.3023650796 -0.1549411336
H  -2.0466364943 -0.8055618276  1.0541919417
H  -0.3424802385 -1.1999902087 -0.5508991677
H  -1.3691560623 -0.0587787351 -1.3892013129
H   0.3805250183  1.6845952355 -0.1594936791
H   0.6895282623  0.9772481750 -1.7514087893
H   1.7287218913  0.9662142251  1.7197606420
H   4.2180898042  1.6359195455  0.2869146012
H   3.0651294885 -0.3058342850  1.4915510885
H   4.3339197100  2.3589999068 -1.0079389862
17
Image 49  Energy = -421.93088309
C  -1.4990726017  0.0796598004  0.6757788650
O  -1.6629642084  1.1448522532  1.2272656709
C  -0.6679560974 -0.1622002795 -0.5459091215
C   0.5499561263  0.7505681250 -0.6876122410
C   1.8218615869  0.0312410179 -0.2005296598
O   2.3737554319 -0.7326657232 -1.0547653617
C   2.2127543599  0.2591926945  1.1020552888
O   4.8131645574  2.2920152753 -0.1995566088
H  -2.0526724187 -0.8031457286  1.0529297726
H  -0.3427593118 -1.2049530418 -0.5393909375
H  -1.3640496107 -0.0668942874 -1.3883232411
H   0.3708544048  1.6874184449 -0.1602704818
H   0.6917449871  0.9712121906 -1.7426593268
H   1.6623521416  0.9187483143  1.7623647329
H   4.2557815113  1.6048450431  0.2049365610
H   3.0157254925 -0.3342440339  1.5338632209
H   4.3715233455  2.4343493968 -1.0401773449
17
Image 50  Energy = -421.93005022
C  -1.4723282366  0.0798536486  0.6797169066
O  -1.6469736185  1.1435913312  1.2281750549
C  -0.6505363956 -0.1597790459 -0.5399712883
C   0.5511659498  0.7692425366 -0.6985323126
C   1.8254607101  0.0701789910 -0.1985816136
O   2.4280948257 -0.6444128806 -1.0645895043
C   2.1626056886  0.2439070369  1.1261074593
O   4.8020391675  2.2567818373 -0.2153565608
H  -2.0125199075 -0.8066636867  1.0600073920
H  -0.3065139804 -1.1960091943 -0.5258539498
H  -1.3586057399 -0.0848341755 -1.3738618338
H   0.3629431217  1.7100821932 -0.1826194001
H   0.6914538829  0.9732222385 -1.7582524218
H   1.5772976333  0.8650507241  1.7926938071
H   4.2604696132  1.5428441835  0.1612483245
H   2.9945407601 -0.3147973427  1.5511896168
H   4.3414063798  2.4217421600 -1.0415194844
17
Image 51  Energy = -421.92886844
C  -1.4722885719  0.0867801265  0.6771814987
O  -1.6620801273  1.1462115201  1.2249781887
C  -0.6400669681 -0.1573910089 -0.5334098958
C   0.5573786827  0.7778831486 -0.6954671736
C   1.8455631154  0.1052706535 -0.1894993948
O   2.5133864012 -0.5331435014 -1.0670605523
C   2.1319793101  0.2249539653  1.1517113233
O   4.7904387150  2.2272115245 -0.2492894195
H  -2.0130357033 -0.8032332388  1.0650317066
H  -0.2927989037 -1.1927728486 -0.5060951375
H  -1.3373011719 -0.0986955706 -1.3783323609
H   0.3596862167  1.7209188446 -0.1876443255
H   0.6966292865  0.9768060088 -1.7556758330
H   1.5185903797  0.8120133707  1.8233775647
H   4.2712978525  1.4871196896  0.1051773181
H   2.9725057711 -0.3206313873  1.5749790037
H   4.3101151896  2.4106986445 -1.0599628243
17
Image 52  Energy = -421.92877623
C  -1.4687205407  0.0912693495  0.6781621777
O  -1.6659203218  1.1532579731  1.2182936208
C  -0.6284941879 -0.1577505186 -0.5264402839
C   0.5624573284  0.7846732224 -0.6950788771
C   1.8646917201  0.1439465059 -0.1810996177
O   2.5987573211 -0.4094236170 -1.0656413651
C   2.1020300981  0.2066330239  1.1717792556
O   4.7680554897  2.1936296364 -0.2739460317
H  -2.0065639969 -0.7993588078  1.0682106751
H  -0.2779897039 -1.1916936670 -0.4898568489
H  -1.3238553436 -0.1109687725 -1.3741805922
H   0.3536384259  1.7300373113 -0.1962011951
H   0.6997213290  0.9762075313 -1.7566851526
H   1.4636433543  0.7612474328  1.8470852987
H   4.2738260610  1.4271784679  0.0584744914
H   2.9554209729 -0.3191420348  1.5938528417
H   4.2793014417  2.3902573843 -1.0767284593
17
Image 53  Energy = -421.92924622
C  -1.4679664266  0.1002128730  0.6806617649
O  -1.6650705823  1.1654406688  1.2139857417
C  -0.6177652396 -0.1595181286 -0.5149777017
C   0.5667713896  0.7886406087 -0.6980070054
C   1.8841908560  0.1833830726 -0.1772109436
O   2.6825001190 -0.2718926105 -1.0639418636
C   2.0740200482  0.1818339227  1.1829020815
O   4.7463221028  2.1700617926 -0.2910669569
H  -2.0105897946 -0.7880413174  1.0701081506
H  -0.2653270381 -1.1916676047 -0.4603404085
H  -1.3096525740 -0.1308486291 -1.3669414069
H   0.3483462001  1.7384126500 -0.2114830195
H   0.6984830589  0.9691284693 -1.7619668718
H   1.4040859905  0.6890529670  1.8639395757
H   4.2819106700  1.3776820806  0.0234415615
H   2.9451254239 -0.3134403779  1.6044949329
H   4.2546156710  2.3615594789 -1.0935975058
17
Image 54  Energy = -421.92979412
C  -1.4701258246  0.1102327425  0.6837415324
O  -1.6602393495  1.1798605382  1.2104832440
C  -0.6084978683 -0.1644996249 -0.5007985189
C   0.5679062527  0.7899215220 -0.7033000404
C   1.8988695901  0.2223629160 -0.1716748788
O   2.7540122872 -0.1359239963 -1.0520089831
C   2.0490972827  0.1588679544  1.1897820383
O   4.7406338820  2.1361841233 -0.2944501769
H  -2.0249961008 -0.7720378230  1.0706633533
H  -0.2485543813 -1.1925442261 -0.4236685310
H  -1.2963048755 -0.1598784241 -1.3570911552
H   0.3385273133  1.7456385514 -0.2335288649
H   0.6940172474  0.9545681005 -1.7702004005
H   1.3438189993  0.6064994529  1.8751618605
H   4.2806133710  1.3151443832 -0.0488160463
H   2.9396161516 -0.2987550972  1.6110703857
H   4.2516058938  2.3743591859 -1.0853647024
17
Image 55  Energy = -421.93093728
C  -1.4699310590  0.1156307222  0.6870958386
O  -1.6497273029  1.1880164253  1.2115522040
C  -0.5998597725 -0.1699459782 -0.4892205979
C   0.5690057634  0.7891718408 -0.7075386547
C   1.9118713555  0.2630401594 -0.1623328958
O   2.8173255750  0.0016202173 -1.0308263028
C   2.0312878311  0.1442183196  1.1957787717
O   4.7329894346  2.0854281573 -0.2954266510
H  -2.0385202081 -0.7602972039  1.0695167366
H  -0.2342145078 -1.1950129075 -0.3991423324
H  -1.2855958840 -0.1802437239 -1.3476140856
H   0.3263161937  1.7508656191 -0.2568986403
H   0.6952356095  0.9361865134 -1.7769338025
H   1.2963767994  0.5392813687  1.8803573517
H   4.2528645581  1.2554913640 -0.1229115840
H   2.9391441864 -0.2768967529  1.6165828343
H   4.2554316673  2.3834466087 -1.0720386359
17
Image 56  Energy = -421.93276921
C  -1.4660875703  0.1207200695  0.6927105274
O  -1.6309103331  1.1940014932  1.2193094970
C  -0.5911233208 -0.1750220418 -0.4775368633
C   0.5682359403  0.7891819986 -0.7139713717
C   1.9166863181  0.3037014723 -0.1481464323
O   2.8615577116  0.1258425400 -1.0000795433
C   2.0058775528  0.1302905811  1.2036941383
O   4.7389867196  2.0288535571 -0.2924181019
H  -2.0505917652 -0.7479854609  1.0684910225
H  -0.2169856953 -1.1956302182 -0.3718425172
H  -1.2752898018 -0.2038427735 -1.3368544654
H   0.3104286660  1.7606329056 -0.2929395740
H   0.7006798923  0.9095821005 -1.7859219096
H   1.2356803921  0.4513606034  1.8864078048
H   4.2215165912  1.1988791198 -0.2355942587
H   2.9335531643 -0.2453434829  1.6249636563
H   4.2877854642  2.4247776551 -1.0402716608
17
Image 57  Energy = -421.93420630
C  -1.4607513276  0.1302540938  0.7082721059
O  -1.6013859709  1.2034415345  1.2410023176
C  -0.5915544904 -0.1804674876 -0.4627951323
C   0.5567015720  0.7870270621 -0.7328375632
C   1.9064793174  0.3251748973 -0.1511975612
O   2.8696446045  0.1867576060 -0.9907364341
C   1.9763653825  0.1188781240  1.1963342906
O   4.7848842969  1.9899245152 -0.2822002950
H  -2.0620262814 -0.7287193561  1.0782302703
H  -0.2006874962 -1.1904779956 -0.3294167513
H  -1.2781823257 -0.2417151965 -1.3166009618
H   0.2921063764  1.7724996563 -0.3494425621
H   0.6895615788  0.8679452380 -1.8080048040
H   1.1625329982  0.3309399693  1.8696930107
H   4.2104544544  1.1909662577 -0.3206506959
H   2.9201067278 -0.2061882572  1.6234278092
H   4.3757505712  2.5137593045 -0.9730768484
17
Image 58  Energy = -421.93503090
C  -1.4572400372  0.1434160215  0.7241400281
O  -1.5835821015  1.2203418223  1.2530606379
C  -0.5978538947 -0.1850182844 -0.4470915900
C   0.5441772768  0.7755791055 -0.7547321157
C   1.8976364529  0.3397185509 -0.1608516298
O   2.8799391181  0.2549530878 -0.9876349018
C   1.9514257995  0.0939878125  1.1805131916
O   4.8225254761  1.9692246731 -0.2599929614
H  -2.0636877501 -0.7085194566  1.1027725360
H  -0.1981558551 -1.1884985986 -0.2896867830
H  -1.2904246161 -0.2740054132 -1.2942705734
H   0.2821375344  1.7749554381 -0.4075385480
H   0.6735806341  0.8184247509 -1.8327913214
H   1.1114452427  0.2183427587  1.8428512843
H   4.1920420255  1.2147910219 -0.3771908029
H   2.9056457287 -0.1877067244  1.6145117474
H   4.4803893012  2.5900137989 -0.9060683966
17
Image 59  Energy = -421.93575026
C  -1.4488349959  0.1598543738  0.7427680575
O  -1.5722945110  1.2466207647  1.2525749136
C  -0.6097493505 -0.1896112350 -0.4362692125
C   0.5306805625  0.7574609052 -0.7801286219
C   1.8849945569  0.3531281836 -0.1672880331
O   2.8876627366  0.3476348245 -0.9755428160
C   1.9214339356  0.0503163133  1.1632764029
O   4.8650750692  1.9721959029 -0.2378998837
H  -2.0395826214 -0.6878119981  1.1521204850
H  -0.2102372955 -1.1914394259 -0.2656691867
H  -1.3147965054 -0.2926620762 -1.2715585893
H   0.2742757078  1.7734821461 -0.4797259344
H   0.6628341705  0.7544534920 -1.8589913076
H   1.0638804381  0.0864308836  1.8110819603
H   4.1881183134  1.2636748679 -0.4035749150
H   2.8844056046 -0.1894356994  1.6039319059
H   4.5821354409  2.6557076192 -0.8491047556
17
Image 60  Energy = -421.93666179
C  -1.4347192393  0.1801489270  0.7626988082
O  -1.5586701261  1.2796803658  1.2438110981
C  -0.6270554605 -0.1921055423 -0.4318158075
C   0.5174737617  0.7351763872 -0.8058288694
C   1.8685908244  0.3642006299 -0.1683902378
O   2.8860055113  0.4415280113 -0.9531924004
C   1.8918825483  0.0023561394  1.1495224941
O   4.9178657465  1.9897833736 -0.2299170902
H  -1.9963545331 -0.6640534956  1.2164561251
H  -0.2363353194 -1.1966359596 -0.2580756328
H  -1.3491013211 -0.2929290137 -1.2525227023
H   0.2678732702  1.7677875314 -0.5592667183
H   0.6585217173  0.6806201445 -1.8827076981
H   1.0217232296 -0.0547349625  1.7786155632
H   4.2096203634  1.3145847970 -0.4063283493
H   2.8597694218 -0.1989127899  1.5986185698
H   4.6529096211  2.7135067830 -0.8016810194
17
Image 61  Energy = -421.92438423
C  -1.4276639430  0.1943957963  0.7779388501
O  -1.5496875857  1.3015328114  1.2294764899
C  -0.6375701715 -0.1991987377 -0.4332462989
C   0.5186034985  0.7118034062 -0.8195530855
C   1.8667436652  0.3734626094 -0.1526423944
O   2.8921922877  0.5391891206 -0.8957408089
C   1.8596320967 -0.0573894342  1.1508703323
O   4.9940801874  2.0232431433 -0.2893784683
H  -1.9711066076 -0.6451193798  1.2705672514
H  -0.2644800374 -1.2117944144 -0.2678826126
H  -1.3671351575 -0.2839914389 -1.2496158864
H   0.2665698330  1.7531131512 -0.6115773719
H   0.6791620821  0.6261118652 -1.8925751244
H   0.9623679478 -0.1591477445  1.7410598427
H   4.2567609238  1.3671389407 -0.4227227238
H   2.8153769805 -0.2506258152  1.6263550785
H   4.6561535749  2.7872767579 -0.7613322733
17
Image 62  Energy = -421.92472514
C  -1.4214333097  0.1996014317  0.7755166451
O  -1.5692933050  1.3111991649  1.2075523010
C  -0.6426799747 -0.1912719770 -0.4443112346
C   0.5281624656  0.7080590820 -0.8109992082
C   1.8591849579  0.3675260323 -0.1146314890
O   2.9009241264  0.5847781922 -0.8189323978
C   1.8199768704 -0.1249021038  1.1672960218
O   5.0388675276  2.0905619903 -0.3515613104
H  -1.9300315227 -0.6477482234  1.2927896545
H  -0.2867821487 -1.2119102538 -0.2935407823
H  -1.3754336502 -0.2475743039 -1.2609251452
H   0.2808455649  1.7530338537 -0.6158036255
H   0.7086027096  0.6138276936 -1.8803825290
H   0.9107197477 -0.2588078545  1.7295323413
H   4.3051305420  1.4255349612 -0.4286643250
H   2.7611437940 -0.3453062868  1.6585666479
H   4.6620953853  2.8433991958 -0.8115011126
17
Image 63  Energy = -421.92513987
C  -1.4156170134  0.2006927290  0.7743018012
O  -1.6036232815  1.3141743221  1.1851698289
C  -0.6480035576 -0.1803391222 -0.4565952751
C   0.5378097171  0.7080830650 -0.8010030793
C   1.8531603444  0.3569720182 -0.0838969026
O   2.9093426237  0.6204431560 -0.7482385571
C   1.7882567011 -0.1944619784  1.1723753847
O   5.0591534585  2.1548852817 -0.3739102821
H  -1.8779749567 -0.6553717950  1.3208842627
H  -0.3099523824 -1.2095881135 -0.3289228121
H  -1.3822098467 -0.2009264037 -1.2734122081
H   0.2973446328  1.7549836693 -0.6070036917
H   0.7352189274  0.6166807333 -1.8679660470
H   0.8700203808 -0.3635909788  1.7072351126
H   4.3251290043  1.4909199578 -0.4144377854
H   2.7202606986 -0.4251992252  1.6757810266
H   4.6916848753  2.8816431668 -0.8803600462
17
Image 64  Energy = -421.92546925
C  -1.4151395286  0.2014012234  0.7733906262
O  -1.6554507713  1.3129933674  1.1616375596
C  -0.6540261438 -0.1671467011 -0.4663865125
C   0.5446667930  0.7121855633 -0.7902897126
C   1.8504970769  0.3488083319 -0.0647087069
O   2.9135831324  0.6565136513 -0.6974196218
C   1.7745725062 -0.2579415254  1.1644193813
O   5.0588012292  2.2097456425 -0.3560252994
H  -1.8250512671 -0.6630965695  1.3478860683
H  -0.3308461490 -1.2034036496 -0.3623348093
H  -1.3878965011 -0.1530460837 -1.2831435741
H   0.3114744218  1.7598674405 -0.5907908669
H   0.7522812156  0.6291688496 -1.8563140392
H   0.8521029216 -0.4766865658  1.6717503896
H   4.3191952803  1.5531689459 -0.3822220330
H   2.7027247897 -0.4879811480  1.6750291517
H   4.7385110692  2.8954504812 -0.9444785990
17
Image 65  Energy = -421.92584294
C  -1.4173324321  0.2157805151  0.7770127327
O  -1.7205282289  1.3255275924  1.1215533168
C  -0.6590551331 -0.1576734240 -0.4722147393
C   0.5473573736  0.7120927102 -0.7833511538
C   1.8484120324  0.3448556778 -0.0556509654
O   2.9057700303  0.7014219058 -0.6662246657
C   1.7712674562 -0.3142703232  1.1480056276
O   5.0622001156  2.2523730384 -0.3302964370
H  -1.7644227816 -0.6571872436  1.3886693377
H  -0.3534474294 -1.2005370004 -0.3756230582
H  -1.3977643341 -0.1153400499 -1.2830931925
H   0.3207982814  1.7622100922 -0.5848406363
H   0.7576536727  0.6261450048 -1.8458906297
H   0.8491282469 -0.5976961064  1.6264490024
H   4.3144898956  1.6030812787 -0.3491200425
H   2.6992960463 -0.5329279481  1.6639663373
H   4.7861770426  2.9021447064 -0.9793511979
17
Image 66  Energy = -421.92637377
C  -1.4106784895  0.2258068853  0.7788197920
O  -1.7559290068  1.3320686155  1.0970631012
C  -0.6751165050 -0.1510773850 -0.4712056539
C   0.5416289011  0.7056231682 -0.7851291839
C   1.8350538520  0.3425492429 -0.0466506145
O   2.8998929305  0.7493352077 -0.6203851920
C   1.7652899841 -0.3612820609  1.1284013235
O   5.0690548610  2.2840166475 -0.3080411709
H  -1.7022204578 -0.6257760787  1.4338747054
H  -0.3775050730 -1.1961058315 -0.3896537212
H  -1.4122678733 -0.0910050747 -1.2802640030
H   0.3201430037  1.7581758244 -0.5977923347
H   0.7614331825  0.6146824619 -1.8487403593
H   0.8528739266 -0.7077477255  1.5774197948
H   4.3147520064  1.6483516614 -0.3234241073
H   2.6921716532 -0.5648228676  1.6514835018
H   4.8314239124  2.9072079813 -0.9957767094
17
Image 67  Energy = -421.93591311
C  -1.3984762998  0.2421781857  0.7938774709
O  -1.8087552838  1.3463461562  1.0695705973
C  -0.6924270979 -0.1424985089 -0.4701428322
C   0.5356742487  0.7001272386 -0.7915905017
C   1.8225789572  0.3445799224 -0.0425046964
O   2.8889932049  0.8289424516 -0.5857930412
C   1.7617572933 -0.4164478668  1.0864125679
O   5.0824959957  2.3058902884 -0.2645202086
H  -1.6080501875 -0.5912962543  1.5048703469
H  -0.4093035272 -1.1949505182 -0.4003494250
H  -1.4388018626 -0.0543438117 -1.2700443875
H   0.3167436024  1.7574821438 -0.6220823214
H   0.7555849808  0.5928135367 -1.8562384806
H   0.8568636644 -0.8372606131  1.4943854546
H   4.3125902546  1.6933656547 -0.2761162769
H   2.6890364976 -0.6080020402  1.6198619220
H   4.8834940209  2.9030727799 -0.9895945584
17
Image 68  Energy = -421.93650871
C  -1.3709060454  0.2470375814  0.8097764209
O  -1.8555841056  1.3217857796  1.0537803510
C  -0.7009102349 -0.1360465083 -0.4770949731
C   0.5321718960  0.6938806300 -0.8053522121
C   1.8129980162  0.3529150560 -0.0362389321
O   2.8737236895  0.8630918154 -0.5232377017
C   1.7372991392 -0.4381395605  1.0753933438
O   5.0918234222  2.3113794344 -0.2647011946
H  -1.4688279914 -0.5425722229  1.5792029798
H  -0.4304988614 -1.1886559443 -0.4275623623
H  -1.4563438962 -0.0239448941 -1.2581122378
H   0.3130513231  1.7531789685 -0.6543848999
H   0.7673194900  0.5754396802 -1.8629637367
H   0.8396724871 -0.9046694962  1.4315341557
H   4.3016606666  1.7196217368 -0.2664723986
H   2.6439161011 -0.6240115681  1.6374862754
H   4.9194340059  2.8897100205 -1.0110522020
17
Image 69  Energy = -421.92408159
C  -1.3404296638  0.2618737779  0.8223217056
O  -1.8836304698  1.3185200350  1.0298766353
C  -0.7144249000 -0.1324717123 -0.4899938612
C   0.5311030364  0.6904033341 -0.8135591990
C   1.7972103430  0.3534450512 -0.0165097813
O   2.8612630860  0.8982740039 -0.4687024495
C   1.7052582938 -0.4665236699  1.0760784250
O   5.1000890137  2.3192958334 -0.2713269953
H  -1.3206869838 -0.4970122166  1.6295636893
H  -0.4501877719 -1.1902396848 -0.4507317436
H  -1.4794655081  0.0030650823 -1.2616335244
H   0.3108598351  1.7521362393 -0.6691844045
H   0.7754476301  0.5596450267 -1.8696234361
H   0.8136006283 -0.9840196196  1.3898318820
H   4.3023495845  1.7399959659 -0.2621725250
H   2.6061767561 -0.6437491988  1.6526760758
H   4.9354671692  2.8873615623 -1.0269097542
17
Image 70  Energy = -421.93847997
C  -1.3267630074  0.2885701710  0.8366743819
O  -1.9536322192  1.3036633155  1.0156115527
C  -0.7287439048 -0.1142473980 -0.4853481609
C   0.5351803777  0.6772357437 -0.8178590150
C   1.7858931791  0.3544256122  0.0069945003
O   2.8413656896  0.9570764580 -0.3730292083
C   1.6848529812 -0.5192001539  1.0572364830
O   5.1332187848  2.3329383359 -0.2972775966
H  -1.2014546063 -0.4161341239  1.6786043792
H  -0.4902772291 -1.1778503184 -0.4589244786
H  -1.4978352188  0.0555432769 -1.2426073055
H   0.3287196689  1.7457615439 -0.7125473594
H   0.7910350279  0.5093855759 -1.8662933804
H   0.8148121256 -1.1123349173  1.2801800446
H   4.3253398945  1.7719504582 -0.2389018562
H   2.5620365861 -0.6759823188  1.6739683794
H   4.9462521498  2.8891992971 -1.0564809067
17
Image 71  Energy = -421.92515376
C  -1.2798778949  0.2997356648  0.8546457213
O  -1.8529644569  1.3391051205  1.0706386750
C  -0.7370816870 -0.1004472691 -0.4940389436
C   0.5402959945  0.6617493414 -0.8399269467
C   1.7632897785  0.3684772445  0.0352413301
O   2.8072295794  1.0315423847 -0.2626631498
C   1.6497869302 -0.5463805026  1.0513632463
O   5.1457123520  2.3288751582 -0.3274367538
H  -1.1601923038 -0.4275625275  1.6772006502
H  -0.5305701419 -1.1711253314 -0.4914949609
H  -1.5215980957  0.1087565095 -1.2248261092
H   0.3423407318  1.7336762259 -0.7879688726
H   0.8201223206  0.4415636907 -1.8718215244
H   0.8044474797 -1.1996792182  1.1968661940
H   4.3234887392  1.7967182955 -0.2209074639
H   2.4982037943 -0.6821111992  1.7147223343
H   4.9373674386  2.8871060690 -1.0795929869
17
Image 72  Energy = -421.92452111
C  -1.2247388932  0.2961337343  0.8714298434
O  -1.7115232515  1.3664438463  1.1382968923
C  -0.7394648481 -0.0891435367 -0.5038797958
C   0.5478032785  0.6513276281 -0.8645157165
C   1.7440238700  0.3818415958  0.0533300639
O   2.7784429628  1.0790158860 -0.1915894189
C   1.6125016852 -0.5470583332  1.0544060424
O   5.1367604812  2.3191003546 -0.3412102043
H  -1.1468738091 -0.4694914155  1.6619109324
H  -0.5608488508 -1.1640554159 -0.5287504524
H  -1.5406689346  0.1573082330 -1.2047312998
H   0.3562716788  1.7266325412 -0.8550174414
H   0.8457626850  0.3905335937 -1.8833445145
H   0.7993276279 -1.2492083085  1.1349032696
H   4.3064764279  1.8061171884 -0.2046958942
H   2.4297420669 -0.6581636526  1.7570170876
H   4.9170060442  2.8726662873 -1.0935593479
17
Image 73  Energy = -421.92350311
C  -1.1694979881  0.2854929450  0.8880883758
O  -1.5588432778  1.3804040318  1.2077709572
C  -0.7386069083 -0.0788746490 -0.5121163968
C   0.5526152830  0.6439973750 -0.8916827666
C   1.7271607389  0.3933787360  0.0569966724
O   2.7606601734  1.1014118568 -0.1548950468
C   1.5738726286 -0.5325744262  1.0597789796
O   5.1225296039  2.3166889874 -0.3401916655
H  -1.1532665779 -0.5188816139  1.6416387183
H  -0.5862159837 -1.1565584856 -0.5634914762
H  -1.5590164031  0.1990082598 -1.1784220050
H   0.3692531341  1.7202420474 -0.9154517759
H   0.8638627077  0.3502786706 -1.8975138816
H   0.7998151027 -1.2819591065  1.0861461730
H   4.2920802190  1.8091857683 -0.1843339061
H   2.3616580601 -0.6147645639  1.7989540792
H   4.8919396455  2.8535242441 -1.1012748210
17
Image 74  Energy = -421.92194943
C  -1.1087298664  0.2704759425  0.9051781363
O  -1.4058346456  1.3832076580  1.2635455843
C  -0.7332685528 -0.0756789264 -0.5175930313
C   0.5528757583  0.6394068240 -0.9198423319
C   1.7083937797  0.4050843814  0.0525968793
O   2.7484085788  1.1053568444 -0.1367472715
C   1.5238938932 -0.5037713964  1.0698680147
O   5.1107147383  2.3195076856 -0.3312062506
H  -1.1711342513 -0.5614932976  1.6247379865
H  -0.5987928205 -1.1540329521 -0.5914812894
H  -1.5759605563  0.2248480029 -1.1449555578
H   0.3734286300  1.7154502987 -0.9665955567
H   0.8726462661  0.3234565631 -1.9161623762
H   0.8027429033 -1.3052177066  1.0440211955
H   4.2850592626  1.8082343602 -0.1633246653
H   2.2948955983 -0.5619721358  1.8304648498
H   4.8706609934  2.8371378979 -1.1025043563
17
Image 75  Energy = -421.91985826
C  -1.0325850524  0.2530012827  0.9274983270
O  -1.2835983916  1.3764984223  1.3011071457
C  -0.7194235064 -0.0773264638 -0.5201939589
C   0.5527464414  0.6384802357 -0.9489938071
C   1.6862170774  0.4157817268  0.0433753840
O   2.7398897277  1.0908989087 -0.1236003331
C   1.4447883652 -0.4593508007  1.0885223156
O   5.1021622748  2.3217749843 -0.3231854479
H  -1.1850871927 -0.5927109973  1.6179621046
H  -0.5958400000 -1.1551259478 -0.6113737353
H  -1.5867133737  0.2375110768 -1.1058907050
H   0.3725909907  1.7137362372 -1.0040505147
H   0.8808555811  0.3125667106 -1.9387011054
H   0.8127995360 -1.3282709456  1.0001096362
H   4.2822653466  1.8040553195 -0.1486972644
H   2.2225938485 -0.5078498067  1.8473932807
H   4.8563382401  2.8263305511 -1.1012817634
17
Image 76  Energy = -421.91814914
C  -0.9467195231  0.2359844954  0.9531500657
O  -1.1906034394  1.3686620845  1.3273450158
C  -0.7024350874 -0.0803020335 -0.5185412369
C   0.5537869107  0.6380135650 -0.9778993489
C   1.6664145969  0.4197062597  0.0275524035
O   2.7302487220  1.0721060025 -0.1069057507
C   1.3645544825 -0.4288638443  1.0930529667
O   5.0972075250  2.3244607319 -0.3179972506
H  -1.1898916741 -0.6111779848  1.6185557158
H  -0.5854892938 -1.1568942377 -0.6315442947
H  -1.5922876625  0.2476469755 -1.0627312040
H   0.3687153682  1.7119496962 -1.0290015955
H   0.8847274195  0.3104157166 -1.9644669954
H   0.8327940289 -1.3539338238  0.9614264840
H   4.2842536560  1.8003924683 -0.1371997961
H   2.1296276744 -0.4468059475  1.8658666151
H   4.8450965060  2.8186397717 -1.1006616041
17
Image 77  Energy = -421.91758803
C  -0.8470065003  0.2187642627  0.9757371020
O  -1.1104744170  1.3641828289  1.3362006946
C  -0.6884167769 -0.0877279111 -0.5184275116
C   0.5518956446  0.6380095729 -1.0009363576
C   1.6490756766  0.4243233779  0.0141679832
O   2.7213276485  1.0539439503 -0.0895365914
C   1.2959998502 -0.4102426573  1.0914862290
O   5.0885172276  2.3233872952 -0.3126883089
H  -1.1753933381 -0.6205857980  1.6162972331
H  -0.5800819711 -1.1621853655 -0.6547674144
H  -1.5938098100  0.2576064473 -1.0240175871
H   0.3581780684  1.7103843480 -1.0387250777
H   0.8864324915  0.3145881658 -1.9862334047
H   0.8441833047 -1.3736663090  0.9358639575
H   4.2805271268  1.7965613147 -0.1272446544
H   2.0365822124 -0.3868501989  1.8819741837
H   4.8324633841  2.8095073413 -1.0991501226
17
Image 78  Energy = -421.91666115
C  -0.7699489829  0.2098916799  0.9843852788
O  -1.0066269128  1.3765175676  1.3380974245
C  -0.6759516764 -0.0963510492 -0.5195246300
C   0.5525801871  0.6411247236 -1.0137141935
C   1.6383772402  0.4373299532  0.0130805568
O   2.7181564762  1.0435938791 -0.0778178972
C   1.2590417193 -0.3880188766  1.0970472105
O   5.0372257050  2.2988790720 -0.2941365853
H  -1.1512724822 -0.6242747880  1.6052525640
H  -0.5758109244 -1.1689955428 -0.6819312605
H  -1.5908148192  0.2644205658 -0.9947699858
H   0.3449422039  1.7111400918 -1.0487970091
H   0.8988795616  0.3242974464 -1.9970007520
H   0.8761679647 -1.3746971321  0.8973450408
H   4.2242787698  1.7730064999 -0.1186311630
H   1.9797444739 -0.3348061213  1.8997349117
H   4.7910315903  2.7769427086 -1.0886193020
17
Image 79  Energy = -421.91655898
C  -0.6676884112  0.1896999514  1.0098051168
O  -0.9431277820  1.3825100318  1.3438044858
C  -0.6684520170 -0.1029165467 -0.5168777571
C   0.5494683059  0.6413838356 -1.0251200649
C   1.6217763275  0.4557976438  0.0130026207
O   2.7154231631  1.0173472057 -0.0690809080
C   1.1694445579 -0.3406424043  1.1167932232
O   5.0131816760  2.2840116245 -0.2868330832
H  -1.1381039962 -0.6401089359  1.5900531050
H  -0.5774795377 -1.1752772956 -0.6997767312
H  -1.5867994615  0.2669130529 -0.9775055332
H   0.3398751311  1.7119237466 -1.0565974008
H   0.9080435214  0.3248819427 -2.0028092164
H   0.9244986639 -1.3688790754  0.8601998040
H   4.1934137257  1.7619759109 -0.1228190315
H   1.9155606313 -0.3056991302  1.9068914688
H   4.7809656488  2.7670791383 -1.0831299023
17
Image 80  Energy = -421.92137370
C  -0.5788733038  0.1626959115  1.0248828552
O  -0.8714434088  1.3742455884  1.3606655116
C  -0.6606915876 -0.1048152594 -0.5164750040
C   0.5500760887  0.6468934184 -1.0407575779
C   1.6140025376  0.4699279425  0.0049510822
O   2.7244345268  0.9840396157 -0.0606242985
C   1.1051400914 -0.3144201970  1.1174831218
O   4.9854093922  2.2684849456 -0.2803346475
H  -1.1117468892 -0.6551213204  1.5750256948
H  -0.5829937572 -1.1754987853 -0.7246077174
H  -1.5895257405  0.2775539341 -0.9419972469
H   0.3321579691  1.7158507901 -1.0733139471
H   0.9134481893  0.3271934921 -2.0154282840
H   0.9889636292 -1.3618294284  0.8261630054
H   4.1605034930  1.7464894495 -0.1285962595
H   1.8030030969 -0.2474761722  1.9511734485
H   4.7681368944  2.7557867237 -1.0782090030
17
Image 81  Energy = -421.92628965
C  -0.5219656908  0.1280231102  1.0250199359
O  -0.7933659371  1.3572457177  1.3838623410
C  -0.6564244875 -0.1002932031 -0.5208029192
C   0.5499828493  0.6587403418 -1.0531372774
C   1.6113055437  0.4736485076 -0.0054868404
O   2.7406524228  0.9305498870 -0.0696234612
C   1.0610078050 -0.3039205240  1.1138562178
O   4.9610878699  2.2596815706 -0.2760996546
H  -1.0832516225 -0.6804721951  1.5574320558
H  -0.5910909944 -1.1663418183 -0.7608334643
H  -1.5953238834  0.2959268513 -0.9060734818
H   0.3275410540  1.7259616870 -1.0839501261
H   0.9134853997  0.3410333835 -2.0296707635
H   1.0739217005 -1.3645432246  0.8307175074
H   4.1381808044  1.7288142602 -0.1383698257
H   1.6608208977 -0.1600137449  2.0103754836
H   4.7534361854  2.7459597343 -1.0772152291
17
Image 82  Energy = -421.92869308
C  -0.5013260424  0.0923029656  1.0149837561
O  -0.7647991306  1.3223388254  1.4063634550
C  -0.6541668908 -0.0878416995 -0.5340604389
C   0.5535141508  0.6773724371 -1.0545151976
C   1.6197994618  0.4521481471 -0.0170432179
O   2.7750107808  0.8269078068 -0.1148308393
C   1.0437086210 -0.2938127035  1.1243013764
O   4.9345446162  2.2659787933 -0.2748499191
H  -1.0791913689 -0.7216590581  1.5198238395
H  -0.6055430784 -1.1446012792 -0.8184515541
H  -1.5958534088  0.3319337457 -0.8855210510
H   0.3360467901  1.7461650772 -1.0602958910
H   0.9113562551  0.3836347389 -2.0410435959
H   1.1721059602 -1.3678202337  0.9187334362
H   4.1349983883  1.6988787145 -0.1509815686
H   1.5482164903 -0.0436368935  2.0541157943
H   4.7215788889  2.7317109270 -1.0867286636
17
Image 83  Energy = -421.92960837
C  -0.5054620680  0.0694874579  1.0059350620
O  -0.8125630362  1.2805718274  1.4279658566
C  -0.6452052635 -0.0712435039 -0.5476140816
C   0.5654717791  0.7020801021 -1.0467240800
C   1.6379405760  0.4210582119 -0.0285613169
O   2.8181017917  0.6925043027 -0.1691204491
C   1.0389228991 -0.2692750588  1.1405891959
O   4.9016282241  2.2707569218 -0.2802013797
H  -1.0710390130 -0.7740516655  1.4771099887
H  -0.5985749504 -1.1192317172 -0.8635601681
H  -1.5859566601  0.3616458581 -0.8858388185
H   0.3552891846  1.7727820911 -1.0073183280
H   0.9159193694  0.4458847916 -2.0459413639
H   1.2289706241 -1.3473795479  1.0213654299
H   4.1378647250  1.6573338488 -0.1657763527
H   1.4951565594  0.0647966514  2.0691553379
H   4.6735348524  2.7122799414 -1.1014643730
17
Image 84  Energy = -421.92994074
C  -0.5141163896  0.0516789344  0.9969133793
O  -0.8766561834  1.2377223704  1.4444320108
C  -0.6321916204 -0.0569536741 -0.5610760381
C   0.5770500882  0.7329177069 -1.0357125298
C   1.6524657881  0.4003628049 -0.0359664147
O   2.8464676614  0.5781341776 -0.2120622607
C   1.0363382158 -0.2382856678  1.1558841947
O   4.8742452379  2.2477891175 -0.2897317535
H  -1.0555035016 -0.8255275141  1.4364940854
H  -0.5718383198 -1.0972794148 -0.8987938074
H  -1.5743891301  0.3741192555 -0.8974823162
H   0.3684873368  1.8019639308 -0.9461764545
H   0.9217071880  0.5188739233 -2.0463446664
H   1.2712265626 -1.3124912976  1.1098710507
H   4.1348155548  1.6042454701 -0.1890757621
H   1.4554237665  0.1623634095  2.0765617306
H   4.6364681033  2.6903667837 -1.1077345420
17
Image 85  Energy = -421.92987432
C  -0.5249397089  0.0310369194  0.9855338427
O  -0.9403221369  1.1904493500  1.4553915358
C  -0.6205303229 -0.0459431217 -0.5763293578
C   0.5833305402  0.7680273112 -1.0224819378
C   1.6583336368  0.3935452251 -0.0377140629
O   2.8573161988  0.5058385299 -0.2366525243
C   1.0320764572 -0.2099594998  1.1682902329
O   4.8716684988  2.1970312043 -0.3041588927
H  -1.0400651160 -0.8767181409  1.3952291769
H  -0.5406373321 -1.0777546660 -0.9350782617
H  -1.5653351033  0.3783237831 -0.9136940907
H   0.3696729252  1.8312034765 -0.8816880425
H   0.9248651020  0.5999302821 -2.0424258138
H   1.3100916532 -1.2738769604  1.1866502646
H   4.1379211753  1.5455417447 -0.2129281778
H   1.4138736140  0.2507072054  2.0779783421
H   4.6226795488  2.6626173007 -1.1059219592
17
Image 86  Energy = -421.92980460
C  -0.5377476876  0.0002730906  0.9790387991
O  -0.9686937305  1.1388092135  1.4843155341
C  -0.6121814062 -0.0219580304 -0.5858262655
C   0.5948424552  0.8098995534 -0.9883276758
C   1.6577968997  0.4024829987 -0.0034663262
O   2.8595934293  0.5161466908 -0.1819247502
C   1.0175601606 -0.2352158772  1.1768347572
O   4.8923433445  2.1673236399 -0.3763650006
H  -1.0505119004 -0.9257546076  1.3491029372
H  -0.5254213211 -1.0404134746 -0.9794823460
H  -1.5536065660  0.4121501721 -0.9198422760
H   0.3781068683  1.8669159972 -0.8110835221
H   0.9457185494  0.6796087756 -2.0105853841
H   1.3052322456 -1.2964758866  1.1759398570
H   4.1459774350  1.5345287093 -0.2534319458
H   1.3797663316  0.2077808462  2.1029844498
H   4.6212251554  2.6538980010 -1.1578799456
17
Image 87  Energy = -421.92978134
C  -0.5480332769 -0.0229000833  0.9757324594
O  -0.9785723757  1.1035614987  1.5080468497
C  -0.6050930696 -0.0009229826 -0.5895327654
C   0.6063340554  0.8417263810 -0.9547495463
C   1.6558111097  0.4168746381  0.0380930107
O   2.8589696142  0.5568356610 -0.1057519277
C   1.0027904100 -0.2690845427  1.1834029208
O   4.9172333502  2.1423944284 -0.4648181730
H  -1.0675584692 -0.9568080618  1.3150739853
H  -0.5151088756 -1.0080643413 -1.0107867074
H  -1.5421632710  0.4438537451 -0.9216061961
H   0.3860059360  1.8945316412 -0.7591584702
H   0.9689701454  0.7342030547 -1.9756144559
H   1.2866065958 -1.3304697313  1.1375035208
H   4.1575166241  1.5366845062 -0.2933651579
H   1.3545342337  0.1310307413  2.1324407558
H   4.6117575542  2.6565536658 -1.2149091490
17
Image 88  Energy = -421.92975616
C  -0.5600629013 -0.0447928951  0.9733302303
O  -0.9923897199  1.0691100703  1.5300697129
C  -0.5983360337  0.0203084788 -0.5909413750
C   0.6182183760  0.8722431024 -0.9173981226
C   1.6543067895  0.4334074330  0.0861304312
O   2.8572157469  0.6078657723 -0.0146776630
C   0.9871303312 -0.3044326391  1.1905078986
O   4.9486112019  2.1046195671 -0.5799609927
H  -1.0870363957 -0.9854247306  1.2825743130
H  -0.5041510207 -0.9744467305 -1.0395635296
H  -1.5319870962  0.4742199622 -0.9210977466
H   0.3923090260  1.9216217009 -0.7101830936
H   0.9948430732  0.7855462827 -1.9357625573
H   1.2658433430 -1.3640697318  1.0956810441
H   4.1800440608  1.5354650215 -0.3401537312
H   1.3321327000  0.0494309273  2.1602934284
H   4.5933087663  2.6693281579 -1.2688476907
17
Image 89  Energy = -421.93320212
C  -0.5684145346 -0.0604628436  0.9729491194
O  -0.9996574458  1.0431847433  1.5457612504
C  -0.5894046121  0.0273603281 -0.5890131448
C   0.6255451791  0.8887711985 -0.8942708065
C   1.6469782177  0.4724017750  0.1292595286
O   2.8396671669  0.7121655912  0.0845372355
C   0.9794726463 -0.3145583131  1.2040289020
O   4.9712688956  2.0026750542 -0.7299066158
H  -1.0935007904 -1.0074165876  1.2612336472
H  -0.4902091247 -0.9608849146 -1.0510169360
H  -1.5190796840  0.4866248052 -0.9227955682
H   0.3901378487  1.9370615783 -0.6951068690
H   1.0148128291  0.8001377043 -1.9072835501
H   1.2643836464 -1.3663586739  1.0752606311
H   4.1834934005  1.5038835904 -0.4025855499
H   1.3128672921  0.0134260979  2.1888164319
H   4.5816387709  2.6919882531 -1.2698679861
17
Image 90  Energy = -421.93165062
C  -0.5971590792 -0.0978741528  0.9739730055
O  -1.0769368676  0.9630533075  1.5869535788
C  -0.6078825829  0.0485325351 -0.5837428844
C   0.6321048388  0.8769266715 -0.8758529983
C   1.6455842735  0.4692224622  0.1622984747
O   2.8348540031  0.7329175501  0.1264411097
C   0.9551291050 -0.3215945006  1.2274868772
O   5.0473157423  2.0178007905 -0.8211686648
H  -1.0978049380 -1.0736661782  1.2100595450
H  -0.5578526704 -0.9233972558 -1.0847031227
H  -1.5214826419  0.5575582898 -0.8883848406
H   0.4222591009  1.9339302657 -0.6987191332
H   1.0359908172  0.7646813860 -1.8815406677
H   1.2576860804 -1.3708483274  1.1234191704
H   4.2697002953  1.5294948566 -0.4849081844
H   1.2511198105  0.0191008513  2.2201466364
H   4.6573747902  2.7441613263 -1.3117573118
17
Image 91  Energy = -421.92939832
C  -0.6229923935 -0.1204491056  0.9779783417
O  -1.1326142486  0.9121145232  1.6146122489
C  -0.6271363524  0.0607768470 -0.5776463537
C   0.6327380577  0.8569175813 -0.8694490480
C   1.6386862351  0.4540212791  0.1807373671
O   2.8273778866  0.7179770801  0.1416934305
C   0.9294765796 -0.3271871204  1.2472771883
O   5.1188027946  2.0920195797 -0.8221243383
H  -1.1095061977 -1.1119837606  1.1790469336
H  -0.6130843004 -0.9014238945 -1.0978950621
H  -1.5278213966  0.6027435759 -0.8630414279
H   0.4493637443  1.9219847784 -0.7193921831
H   1.0487021945  0.7144144256 -1.8671055729
H   1.2385758474 -1.3761101335  1.1651646038
H   4.3519957024  1.5527324776 -0.5748817648
H   1.2065080323  0.0265591972  2.2409200497
H   4.7409284196  2.7948921809 -1.3558951254
17
Image 92  Energy = -421.92598084
C  -0.6452948796 -0.1370548096  0.9833855783
O  -1.1783482526  0.8711364640  1.6384912774
C  -0.6409909345  0.0715445662 -0.5719088233
C   0.6332667181  0.8441808109 -0.8627882728
C   1.6291725716  0.4461137303  0.2004539913
O   2.8172451680  0.7102695317  0.1625636315
C   0.9083845463 -0.3315217310  1.2650144750
O   5.1598684107  2.1630868565 -0.7987211347
H  -1.1222632195 -1.1394797112  1.1540927315
H  -0.6499275877 -0.8838008992 -1.1038232711
H  -1.5324353315  0.6336434925 -0.8476205710
H   0.4716056415  1.9157414370 -0.7426826579
H   1.0611089928  0.6712331447 -1.8510659192
H   1.2227931229 -1.3795862298  1.1924554048
H   4.4233082860  1.5478435855 -0.6910840226
H   1.1776601312  0.0269997065  2.2594606241
H   4.8148469547  2.8396496880 -1.3862226944
17
Image 93  Energy = -421.92198724
C  -0.6641017149 -0.1476960136  0.9889474728
O  -1.2132041363  0.8415469947  1.6576985165
C  -0.6513964504  0.0790017373 -0.5680221811
C   0.6318939618  0.8365660991 -0.8561230137
C   1.6165333949  0.4414929693  0.2189632317
O   2.8028402066  0.7048711750  0.1907449703
C   0.8916533527 -0.3350212612  1.2799293804
O   5.1694609138  2.2242464642 -0.7656024113
H  -1.1367868583 -1.1565449814  1.1323927661
H  -0.6741853093 -0.8729166896 -1.1053212247
H  -1.5354503789  0.6521617065 -0.8449849792
H   0.4828934827  1.9118628031 -0.7583917375
H   1.0701753872  0.6406077763 -1.8358683972
H   1.2096742732 -1.3823426727  1.2105193759
H   4.5055823837  1.5287524229 -0.8120273860
H   1.1710808683  0.0277111779  2.2709387355
H   4.8733372094  2.8757002793 -1.4037929269
17
Image 94  Energy = -421.91745974
C  -0.6780448307 -0.1552456270  0.9945104122
O  -1.2408879798  0.8143291711  1.6778310898
C  -0.6582791193  0.0856326844 -0.5654606113
C   0.6321697450  0.8315181737 -0.8520447182
C   1.6087831700  0.4442967808  0.2332470907
O   2.7922998521  0.7162810009  0.2158849846
C   0.8843580191 -0.3342174248  1.2911941192
O   5.1275828476  2.2604699254 -0.7222422884
H  -1.1471049152 -1.1693883604  1.1140496521
H  -0.6930394075 -0.8639013331 -1.1068234946
H  -1.5346620641  0.6674381701 -0.8492518533
H   0.4922177770  1.9097081651 -0.7746887650
H   1.0773597379  0.6170764471 -1.8252474167
H   1.2046207321 -1.3810041282  1.2237087889
H   4.5833291791  1.4967752592 -0.9294117633
H   1.1786456047  0.0302243253  2.2786172524
H   4.9206524933  2.9000066940 -1.4038716082
17
Image 95  Energy = -421.91218454
C  -0.6949409538 -0.1624780739  0.9984494284
O  -1.2632713567  0.7926203836  1.6930206378
C  -0.6660799184  0.0908582468 -0.5653873750
C   0.6307587891  0.8276816851 -0.8450472930
C   1.6017804746  0.4507573832  0.2473827361
O   2.7831471671  0.7347875110  0.2360502543
C   0.8847667987 -0.3335472967  1.3032534284
O   5.0536408243  2.2763330669 -0.6899747019
H  -1.1725841155 -1.1762823646  1.0985519673
H  -0.7081623909 -0.8545965172 -1.1144828961
H  -1.5321380295  0.6816142588 -0.8660861073
H   0.4989484208  1.9082223973 -0.7868472784
H   1.0810665539  0.5930594397 -1.8107915580
H   1.2202729499 -1.3745439546  1.2348008072
H   4.6618799947  1.4680441694 -1.0257672934
H   1.2074354689  0.0299514623  2.2868288670
H   4.9634794069  2.9175174282 -1.3939533522
17
Image 96  Energy = -421.90518811
C  -0.7213407028 -0.1685788058  0.9982724518
O  -1.2778576010  0.7719342201  1.7107116698
C  -0.6769571104  0.0950722429 -0.5693012556
C   0.6274472078  0.8227819816 -0.8343899837
C   1.5960689707  0.4564081134  0.2615372229
O   2.7760203096  0.7558338383  0.2493787285
C   0.8960066251 -0.3302154294  1.3200322710
O   4.9779887918  2.2783419041 -0.6851505857
H  -1.2171715025 -1.1807558615  1.0791790477
H  -0.7241094524 -0.8464360928 -1.1260761975
H  -1.5286250594  0.6946983626 -0.9031217323
H   0.4991536089  1.9038647512 -0.7880722335
H   1.0821082448  0.5703009865 -1.7914730346
H   1.2429583255 -1.3667522585  1.2499354652
H   4.7349600638  1.4425275052 -1.0869332526
H   1.2641808757  0.0324323909  2.2922115890
H   4.9991685235  2.9385421533 -1.3767400581
