17
Image 0  Energy = -421.95585717
C  -2.0073002718  0.4795465230  0.0352569676
O  -2.1158444676  1.6897554284  0.0307083511
C  -0.7551715074 -0.3059680434  0.0038999829
C   0.5298361264  0.4961876245 -0.0610830005
C   1.7910580922 -0.3736777021 -0.1405986032
O   1.6600204142 -1.5295494727 -0.6342005479
C   2.9655833137  0.2296232253  0.3030560188
O   4.5757458809  2.5551745625  0.0311275711
H  -2.9385051460 -0.1218560993  0.0718717357
H  -0.7637304970 -0.9495198981  0.8898017276
H  -0.8058081532 -1.0048448504 -0.8330477910
H   0.5859281796  1.1735791787  0.7863519360
H   0.5156079481  1.1084496280 -0.9617341261
H   2.8606780440  0.9814026540  1.0751754459
H   4.0079610041  1.7584723741 -0.0531237525
H   3.8865894462 -0.3454651897  0.2576456031
H   4.5573523072  3.0286902061 -0.8011065023
17
Image 1  Energy = -421.95453067
C  -2.0196534275  0.4780435116  0.0359691589
O  -2.1173618461  1.6871577376  0.0181172468
C  -0.7742018794 -0.3193217817  0.0069822091
C   0.5126803171  0.4778274343 -0.0690030605
C   1.7742175356 -0.3956577863 -0.1269780759
O   1.6378178714 -1.5808035478 -0.5395517400
C   2.9547716271  0.2474920554  0.2556394845
O   4.6660074162  2.5390685073  0.0760708478
H  -2.9550334351 -0.1158366890  0.0837117069
H  -0.7821224403 -0.9572330589  0.8967728770
H  -0.8342070672 -1.0226785249 -0.8262769744
H   0.5685660085  1.1661106819  0.7707447626
H   0.4977643538  1.0792723151 -0.9771951470
H   2.8556016043  1.0307002031  0.9894128150
H   4.0562553859  1.7716743616 -0.0743218313
H   3.8848250009 -0.3056564640  0.1852419584
H   4.6240729663  3.0898409386 -0.7053356878
17
Image 2  Energy = -421.95190626
C  -2.0237213949  0.4822589894  0.0348583207
O  -2.1094367320  1.6925039951  0.0024290881
C  -0.7877580136 -0.3288319518  0.0090299243
C   0.5043025664  0.4573989856 -0.0694166781
C   1.7625165093 -0.4189794780 -0.1078103915
O   1.6227674648 -1.6302032034 -0.4340422191
C   2.9475436849  0.2560584367  0.1994377019
O   4.6936851961  2.5305635977  0.1229485260
H  -2.9640250465 -0.1012815899  0.0932607320
H  -0.8008994782 -0.9657754851  0.8987550355
H  -0.8584588912 -1.0313357804 -0.8240397213
H   0.5607843981  1.1530685125  0.7651062527
H   0.4931378297  1.0534814635 -0.9818826383
H   2.8581480880  1.0633112792  0.9097493101
H   4.0762481337  1.7929493654 -0.1019112949
H   3.8867013181 -0.2751844244  0.0976791123
H   4.6884648324  3.1399964229 -0.6141509881
17
Image 3  Energy = -421.94939693
C  -2.0140686633  0.4937219966  0.0317064118
O  -2.0804838954  1.7041089420 -0.0078854021
C  -0.7902898961 -0.3365269302  0.0072952496
C   0.5062276003  0.4415584263 -0.0685538867
C   1.7657940480 -0.4332683340 -0.0932562662
O   1.6315358648 -1.6660197978 -0.3221868313
C   2.9521143290  0.2723376986  0.1324880050
O   4.6123714727  2.5507921822  0.1762860168
H  -2.9624849390 -0.0754674612  0.0952076392
H  -0.8097017330 -0.9737218438  0.8960494816
H  -0.8733273980 -1.0357904379 -0.8276534158
H   0.5618967320  1.1338948843  0.7690702293
H   0.4932547346  1.0434682993 -0.9772494353
H   2.8752310353  1.0617065006  0.8637874974
H   4.0436907200  1.8045094634 -0.1356916604
H   3.8905990579 -0.2578285109  0.0226260830
H   4.7476403020  3.1425254357 -0.5620396704
17
Image 4  Energy = -421.94545194
C  -2.0093662572  0.4967644855  0.0295271947
O  -2.0618653564  1.7080938332 -0.0091284196
C  -0.7912627988 -0.3444587803  0.0027605617
C   0.5034627102  0.4387919830 -0.0743780618
C   1.7791011645 -0.4134565503 -0.0928650800
O   1.6799875583 -1.6587967502 -0.2310834436
C   2.9610814986  0.3268289062  0.0627097593
O   4.5694302421  2.5094419953  0.1868222523
H  -2.9652829973 -0.0602559853  0.0941760252
H  -0.8128506940 -0.9789492038  0.8931798549
H  -0.8842677364 -1.0442396187 -0.8310316934
H   0.5517246581  1.1232274571  0.7701927039
H   0.4796149342  1.0521979304 -0.9758122849
H   2.8952931566  1.0427186801  0.8674913091
H   4.0026158991  1.7707115613 -0.1857822555
H   3.8829817111 -0.2388555409 -0.0040304240
H   4.7696023976  3.1402353698 -0.5027478166
