17
Image 0  Energy = -421.91331986
C  -1.9760486580  0.5090695052  0.0154802914
O  -2.0724342831  1.7143257861  0.0029562152
C  -0.7080763610 -0.2763485932 -0.0215855232
C   0.5675016928  0.5393853908 -0.0639459565
C   1.8163017490 -0.3244689371 -0.1133620748
O   1.6966805569 -1.5189761123 -0.4090588742
C   3.0934985926  0.3143361207  0.2217328016
O   4.2708755422  2.7510403577  0.0647344180
H  -2.9008825137 -0.1005351644  0.0662245331
H  -0.7262029577 -0.9267715344  0.8590665997
H  -0.7719886834 -0.9592079827 -0.8714042154
H   0.6148709946  1.2193717169  0.7850649469
H   0.5837675059  1.1683259287 -0.9563457992
H   3.0553366869  0.6982813970  1.2381267241
H   3.4099416833  1.2867244933 -0.2571894111
H   3.9219583154 -0.3769735380  0.1370374991
H   4.6749010412  3.1524210017 -0.6975315768
17
Image 1  Energy = -421.89069034
C  -1.9717225985  0.5137855803  0.0137013967
O  -2.0702365349  1.7149692290  0.0079579456
C  -0.7008635806 -0.2718299271 -0.0274608811
C   0.5715125606  0.5535672232 -0.0638587675
C   1.8213192574 -0.3290280924 -0.1099439745
O   1.6719359773 -1.5102008552 -0.4083295376
C   3.1084892356  0.2938770446  0.2363143638
O   4.1799871117  2.7585036365  0.0086766704
H  -2.8962162394 -0.1016261423  0.0605769852
H  -0.7168462826 -0.9283449087  0.8490637404
H  -0.7531024802 -0.9528571395 -0.8796942826
H   0.6207950696  1.2288043466  0.7881589751
H   0.5841255514  1.1855646164 -0.9531272905
H   3.0491935561  0.6257408063  1.2701015935
H   3.4693188545  1.3709109555 -0.1994617328
H   3.9191463490 -0.4166393991  0.1387030509
H   4.6631650051  3.1348029562 -0.7313777624
17
Image 2  Energy = -421.89616782
C  -1.9678391530  0.5133046771  0.0132097168
O  -2.0707207122  1.7163210120  0.0112355884
C  -0.6976102166 -0.2674045946 -0.0276865184
C   0.5781863024  0.5558150746 -0.0572493213
C   1.8280390615 -0.3278430406 -0.1133295565
O   1.6760876150 -1.5059255511 -0.4393855503
C   3.1097302530  0.2845017314  0.2438415482
O   4.1107279425  2.7302606378 -0.0140041183
H  -2.8925518259 -0.1025251798  0.0569483727
H  -0.7124142123 -0.9296057416  0.8455237860
H  -0.7442369628 -0.9475195524 -0.8817872834
H   0.6191345151  1.2280971569  0.7968480194
H   0.5838230047  1.1923972585 -0.9435915578
H   3.0371439045  0.6387276585  1.2667463336
H   3.5467167537  1.4765017463 -0.1456393307
H   3.9100574104 -0.4406273392  0.1390080048
H   4.6357270277  3.0555240022 -0.7506876663
17
Image 3  Energy = -421.89986610
C  -1.9628371696  0.5141258974  0.0136423845
O  -2.0732851043  1.7172580748  0.0161035256
C  -0.6913801375 -0.2612187389 -0.0263390499
C   0.5878740531  0.5589541455 -0.0486632421
C   1.8368266239 -0.3275610506 -0.1223490310
O   1.6840262765 -1.4943546089 -0.4979057286
C   3.1081008917  0.2736436093  0.2683444881
O   4.0450245538  2.7084081367 -0.0384767533
H  -2.8864432634 -0.1043979260  0.0521905402
H  -0.7086776789 -0.9302469840  0.8430957218
H  -0.7332970172 -0.9394685284 -0.8829745651
H   0.6242289729  1.2236423141  0.8112722188
H   0.5860966264  1.2031896544 -0.9301120207
H   3.0203060477  0.6682154024  1.2751714581
H   3.5883833841  1.5430000407 -0.1146780758
H   3.9142882749 -0.4509658281  0.1533557024
H   4.6107652961  2.9677764637 -0.7716770983
17
Image 4  Energy = -421.90975526
C  -1.9601076282  0.5151288574  0.0144613636
O  -2.0762417437  1.7183131583  0.0195548707
C  -0.6883252639 -0.2568273281 -0.0238286431
C   0.5963999607  0.5565844544 -0.0424994013
C   1.8354167796 -0.3542153202 -0.1179022579
O   1.6774307120 -1.5076075737 -0.5545333747
C   3.0772199034  0.2177636079  0.3000025470
O   4.0110948300  2.6779327685 -0.0392537065
H  -2.8844360848 -0.1044353133  0.0499854493
H  -0.7072071439 -0.9300371162  0.8440297298
H  -0.7292093415 -0.9359618599 -0.8810125059
H   0.6336144554  1.2176417196  0.8205667535
H   0.5914347553  1.2067679646 -0.9213614446
H   3.0042929996  0.7186787691  1.2582357983
H   3.6691152808  1.6898424747 -0.1190868150
H   3.9156081603 -0.4639282273  0.1679322210
H   4.5838998282  2.9043587862 -0.7752900149
17
Image 5  Energy = -421.91590913
C  -1.9622204745  0.5159937247  0.0189897942
O  -2.0866102588  1.7176827642  0.0273247702
C  -0.6903265800 -0.2563317143 -0.0147648473
C   0.5987581278  0.5428972605 -0.0345757612
C   1.8267707794 -0.3818090830 -0.1334590592
O   1.6553711819 -1.5102748078 -0.6473948319
C   3.0359189225  0.1618821048  0.3310000860
O   4.0594876765  2.7180645135 -0.0255551567
H  -2.8835583138 -0.1078687920  0.0453370039
H  -0.7129130924 -0.9331808287  0.8494502853
H  -0.7229999331 -0.9308131365 -0.8741702822
H   0.6573791151  1.1946855221  0.8355042062
H   0.6013310145  1.1930759547 -0.9112719967
H   2.9662716517  0.7788846331  1.2190706090
H   3.7317282554  1.7758953814 -0.0969601951
H   3.9093870589 -0.4809922511  0.2362857119
H   4.5662255216  2.8722090732 -0.8248099708
17
Image 6  Energy = -421.91783742
C  -1.9700569424  0.5042660166  0.0243164974
O  -2.0942869498  1.7070325913  0.0422137293
C  -0.6978805801 -0.2670338966 -0.0090110741
C   0.5852213913  0.5379659274 -0.0343971310
C   1.8195078853 -0.3764862265 -0.1484848975
O   1.6561220319 -1.4765729473 -0.7257841983
C   3.0052996745  0.1522344248  0.3741879869
O   4.2297184228  2.6912389228 -0.0215004802
H  -2.8905233523 -0.1191282181  0.0412903598
H  -0.7183700530 -0.9390010871  0.8585673097
H  -0.7232367934 -0.9435111892 -0.8661593612
H   0.6501049081  1.1855418435  0.8379322325
H   0.5810527412  1.1876529991 -0.9102560455
H   2.9183869127  0.8293613281  1.2164887813
H   3.8287620875  1.7849613772 -0.0574585271
H   3.8982403280 -0.4657982564  0.3080530920
H   4.4719402336  2.8772756033 -0.9299981658
17
Image 7  Energy = -421.92397872
C  -1.9778870714  0.4975761969  0.0278992942
O  -2.1004794868  1.6994447023  0.0467899997
C  -0.7109314597 -0.2769605719 -0.0057878750
C   0.5703959994  0.5296495278 -0.0403910080
C   1.8131389681 -0.3752066768 -0.1530408363
O   1.6583020294 -1.4693055131 -0.7371035865
C   2.9926178104  0.1649406286  0.3813521561
O   4.3429880807  2.6579899428 -0.0203464083
H  -2.9022456210 -0.1232600279  0.0449439965
H  -0.7272782725 -0.9426694175  0.8670660360
H  -0.7367437143 -0.9599522831 -0.8581943430
H   0.6367725846  1.1820162667  0.8286227139
H   0.5619953290  1.1754838502 -0.9193275565
H   2.8939498812  0.8672643445  1.1997883231
H   3.8953077712  1.7818305034 -0.0471034818
H   3.8921656612 -0.4422725332  0.3258181379
H   4.4479336114  2.9034298770 -0.9409854479
17
Image 8  Energy = -421.94173216
C  -1.9927892524  0.4894516997  0.0321839480
O  -2.1084324782  1.6937073798  0.0454099670
C  -0.7306010905 -0.2893622735 -0.0015254686
C   0.5523621184  0.5173012370 -0.0512685201
C   1.8015882770 -0.3732989187 -0.1513640375
O   1.6612280817 -1.4844387691 -0.7182682712
C   2.9753286517  0.1832026942  0.3679208143
O   4.4664029953  2.6208824594 -0.0041514047
H  -2.9194234311 -0.1257688004  0.0553603324
H  -0.7409346467 -0.9449444156  0.8769698068
H  -0.7619769241 -0.9816575449 -0.8459719063
H   0.6169012557  1.1785185954  0.8094893098
H   0.5379636392  1.1515110465 -0.9384079311
H   2.8707343183  0.9149163904  1.1590807631
H   3.9610308532  1.7761969810 -0.0464225472
H   3.8885510506 -0.4046329890  0.3157802652
H   4.4720682273  2.9484141431 -0.9048148646
17
Image 9  Energy = -421.95585717
C  -2.0073002718  0.4795465230  0.0352569676
O  -2.1158444676  1.6897554284  0.0307083511
C  -0.7551715074 -0.3059680434  0.0038999829
C   0.5298361264  0.4961876245 -0.0610830005
C   1.7910580922 -0.3736777021 -0.1405986032
O   1.6600204142 -1.5295494727 -0.6342005479
C   2.9655833137  0.2296232253  0.3030560188
O   4.5757458809  2.5551745625  0.0311275711
H  -2.9385051460 -0.1218560993  0.0718717357
H  -0.7637304970 -0.9495198981  0.8898017276
H  -0.8058081532 -1.0048448504 -0.8330477910
H   0.5859281796  1.1735791787  0.7863519360
H   0.5156079481  1.1084496280 -0.9617341261
H   2.8606780440  0.9814026540  1.0751754459
H   4.0079610041  1.7584723741 -0.0531237525
H   3.8865894462 -0.3454651897  0.2576456031
H   4.5573523072  3.0286902061 -0.8011065023
