17
Image 0  Energy = -421.93331089
C  -1.7069037964  0.1831635822  0.5615793617
O  -1.9401743856  1.2947754017  0.9777311044
C  -0.6832350274 -0.1878928850 -0.4482517211
C   0.5496046291  0.7097983315 -0.5539334003
C   1.8118517077 -0.0978363251 -0.2036700214
O   2.0421002918 -1.0727071352 -0.9820290800
C   2.5229702468  0.3030269792  0.9048208170
O   4.7413266781  2.3653003509 -0.1306740703
H  -2.3403932604 -0.6539481725  0.9113063317
H  -0.3489423391 -1.2087954194 -0.2607892640
H  -1.2494452149 -0.2403851030 -1.3846305344
H   0.4412315248  1.5937364759  0.0698108652
H   0.6540879289  1.0374585660 -1.5867666501
H   2.1199453016  1.0539340337  1.5730501486
H   4.1822539047  1.7115866219  0.3250851178
H   3.3839541205 -0.2661366079  1.2429979984
H   4.3697678812  2.3449217849 -1.0156371760
17
Image 1  Energy = -421.93366483
C  -1.6495830610  0.1508780588  0.5897618970
O  -1.9037792461  1.2483638667  1.0307115636
C  -0.6744983154 -0.1665811154 -0.4850924451
C   0.5586119025  0.7301057970 -0.5835511954
C   1.8075295669 -0.0783156866 -0.1965734963
O   2.0597874082 -1.0530988486 -0.9696867967
C   2.4842249972  0.3122299597  0.9367918158
O   4.7035579402  2.3552692540 -0.1516320389
H  -2.2289361957 -0.7139045532  0.9631854722
H  -0.3350373788 -1.1963344018 -0.3709834087
H  -1.2794650981 -0.1559032906 -1.3982684185
H   0.4389055446  1.6253336894  0.0221447693
H   0.6810780936  1.0372348797 -1.6209022603
H   2.0763333403  1.0745246290  1.5885204747
H   4.1714322354  1.7263254433  0.3656810874
H   3.3250954452 -0.2706005832  1.3027175340
H   4.3147427562  2.2444735367 -1.0228238538
17
Image 2  Energy = -421.91869181
C  -1.5886422436  0.1352361397  0.6311313692
O  -1.8147229768  1.2226462464  1.0969249967
C  -0.6727846091 -0.1627941976 -0.5127843711
C   0.5626650775  0.7333379857 -0.6305185979
C   1.8175350600 -0.0565935047 -0.2127919159
O   2.1245035580 -1.0080632658 -0.9808888964
C   2.4477904312  0.3385079343  0.9549603664
O   4.6845540888  2.3310121300 -0.1419846579
H  -2.1471726068 -0.7389547246  1.0242956113
H  -0.3433998280 -1.2005071670 -0.4484220389
H  -1.3169321570 -0.1053177027 -1.3978795013
H   0.4295430171  1.6437200435 -0.0488050437
H   0.6883408824  1.0115883569 -1.6760083576
H   1.9939235231  1.0704898515  1.6105299852
H   4.1406134886  1.7171177897  0.3829312705
H   3.2524051637 -0.2745415553  1.3599840971
H   4.2917804385  2.2131161694 -1.0106738566
17
Image 3  Energy = -421.91877528
C  -1.5234201869  0.1164847218  0.6660077298
O  -1.6871168513  1.1885446400  1.1884831836
C  -0.6701838337 -0.1613091333 -0.5315547815
C   0.5606205317  0.7351582442 -0.6781970471
C   1.8179632971 -0.0324078459 -0.2309802647
O   2.1887842000 -0.9493826216 -1.0127419043
C   2.3790715617  0.3421814491  0.9794270920
O   4.6828712224  2.3134150192 -0.1218147431
H  -2.0945927779 -0.7556330740  1.0455313898
H  -0.3461974720 -1.2026253540 -0.5020915925
H  -1.3521515387 -0.0780140198 -1.3856324635
H   0.4185180410  1.6617254059 -0.1243955351
H   0.6866106272  0.9793768900 -1.7319688096
H   1.8845834422  1.0529231915  1.6291052119
H   4.1343590632  1.7004447744  0.3973073002
H   3.1872312552 -0.2546338092  1.4030730198
H   4.2830497475  2.2137519097 -0.9895577428
17
Image 4  Energy = -421.91794278
C  -1.4970052214  0.0962613097  0.6826463988
O  -1.6330126536  1.1570203577  1.2355890107
C  -0.6715913861 -0.1645485985 -0.5397472373
C   0.5516207158  0.7392099537 -0.7014544431
C   1.8214539147 -0.0010054803 -0.2383316945
O   2.2698643447 -0.8557549329 -1.0526487486
C   2.3133068472  0.3207169345  1.0155084345
O   4.7233920971  2.3113651781 -0.1091862934
H  -2.0729985403 -0.7770526438  1.0526151033
H  -0.3488917667 -1.2070799788 -0.5271534182
H  -1.3706037973 -0.0723709532 -1.3794147873
H   0.3939741773  1.6741326899 -0.1655739160
H   0.6791814745  0.9616083512 -1.7596799103
H   1.7846461593  1.0007314315  1.6718317040
H   4.1631940474  1.6657017299  0.3534427204
H   3.1178397979 -0.2742053595  1.4444388026
H   4.3256303832  2.2952707038 -0.9828817502
17
Image 5  Energy = -421.91639921
C  -1.5033179209  0.0916930297  0.6817097695
O  -1.6474259603  1.1532932030  1.2313722316
C  -0.6736018199 -0.1676981856 -0.5384983798
C   0.5463102171  0.7410562391 -0.6988401631
C   1.8194782178  0.0106021084 -0.2274520973
O   2.3207400756 -0.7926863906 -1.0653296460
C   2.2608085244  0.2773998005  1.0564561542
O   4.7743172976  2.3210042074 -0.1281620858
H  -2.0739464861 -0.7844219729  1.0532694296
H  -0.3481702952 -1.2096813302 -0.5207696308
H  -1.3701313164 -0.0825916909 -1.3810542712
H   0.3794626392  1.6775219816 -0.1675572131
H   0.6778888252  0.9593603177 -1.7573350631
H   1.7306678140  0.9518015495  1.7172721155
H   4.1968728288  1.6484247076  0.2715721751
H   3.0673771760 -0.3193111576  1.4792200658
H   4.3926707652  2.3942344431 -1.0058738464
17
Image 6  Energy = -421.91505867
C  -1.5041374877  0.0966453927  0.6774312171
O  -1.6540549078  1.1608550416  1.2231685828
C  -0.6674577342 -0.1673278247 -0.5339813378
C   0.5451480791  0.7478026917 -0.6947671274
C   1.8144861656  0.0214459987 -0.2125242060
O   2.3591371039 -0.7354700165 -1.0683352233
C   2.2012994006  0.2338702379  1.0971426716
O   4.8242673165  2.3153560744 -0.1766332756
H  -2.0729398350 -0.7793204581  1.0469609984
H  -0.3336744341 -1.2065542725 -0.4970572936
H  -1.3615512525 -0.1030700334 -1.3798427212
H   0.3727396937  1.6872363635 -0.1697213228
H   0.6819340891  0.9591863143 -1.7530178290
H   1.6532463234  0.8899881542  1.7624557591
H   4.2553544007  1.6197970345  0.1948691573
H   3.0265914645 -0.3404063958  1.5127053521
H   4.4096119984  2.4699657835 -1.0288544894
17
Image 7  Energy = -421.92950023
C  -1.4963659527  0.0993739017  0.6781227302
O  -1.6615201414  1.1674725355  1.2192075746
C  -0.6569477269 -0.1679328533 -0.5231141920
C   0.5485947199  0.7555958033 -0.6967151730
C   1.8312006093  0.0618119574 -0.2095785463
O   2.4435710019 -0.6301632180 -1.0862448810
C   2.1678511359  0.2232749295  1.1166447034
O   4.8172996150  2.2767237953 -0.1969618134
H  -2.0601446676 -0.7749121401  1.0587443765
H  -0.3170648610 -1.2046827943 -0.4767342904
H  -1.3477585289 -0.1199149693 -1.3733735268
H   0.3665209196  1.6988326617 -0.1834888044
H   0.6806243726  0.9574647544 -1.7577284799
H   1.5766769071  0.8290624047  1.7924681176
H   4.2595924551  1.5553941625  0.1399857331
H   3.0072118952 -0.3304846641  1.5330594131
H   4.3906584205  2.4730836876 -1.0342933549
17
Image 8  Energy = -421.92829315
C  -1.4921186120  0.1057726202  0.6777469644
O  -1.6707355787  1.1739578867  1.2123018034
C  -0.6460142187 -0.1683515239 -0.5164520493
C   0.5522189771  0.7629704509 -0.6972871500
C   1.8473294605  0.0955727997 -0.2029243935
O   2.5195000451 -0.5256130227 -1.0893212953
C   2.1369747724  0.2059102509  1.1381605120
O   4.8126931869  2.2480932701 -0.2223962258
H  -2.0550002807 -0.7701176021  1.0659530147
H  -0.3013741424 -1.2034971678 -0.4587989995
H  -1.3352524696 -0.1350325866 -1.3693176724
H   0.3598827301  1.7084313140 -0.1919631539
H   0.6813509618  0.9572664998 -1.7594716632
H   1.5133632348  0.7704480950  1.8203139797
H   4.2703692793  1.5035236850  0.0848903726
H   2.9869560503 -0.3317029162  1.5523860399
H   4.3698565271  2.4723681637 -1.0438205579
17
Image 9  Energy = -421.92807800
C  -1.4902899226  0.1114319133  0.6789238188
O  -1.6753027804  1.1824648782  1.2055566345
C  -0.6356542956 -0.1692710323 -0.5081625476
C   0.5565552142  0.7682857099 -0.6980923431
C   1.8656525869  0.1311278791 -0.1971929707
O   2.5990680124 -0.4093822213 -1.0898940070
C   2.1095870113  0.1866972278  1.1548898819
O   4.7961703294  2.2199027711 -0.2435474882
H  -2.0521303420 -0.7643186494  1.0687868718
H  -0.2885248159 -1.2026413618 -0.4388545019
H  -1.3228589496 -0.1488782562 -1.3635992310
H   0.3542500514  1.7160965908 -0.2013687697
H   0.6824271659  0.9548703251 -1.7618414612
H   1.4610596950  0.7168619185  1.8407896454
H   4.2746639659  1.4524247781  0.0415939532
H   2.9710854887 -0.3322675353  1.5683639785
H   4.3442412457  2.4565953040 -1.0563516360
17
Image 10  Energy = -421.92856156
C  -1.4898344527  0.1184572820  0.6809473603
O  -1.6755085268  1.1918700177  1.2019591874
C  -0.6260142461 -0.1712274328 -0.4978200999
C   0.5610182512  0.7710370273 -0.7009076719
C   1.8855639467  0.1688271717 -0.1943467664
O   2.6790429398 -0.2794756572 -1.0888466082
C   2.0858722837  0.1654116434  1.1645702538
O   4.7761006109  2.1924810634 -0.2604868122
H  -2.0560998933 -0.7554062496  1.0694150221
H  -0.2789398745 -1.2031390057 -0.4134066207
H  -1.3106081957 -0.1646328269 -1.3561050039
H   0.3489698310  1.7221704632 -0.2146062414
H   0.6817468353  0.9486164411 -1.7666564722
H   1.4125475053  0.6577190105  1.8539827026
H   4.2775722547  1.4058707961  0.0136839817
H   2.9610179866 -0.3289447209  1.5783221293
H   4.3175528783  2.4303653274 -1.0696988571
17
Image 11  Energy = -421.92918939
C  -1.4917054585  0.1270373532  0.6844336581
O  -1.6723891924  1.2037670878  1.1999707031
C  -0.6173571024 -0.1758877523 -0.4841353168
C   0.5621032747  0.7719542882 -0.7070025007
C   1.9004037160  0.2075444701 -0.1901800401
O   2.7491238324 -0.1456473880 -1.0785999738
C   2.0611407508  0.1430965066  1.1705943427
O   4.7721853143  2.1583832995 -0.2641058619
H  -2.0683188814 -0.7420487789  1.0696240270
H  -0.2646869440 -1.2040542885 -0.3792587221
H  -1.2989871515 -0.1904700710 -1.3451175720
H   0.3393065291  1.7287098422 -0.2367283140
H   0.6770035118  0.9347015313 -1.7755777164
H   1.3550606599  0.5786935971  1.8641182489
H   4.2768956438  1.3477877571 -0.0533207820
H   2.9535221887 -0.3170154985  1.5847431697
H   4.3166995195  2.4434483321 -1.0594574600
17
Image 12  Energy = -421.93025457
C  -1.4915630947  0.1322115830  0.6891227103
O  -1.6623410837  1.2109699375  1.2035713937
C  -0.6100457338 -0.1814439112 -0.4720555281
C   0.5615683336  0.7703500839 -0.7138568776
C   1.9120631117  0.2472301014 -0.1836877878
O   2.8106391168 -0.0086703530 -1.0598659927
C   2.0423294792  0.1279735670  1.1742176233
O   4.7690005006  2.1099088819 -0.2627868760
H  -2.0813500520 -0.7309808181  1.0686425534
H  -0.2519122964 -1.2064985998 -0.3539333434
H  -1.2913143213 -0.2115797251 -1.3332450566
H   0.3270640628  1.7334494680 -0.2626492071
H   0.6746529889  0.9154720849 -1.7851721494
H   1.3060922586  0.5074501978  1.8675332881
H   4.2557055800  1.2931338143 -0.1233130062
H   2.9522978081 -0.2945819939  1.5879069175
H   4.3271134992  2.4556060527 -1.0404289599
17
Image 13  Energy = -421.93199512
C  -1.4867639044  0.1354928277  0.6947427117
O  -1.6467560679  1.2148481791  1.2105471611
C  -0.6011564101 -0.1865981937 -0.4616998433
C   0.5632160561  0.7673640202 -0.7205405689
C   1.9221725349  0.2859766927 -0.1747638344
O   2.8610859342  0.1231180299 -1.0348651043
C   2.0228946937  0.1143833681  1.1775572910
O   4.7613996740  2.0587340611 -0.2581364532
H  -2.0899531932 -0.7220339022  1.0669941338
H  -0.2416436241 -1.2102701890 -0.3342054550
H  -1.2839014526 -0.2262803040 -1.3213562170
H   0.3186166395  1.7376980488 -0.2905060592
H   0.6782322009  0.8942128837 -1.7941742688
H   1.2614422665  0.4438358304  1.8677524925
H   4.2201250948  1.2464087035 -0.2008731682
H   2.9486446283 -0.2702700897  1.5928868803
H   4.3423452533  2.4633803302 -1.0193601436
17
Image 14  Energy = -421.93383561
C  -1.4766798679  0.1413817144  0.7067916234
O  -1.6187245801  1.2208628211  1.2264110560
C  -0.5939013278 -0.1924102863 -0.4483142279
C   0.5602432854  0.7636870705 -0.7344332047
C   1.9212791851  0.3230517905 -0.1688303723
O   2.8870479051  0.2437893424 -1.0128764885
C   1.9947205098  0.0963728837  1.1751622663
O   4.7747071513  2.0141230057 -0.2491422922
H  -2.0962726400 -0.7078404126  1.0712875168
H  -0.2301701187 -1.2121665727 -0.3044335877
H  -1.2801992455 -0.2482402938 -1.3031539538
H   0.3082851780  1.7459864965 -0.3375888130
H   0.6798043049  0.8577566542 -1.8108448536
H   1.1958678613  0.3427659128  1.8561956355
H   4.1952274473  1.2185610591 -0.2839200549
H   2.9349703380 -0.2424804107  1.5976035851
H   4.3937950131  2.5047992916 -0.9799141723
17
Image 15  Energy = -421.93485524
C  -1.4659685737  0.1507576761  0.7230933616
O  -1.5910623611  1.2317895617  1.2435566100
C  -0.5950835902 -0.1967760243 -0.4352780051
C   0.5510801593  0.7551403940 -0.7542100221
C   1.9118762892  0.3455499847 -0.1702942269
O   2.8963552187  0.3334105949 -0.9984659696
C   1.9642105123  0.0696102490  1.1646213133
O   4.8102226402  1.9942573191 -0.2351165114
H  -2.0936574302 -0.6908813828  1.0898970579
H  -0.2272282718 -1.2127978072 -0.2742665490
H  -1.2887770113 -0.2702321027 -1.2822616210
H   0.2988504654  1.7522010274 -0.3964412457
H   0.6742647717  0.8095263109 -1.8330368144
H   1.1312287853  0.2235333110  1.8305340873
H   4.1841040991  1.2333246641 -0.3417038051
H   2.9139582983 -0.2252511454  1.5978033093
H   4.4756263766  2.5668373169 -0.9284308992
17
Image 16  Energy = -421.93555113
C  -1.4533795760  0.1626214196  0.7395911289
O  -1.5770487359  1.2503047252  1.2467997804
C  -0.6034878604 -0.1982420564 -0.4291142237
C   0.5421189900  0.7410324453 -0.7751576857
C   1.8998426425  0.3573161146 -0.1689214805
O   2.9000321097  0.4121034923 -0.9774295055
C   1.9319726573  0.0306380685  1.1555369510
O   4.8538072843  2.0003757256 -0.2284100202
H  -2.0650762740 -0.6782814236  1.1314971430
H  -0.2398126870 -1.2154559324 -0.2619603639
H  -1.3094710645 -0.2758804614 -1.2657126746
H   0.2934529191  1.7532687318 -0.4596306855
H   0.6727593340  0.7548613366 -1.8547257046
H   1.0765909745  0.1030612751  1.8043813440
H   4.1917246736  1.2726955784 -0.3702893283
H   2.8871209252 -0.2297892285  1.5994568385
H   4.5488540265  2.6293704196 -0.8859115030
17
Image 17  Energy = -421.93645355
C  -1.4380891771  0.1775150839  0.7575035651
O  -1.5644766874  1.2751095230  1.2438915902
C  -0.6164266005 -0.1974717839 -0.4280666008
C   0.5348649356  0.7236434647 -0.7963710131
C   1.8856320992  0.3655148882 -0.1610082280
O   2.9002617013  0.4904290365 -0.9423295385
C   1.8968821499 -0.0149216959  1.1509541337
O   4.9150386681  2.0186380302 -0.2468161058
H  -2.0223395353 -0.6639341989  1.1866191790
H  -0.2627598358 -1.2184540078 -0.2620596392
H  -1.3376031831 -0.2671999179 -1.2520916670
H   0.2901885316  1.7513404708 -0.5295868036
H   0.6776597591  0.6929025454 -1.8746607025
H   1.0196035572 -0.0322654488  1.7737343810
H   4.2268845473  1.3146810467 -0.3855088532
H   2.8528927922 -0.2402588153  1.6118570494
H   4.5917867617  2.6947334902 -0.8460630229
17
Image 18  Energy = -421.92413200
C  -1.4271512930  0.1909818483  0.7755640439
O  -1.5485781862  1.2910671681  1.2399478456
C  -0.6287044347 -0.2002816954 -0.4312104330
C   0.5320822836  0.7052576342 -0.8133145338
C   1.8793381497  0.3726274613 -0.1484499119
O   2.9004679460  0.5664269605 -0.8890516014
C   1.8593667054 -0.0691746792  1.1517697802
O   4.9911082839  2.0617599302 -0.2893959244
H  -1.9903152064 -0.6563895749  1.2324233545
H  -0.2876114574 -1.2271206405 -0.2728092803
H  -1.3631822359 -0.2538672202 -1.2460915643
H   0.2846229136  1.7434412826 -0.5865029690
H   0.6880994526  0.6362641304 -1.8886241489
H   0.9578582351 -0.1352578812  1.7433932461
H   4.2878292607  1.3660294062 -0.3943231221
H   2.8053414249 -0.2878221983  1.6346639440
H   4.6094283415  2.7660587688 -0.8179882612
17
Image 19  Energy = -421.92455031
C  -1.4232837133  0.1898584681  0.7746133592
O  -1.5730651249  1.2954470203  1.2208146873
C  -0.6345319017 -0.1932268682 -0.4420019280
C   0.5402395847  0.7029117704 -0.8040055418
C   1.8731695139  0.3630845223 -0.1165068918
O   2.9114716186  0.6035237937 -0.8178531537
C   1.8216735131 -0.1363495775  1.1620107102
O   5.0317370721  2.1248284269 -0.3383992079
H  -1.9508281884 -0.6616736664  1.2643647494
H  -0.3079775961 -1.2267513985 -0.3044124789
H  -1.3679830257 -0.2177503467 -1.2587231427
H   0.2952889144  1.7430901149 -0.5847726230
H   0.7144362237  0.6337353059 -1.8766777824
H   0.9060833184 -0.2246884361  1.7237780771
H   4.3259231504  1.4302213155 -0.4011931455
H   2.7498910169 -0.3782236318  1.6657955266
H   4.6377555538  2.8219632950 -0.8668305114
17
Image 20  Energy = -421.92498518
C  -1.4155411139  0.1883480683  0.7751595303
O  -1.6018142254  1.2957672457  1.2026027478
C  -0.6407523436 -0.1819453367 -0.4554521794
C   0.5484324269  0.7038267705 -0.7959500937
C   1.8669916619  0.3532278194 -0.0890120474
O   2.9182372120  0.6342106938 -0.7540140087
C   1.7915885536 -0.2001717855  1.1656969342
O   5.0463070478  2.1824335273 -0.3519631801
H  -1.8964757968 -0.6733180079  1.2957852592
H  -0.3303691978 -1.2230912704 -0.3442502021
H  -1.3757108276 -0.1692094975 -1.2709523214
H   0.3092116021  1.7460728431 -0.5792819679
H   0.7392269479  0.6355463926 -1.8661427020
H   0.8659252527 -0.3275245819  1.7004363937
H   4.3350636560  1.4944312717 -0.3903453124
H   2.7114253379 -0.4464429272  1.6825082948
H   4.6782540375  2.8578387215 -0.9248247702
17
Image 21  Energy = -421.92532631
C  -1.4127436379  0.1862688642  0.7753244143
O  -1.6455746696  1.2917899446  1.1844097006
C  -0.6478404426 -0.1680884215 -0.4671556014
C   0.5544390664  0.7083986604 -0.7868079641
C   1.8629891326  0.3467117967 -0.0692521457
O   2.9211693909  0.6712726517 -0.7019032442
C   1.7760376155 -0.2612084477  1.1584918933
O   5.0475836772  2.2338942521 -0.3380918207
H  -1.8428926435 -0.6857703395  1.3230831695
H  -0.3521212928 -1.2156212703 -0.3830911833
H  -1.3830440897 -0.1180026207 -1.2805791232
H   0.3217099047  1.7516565407 -0.5669551556
H   0.7568620305  0.6459268776 -1.8555858952
H   0.8443879152 -0.4421764029  1.6648868850
H   4.3279920979  1.5554819267 -0.3624363401
H   2.6919977735 -0.5023291237  1.6847010392
H   4.7290481395  2.8717953280 -0.9790383935
17
Image 22  Energy = -421.92577287
C  -1.4126617046  0.1975716625  0.7763643532
O  -1.7049888022  1.2997394455  1.1490584035
C  -0.6601678889 -0.1563294627 -0.4704115892
C   0.5525306130  0.7072664904 -0.7822790690
C   1.8541323545  0.3434044454 -0.0583869679
O   2.9136804406  0.7169520056 -0.6633711636
C   1.7720928993 -0.3139292233  1.1423989106
O   5.0544752828  2.2719144559 -0.3159910259
H  -1.7776850789 -0.6753002838  1.3655457187
H  -0.3759379362 -1.2072447013 -0.3998702668
H  -1.3959495755 -0.0804384485 -1.2799732483
H   0.3290207963  1.7535896916 -0.5681445780
H   0.7618952188  0.6391447191 -1.8501681883
H   0.8441931239 -0.5720124278  1.6191847036
H   4.3266619651  1.6051822533 -0.3345644581
H   2.6881820398 -0.5391491144  1.6749819266
H   4.7805264689  2.8796384750 -1.0043733230
17
Image 23  Energy = -421.93948958
C  -1.4080674836  0.2087281608  0.7800753811
O  -1.7555027241  1.3138663329  1.1175075359
C  -0.6726236906 -0.1485618889 -0.4714902179
C   0.5483118307  0.7025830578 -0.7829727481
C   1.8420766989  0.3418924264 -0.0508804724
O   2.9034504394  0.7644095062 -0.6315414872
C   1.7683233271 -0.3571740779  1.1235154494
O   5.0655514314  2.2969331357 -0.2978004386
H  -1.7091683532 -0.6532649495  1.4147304710
H  -0.3996136442 -1.2025734478 -0.4082400487
H  -1.4108664159 -0.0525189666 -1.2755499060
H   0.3316393025  1.7524924958 -0.5795775826
H   0.7622649194  0.6232979479 -1.8494891429
H   0.8472925259 -0.6833749079  1.5713691702
H   4.3285332744  1.6431074863 -0.3086346765
H   2.6847343962 -0.5650242657  1.6630360582
H   4.8236644422  2.8851823631 -1.0140569987
17
Image 24  Energy = -421.92667999
C  -1.4015161447  0.2262104295  0.7946776908
O  -1.7820739076  1.3224806061  1.1018435477
C  -0.6880723129 -0.1427802597 -0.4737438585
C   0.5411350332  0.6953409214 -0.7925939516
C   1.8364723530  0.3463165970 -0.0529541077
O   2.8871655345  0.8150272145 -0.6024258364
C   1.7652530246 -0.3963312982  1.0985610954
O   5.0847478315  2.3165384818 -0.2714928326
H  -1.6446356013 -0.6279894235  1.4664855178
H  -0.4276155278 -1.2003521294 -0.4192041898
H  -1.4332787787 -0.0257177281 -1.2678434035
H   0.3277186439  1.7498425906 -0.6048538527
H   0.7569635414  0.5993271939 -1.8569872500
H   0.8513004608 -0.7813817681  1.5171564312
H   4.3359796011  1.6744875035 -0.2715044656
H   2.6828404468 -0.5869469790  1.6431427017
H   4.8576147626  2.8859275477 -1.0082619510
17
Image 25  Energy = -421.93640075
C  -1.3692810954  0.2334416472  0.8070727991
O  -1.8321035159  1.3149890558  1.0765710722
C  -0.7004431359 -0.1361906470 -0.4799641059
C   0.5376808797  0.6898964242 -0.8039108227
C   1.8179809355  0.3499701066 -0.0407502390
O   2.8776671897  0.8645703157 -0.5488869338
C   1.7377112737 -0.4231719727  1.0819961910
O   5.0925433558  2.3203413517 -0.2646758690
H  -1.4918573931 -0.5845660253  1.5474561175
H  -0.4492821807 -1.1968235167 -0.4380662561
H  -1.4537298740  0.0037281205 -1.2612032496
H   0.3245566054  1.7471962359 -0.6323531682
H   0.7627085586  0.5793797507 -1.8665381772
H   0.8306061557 -0.8637704222  1.4559260580
H   4.3253338130  1.7035813927 -0.2602964628
H   2.6426907809 -0.6084507874  1.6495672664
H   4.8972173624  2.8758790634 -1.0219442094
17
Image 26  Energy = -421.93730755
C  -1.3487698250  0.2478308780  0.8242439765
O  -1.8860505025  1.3094347303  1.0546342232
C  -0.7129537885 -0.1238901537 -0.4812543910
C   0.5386554150  0.6821757616 -0.8113948545
C   1.8064864996  0.3487910655 -0.0255971835
O   2.8684993790  0.9026733145 -0.4847619012
C   1.7131366430 -0.4598862383  1.0699263487
O   5.1195227874  2.3371777784 -0.2813287489
H  -1.3686110770 -0.5300813907  1.6081425608
H  -0.4789371465 -1.1887802662 -0.4537786851
H  -1.4729971509  0.0423222012 -1.2491752202
H   0.3314051546  1.7445505952 -0.6632055699
H   0.7716240300  0.5499910433 -1.8703417209
H   0.8172762809 -0.9720835739  1.3721426922
H   4.3481919989  1.7290000999 -0.2368536824
H   2.5960272002 -0.6252765069  1.6748245993
H   4.9074942208  2.8760505065 -1.0462223243
17
Image 27  Energy = -421.92440031
C  -1.3240964403  0.2697059520  0.8442956385
O  -1.8713406402  1.3194878630  1.0698740926
C  -0.7279824375 -0.1154850140 -0.4855148809
C   0.5391292740  0.6675831158 -0.8275511983
C   1.7962116012  0.3587909800 -0.0048284509
O   2.8448441667  0.9646148595 -0.3992080459
C   1.6857186111 -0.4974966483  1.0592406094
O   5.1550186514  2.3494649636 -0.3024963659
H  -1.2879674878 -0.4934286491  1.6447608695
H  -0.5175834097 -1.1858761471 -0.4709869815
H  -1.4988912341  0.0770891151 -1.2364696354
H   0.3322221487  1.7357644467 -0.7201745395
H   0.7884879940  0.4991347097 -1.8780098921
H   0.8063164142 -1.0766025244  1.2845190112
H   4.3695745384  1.7635180897 -0.2145349734
H   2.5441371360 -0.6458404416  1.7032746116
H   4.9162011027  2.8795754083 -1.0661896301
17
Image 28  Energy = -421.92427223
C  -1.2837695521  0.2759036151  0.8579536379
O  -1.7799996381  1.3433256168  1.1140745225
C  -0.7335680745 -0.1077020173 -0.4934330262
C   0.5420195020  0.6566579212 -0.8433333610
C   1.7775819678  0.3709239109  0.0186974507
O   2.8177232635  1.0215938600 -0.3178556865
C   1.6540944323 -0.5136664956  1.0574542973
O   5.1659689398  2.3466514309 -0.3264113999
H  -1.2590905254 -0.5026389157  1.6425817240
H  -0.5445902918 -1.1817891206 -0.4965517164
H  -1.5176706651  0.1118509775 -1.2221717196
H   0.3386599144  1.7279402662 -0.7786570388
H   0.8115182437  0.4494267064 -1.8865213596
H   0.7948394690 -1.1417434700  1.2220102075
H   4.3705303345  1.7823118264 -0.2000449763
H   2.4886596849 -0.6471454623  1.7347328044
H   4.9070932432  2.8780996658 -1.0825241810
17
Image 29  Energy = -421.92390605
C  -1.2366700166  0.2744565577  0.8718339925
O  -1.6727522547  1.3579661237  1.1661756671
C  -0.7345310158 -0.0982548056 -0.5019094714
C   0.5475434817  0.6487424780 -0.8654816470
C   1.7591366016  0.3844829674  0.0347340439
O   2.7953310360  1.0644532655 -0.2493343490
C   1.6177090697 -0.5158836848  1.0595441893
O   5.1636162979  2.3390163646 -0.3430264947
H  -1.2327417713 -0.5243157647  1.6350419166
H  -0.5668196916 -1.1753834704 -0.5269928129
H  -1.5331814699  0.1490241771 -1.2053960238
H   0.3484060544  1.7217841237 -0.8345026367
H   0.8328276123  0.4060415202 -1.8941346936
H   0.7843350985 -1.1904375406  1.1653780718
H   4.3604546388  1.7924969030 -0.1873049218
H   2.4263425946 -0.6330489675  1.7708657469
H   4.8909939148  2.8688598966 -1.0954903809
17
Image 30  Energy = -421.92313170
C  -1.1819925840  0.2653672181  0.8879681622
O  -1.5512470734  1.3608297769  1.2260408194
C  -0.7310657677 -0.0880434827 -0.5097332139
C   0.5542347057  0.6440757803 -0.8904106129
C   1.7434537547  0.3964760690  0.0407772421
O   2.7823284884  1.0857652817 -0.2052157324
C   1.5759587969 -0.5041733684  1.0648024164
O   5.1496938350  2.3327564465 -0.3478088800
H  -1.2115847815 -0.5582967310  1.6224602332
H  -0.5821644332 -1.1668602801 -0.5603929238
H  -1.5473992335  0.1860674083 -1.1818212242
H   0.3601381428  1.7187738676 -0.8888794800
H   0.8499499889  0.3712155727 -1.9081788289
H   0.7755288332 -1.2232192963  1.1143451009
H   4.3446072970  1.7939766978 -0.1730874185
H   2.3522018475 -0.5964599867  1.8133402772
H   4.8673585225  2.8517491710 -1.1042058871
17
Image 31  Energy = -421.92160261
C  -1.1157730182  0.2500659174  0.9063263053
O  -1.4175216012  1.3557227563  1.2808200406
C  -0.7229249283 -0.0827964266 -0.5162988374
C   0.5575860408  0.6430568771 -0.9191123753
C   1.7265076911  0.4070769833  0.0380420876
O   2.7745523648  1.0864028808 -0.1820392005
C   1.5231435065 -0.4767412171  1.0732274420
O   5.1322623908  2.3305894603 -0.3428244753
H  -1.2007345969 -0.5955040166  1.6091784623
H  -0.5858778287 -1.1615044804 -0.5905743096
H  -1.5642440864  0.2118965475 -1.1475254498
H   0.3667636859  1.7180615286 -0.9393335691
H   0.8635073892  0.3510220694 -1.9278084887
H   0.7672635047 -1.2454620788  1.0689593978
H   4.3309278219  1.7895562711 -0.1567357363
H   2.2719476431 -0.5443268388  1.8532206174
H   4.8426143049  2.8328838759 -1.1075216172
17
Image 32  Energy = -421.91943948
C  -1.0330186578  0.2329777410  0.9293495253
O  -1.3043845172  1.3468636533  1.3174436994
C  -0.7062017645 -0.0836903739 -0.5201032234
C   0.5594224800  0.6445771360 -0.9495715553
C   1.7046829324  0.4167012057  0.0297984358
O   2.7716389095  1.0616742888 -0.1697076751
C   1.4387865453 -0.4262112842  1.0944660479
O   5.1178525793  2.3317340286 -0.3351505530
H  -1.1960420118 -0.6260269370  1.6017730518
H  -0.5757464242 -1.1613481490 -0.6141204608
H  -1.5761119134  0.2245276163 -1.1048094895
H   0.3667285919  1.7188072180 -0.9739050798
H   0.8727562590  0.3478562555 -1.9539611803
H   0.7702280657 -1.2684908190  1.0249008775
H   4.3241716147  1.7821793164 -0.1428748528
H   2.1921905090 -0.4902727136  1.8744793650
H   4.8230469330  2.8181421290 -1.1080069274
17
Image 33  Energy = -421.91763250
C  -0.9403123761  0.2215910448  0.9553088626
O  -1.2195272141  1.3441858157  1.3387459117
C  -0.6871995854 -0.0861574325 -0.5195488243
C   0.5608818625  0.6457699592 -0.9792283439
C   1.6812726917  0.4185763412  0.0157376725
O   2.7645357077  1.0274329680 -0.1541095156
C   1.3503399885 -0.3906527205  1.1055704113
O   5.1064708286  2.3348688098 -0.3287178456
H  -1.1902498590 -0.6402102746  1.6001830870
H  -0.5614438835 -1.1626941726 -0.6346932575
H  -1.5801671062  0.2340790411 -1.0620884644
H   0.3632006737  1.7184026843 -0.9916294641
H   0.8749905702  0.3553855017 -1.9835718462
H   0.7973970441 -1.3044826691  0.9864450812
H   4.3229364920  1.7766403623 -0.1287448070
H   2.1012381117 -0.4282861074  1.8891310477
H   4.8056361577  2.8055510094 -1.1087896256
17
Image 34  Energy = -421.91708801
C  -0.8397851454  0.2106969453  0.9758859439
O  -1.1422005665  1.3470555343  1.3419894309
C  -0.6724082650 -0.0940554831 -0.5203528564
C   0.5583811303  0.6477682557 -1.0028956507
C   1.6633210539  0.4183481195  0.0025975982
O   2.7608285835  0.9941951797 -0.1339751201
C   1.2822662040 -0.3754581246  1.1040960350
O   5.0908024209  2.3352068001 -0.3197544434
H  -1.1666854611 -0.6454112949  1.5959993992
H  -0.5507151775 -1.1681382294 -0.6574182519
H  -1.5840778522  0.2410386096 -1.0190710611
H   0.3513674376  1.7184342380 -0.9961240694
H   0.8732087161  0.3711235387 -2.0101323355
H   0.8109299687 -1.3310515293  0.9594346075
H   4.3160148367  1.7696291731 -0.1152344283
H   2.0122240695 -0.3598394706  1.9026185242
H   4.7865281247  2.7904579624 -1.1076631814
17
Image 35  Energy = -421.91581093
C  -0.7780142985  0.2022608809  0.9797477895
O  -1.0603613631  1.3574235965  1.3429607976
C  -0.6660090011 -0.1005006036 -0.5237810001
C   0.5539168851  0.6522395712 -1.0139634514
C   1.6514791696  0.4200379662 -0.0020258669
O   2.7629777488  0.9570312968 -0.1309381507
C   1.2438013830 -0.3564185493  1.1110001400
O   5.0606299351  2.3285990431 -0.3057483652
H  -1.1415902606 -0.6553864964  1.5800656311
H  -0.5486922289 -1.1724797671 -0.6821878882
H  -1.5881875735  0.2455829670 -0.9936475250
H   0.3364898795  1.7211326654 -0.9934895889
H   0.8756354719  0.3917405325 -2.0230354484
H   0.8479153989 -1.3427548777  0.9378958093
H   4.2960701634  1.7503175440 -0.1022830825
H   1.9522512261 -0.2927925458  1.9226422541
H   4.7516877577  2.7639668854 -1.1032119906
17
Image 36  Energy = -421.91529787
C  -0.6870391231  0.1869873043  1.0017701528
O  -1.0075416024  1.3632847400  1.3477690842
C  -0.6614376542 -0.1062647165 -0.5227512764
C   0.5492801825  0.6513440451 -1.0250892035
C   1.6361626788  0.4335529851 -0.0033682343
O   2.7586987954  0.9293740226 -0.1216915824
C   1.1609686473 -0.3136537796  1.1280299822
O   5.0490143799  2.3204440722 -0.3014471381
H  -1.1253196401 -0.6714508280  1.5654439145
H  -0.5522914213 -1.1784145768 -0.6982496949
H  -1.5872286938  0.2471519871 -0.9795174247
H   0.3295465920  1.7207164969 -0.9974250914
H   0.8798512316  0.3958693828 -2.0314267035
H   0.8872150118 -1.3426063673  0.9118853460
H   4.2832097055  1.7436832757 -0.1037255050
H   1.8927378192 -0.2673127955  1.9299736371
H   4.7441731529  2.7572950438 -1.1001799961
17
Image 37  Energy = -421.91899708
C  -0.6081512212  0.1677104265  1.0161047162
O  -0.9517066732  1.3589064000  1.3607197906
C  -0.6558735904 -0.1084491321 -0.5227811807
C   0.5494472614  0.6536083306 -1.0388886698
C   1.6297194169  0.4427934555 -0.0107211428
O   2.7643412120  0.9024821111 -0.1098731325
C   1.1000387722 -0.2898377364  1.1294103194
O   5.0328560637  2.3108041459 -0.2977818632
H  -1.1025830845 -0.6835864907  1.5528060107
H  -0.5569878640 -1.1799957710 -0.7165915773
H  -1.5894262012  0.2546193736 -0.9544377126
H   0.3226950129  1.7217512073 -1.0059569107
H   0.8823003374  0.4003568854 -2.0445380067
H   0.9296906149 -1.3409089553  0.8887730553
H   4.2643784327  1.7332225957 -0.1083475495
H   1.8032465242 -0.2241397472  1.9600224183
H   4.7360150913  2.7506630210 -1.0979182964
17
Image 38  Energy = -421.92448438
C  -0.5451078188  0.1374003435  1.0206453732
O  -0.8777399981  1.3476288955  1.3814385180
C  -0.6530648417 -0.1048034475 -0.5251068867
C   0.5490747709  0.6621805098 -1.0518712491
C   1.6274123005  0.4465762687 -0.0218098838
O   2.7756601046  0.8597268508 -0.1081367670
C   1.0508880769 -0.2819189198  1.1223761199
O   5.0160535995  2.3042741233 -0.2948203070
H  -1.0750651016 -0.7015986259  1.5404751961
H  -0.5649933218 -1.1731883374 -0.7451134758
H  -1.5952912286  0.2704987662 -0.9243894300
H   0.3169369103  1.7281490973 -1.0150242851
H   0.8826584622  0.4094737329 -2.0579696970
H   0.9979501750 -1.3501171395  0.8841370045
H   4.2495977148  1.7204843578 -0.1143918534
H   1.6702576497 -0.1477389474  2.0074159950
H   4.7247727053  2.7429724832 -1.0978542954
17
Image 39  Energy = -421.92824296
C  -0.5122940211  0.1012603954  1.0112592135
O  -0.8219871406  1.3187377552  1.4028900834
C  -0.6509706806 -0.0939138962 -0.5358433608
C   0.5526178122  0.6778742466 -1.0570603899
C   1.6334190795  0.4374143533 -0.0296721830
O   2.7978210835  0.7899062283 -0.1327196752
C   1.0327918783 -0.2762747925  1.1243794791
O   4.9847645595  2.2960232721 -0.2924187943
H  -1.0538149390 -0.7386437610  1.5168758899
H  -0.5835170505 -1.1537557965 -0.8027429164
H  -1.5981601000  0.3081001522 -0.8926601383
H   0.3230694773  1.7434098600 -1.0111207082
H   0.8836261025  0.4344639631 -2.0668853762
H   1.1003525363 -1.3574195122  0.9378339761
H   4.2282250355  1.6926751118 -0.1299224293
H   1.5329829965 -0.0390568438  2.0590290882
H   4.7010736851  2.7291992656 -1.1012214998
17
Image 40  Energy = -421.92962731
C  -0.5054072768  0.0683094216  1.0009854458
O  -0.8351505952  1.2708365540  1.4298412400
C  -0.6430333340 -0.0781651473 -0.5502654118
C   0.5640857484  0.7003131544 -1.0519364794
C   1.6458618768  0.4175174254 -0.0361477834
O   2.8272532169  0.6887487711 -0.1758361522
C   1.0307730044 -0.2557961101  1.1391661577
O   4.9405135377  2.2801789211 -0.2939473228
H  -1.0385955006 -0.7950105915  1.4771432844
H  -0.5910036288 -1.1273197703 -0.8614812205
H  -1.5880373859  0.3492046331 -0.8812149036
H   0.3471715439  1.7676689842 -0.9780768089
H   0.8917413492  0.4823254677 -2.0681877158
H   1.1860299811 -1.3391871007  1.0346584824
H   4.2027893249  1.6454945189 -0.1609537149
H   1.4476189062  0.0826503317  2.0831474965
H   4.6673893372  2.7122307898 -1.1068942652
17
Image 41  Energy = -421.92994808
C  -0.5109849167  0.0445987918  0.9914257285
O  -0.8865425929  1.2230866181  1.4493885961
C  -0.6323705467 -0.0635613191 -0.5646386414
C   0.5746136732  0.7289133434 -1.0422945856
C   1.6563600980  0.4000261417 -0.0423858173
O   2.8492159732  0.5918457647 -0.2133069762
C   1.0298854486 -0.2280987348  1.1534517234
O   4.9085839235  2.2497270311 -0.2988852030
H  -1.0228904959 -0.8491626700  1.4358596864
H  -0.5757616760 -1.1041745917 -0.9028862152
H  -1.5764367103  0.3707668804 -0.8886147385
H   0.3667367280  1.7952848547 -0.9245877143
H   0.8981863911  0.5482967506 -2.0666632815
H   1.2412266437 -1.3059395363  1.1276263697
H   4.1891721412  1.5893489380 -0.1898333780
H   1.4036279076  0.1898091097  2.0847657654
H   4.6373782524  2.6892328056 -1.1084211792
17
Image 42  Energy = -421.92986295
C  -0.5216035107  0.0223785436  0.9810600074
O  -0.9454025129  1.1741651824  1.4639868839
C  -0.6233585559 -0.0504192248 -0.5790901102
C   0.5816983731  0.7603224888 -1.0294031116
C   1.6619899780  0.3906009845 -0.0440542771
O   2.8602580152  0.5241972174 -0.2343896047
C   1.0257747007 -0.2048094514  1.1642755476
O   4.9027906777  2.2073165346 -0.3118963196
H  -1.0100146944 -0.8995314966  1.3949246099
H  -0.5543521862 -1.0827614423 -0.9392804891
H  -1.5678862226  0.3833943422 -0.9022251154
H   0.3768439170  1.8217025275 -0.8637462036
H   0.9024537430  0.6210067213 -2.0607609302
H   1.2800482130 -1.2721439917  1.2044434485
H   4.1924686541  1.5355920816 -0.2134956392
H   1.3659714834  0.2758315789  2.0788078153
H   4.6223198150  2.6631579518 -1.1091558597
17
Image 43  Energy = -421.92976095
C  -0.5352642450 -0.0068701290  0.9751919777
O  -0.9764379260  1.1234541271  1.4920979622
C  -0.6173964127 -0.0268339419 -0.5876551392
C   0.5919809187  0.7987009822 -0.9974260837
C   1.6622292109  0.3966306322 -0.0137091098
O   2.8630468887  0.5266697952 -0.1901034220
C   1.0120527890 -0.2273740945  1.1729511924
O   4.9256267982  2.1849815161 -0.3788344352
H  -1.0210214911 -0.9467293413  1.3505598910
H  -0.5437265598 -1.0464926667 -0.9813083299
H  -1.5584416636  0.4174026272 -0.9068615844
H   0.3859876312  1.8542019115 -0.7988690350
H   0.9232135336  0.6923583592 -2.0293379095
H   1.2779491837 -1.2921297953  1.1989708618
H   4.2079555492  1.5265336602 -0.2505457466
H   1.3317428829  0.2387065028  2.1022077439
H   4.6205032805  2.6567896515 -1.1573281091
17
Image 44  Energy = -421.92972665
C  -0.5467669269 -0.0288680776  0.9725606000
O  -0.9894774308  1.0889187257  1.5148210159
C  -0.6120212409 -0.0062333288 -0.5907236819
C   0.6020562635  0.8291870528 -0.9647951103
C   1.6603495291  0.4092739830  0.0251443636
O   2.8622492646  0.5592940064 -0.1246854552
C   0.9977229017 -0.2591506334  1.1805235251
O   4.9531458262  2.1661699067 -0.4625941659
H  -1.0395570067 -0.9768578421  1.3172300977
H  -0.5354400820 -1.0147702759 -1.0115610120
H  -1.5490981071  0.4480394736 -0.9076365793
H   0.3916709462  1.8805171065 -0.7506194131
H   0.9482372919  0.7422923269 -1.9936524462
H   1.2610214583 -1.3248926297  1.1631601530
H   4.2234695440  1.5321922897 -0.2878499971
H   1.3078929385  0.1642576577  2.1330329391
H   4.6145449485  2.6606304590 -1.2123539432
17
Image 45  Energy = -421.92959818
C  -0.5552649808 -0.0498320960  0.9697985966
O  -0.9921572746  1.0569984528  1.5363159573
C  -0.6030082852  0.0147046995 -0.5926934687
C   0.6139191180  0.8611385200 -0.9292427015
C   1.6576358228  0.4291989323  0.0686735126
O   2.8578824910  0.6106457912 -0.0435656739
C   0.9853993546 -0.2933264890  1.1873249497
O   4.9714829063  2.1265717737 -0.5639413904
H  -1.0602816613 -1.0026295403  1.2819206288
H  -0.5211614065 -0.9815846416 -1.0410045554
H  -1.5360059790  0.4785076083 -0.9079379361
H   0.3962532404  1.9081545022 -0.7031884537
H   0.9763585867  0.7912963267 -1.9541356093
H   1.2484887880 -1.3561747015  1.1215067033
H   4.2249530604  1.5296814098 -0.3315034847
H   1.2900498050  0.0817945670  2.1646877812
H   4.5954561245  2.6648549574 -1.2630144179
17
Image 46  Energy = -421.93251668
C  -0.5712574106 -0.0672270833  0.9715491371
O  -1.0173614228  1.0258632190  1.5547157309
C  -0.5986447091  0.0254274434 -0.5885767064
C   0.6223585906  0.8756116487 -0.9009338087
C   1.6513206908  0.4621073261  0.1199868496
O   2.8445409498  0.6998906329  0.0552724103
C   0.9714375942 -0.3077372903  1.2057409308
O   5.0142862197  2.0452152777 -0.7193357820
H  -1.0729219879 -1.0286704951  1.2593796069
H  -0.5169066119 -0.9621735944 -1.0550980894
H  -1.5273573098  0.4985157347 -0.9036546909
H   0.3956261469  1.9236555112 -0.6923769429
H   1.0066804058  0.7985518782 -1.9174217089
H   1.2370824670 -1.3656104091  1.0981089131
H   4.2494833328  1.5138886523 -0.4043928100
H   1.2636580118  0.0318750925  2.1989697612
H   4.5979749112  2.7008162216 -1.2819327310
17
Image 47  Energy = -421.93141043
C  -0.5954252282 -0.0984851461  0.9737182855
O  -1.0760142587  0.9614641717  1.5895488587
C  -0.6101472910  0.0455624774 -0.5832462884
C   0.6300640962  0.8722095447 -0.8794403901
C   1.6454726258  0.4664773475  0.1607274263
O   2.8338967237  0.7311650361  0.1199441081
C   0.9482704795 -0.3199460559  1.2276423029
O   5.0710327127  2.0376005480 -0.8234302516
H  -1.0819773355 -1.0804226436  1.2168278647
H  -0.5618826307 -0.9270677804 -1.0828390655
H  -1.5260363495  0.5552425499 -0.8777865092
H   0.4214736303  1.9280121458 -0.6969369407
H   1.0337050457  0.7707843457 -1.8870354302
H   1.2311954371 -1.3737682217  1.1240931999
H   4.3068213390  1.5302152857 -0.4934393798
H   1.2166972252  0.0184843198  2.2280285571
H   4.6628536627  2.7524721858 -1.3163765355
17
Image 48  Energy = -421.92909657
C  -0.6194510948 -0.1218213547  0.9775163306
O  -1.1310543974  0.9079238495  1.6186039958
C  -0.6268573499  0.0608612246 -0.5771533622
C   0.6344528428  0.8544933501 -0.8722791908
C   1.6404458510  0.4533065508  0.1810823500
O   2.8287556815  0.7180093205  0.1398107983
C   0.9257967093 -0.3254725296  1.2476375733
O   5.1254946763  2.1003546178 -0.8221081913
H  -1.0920590175 -1.1195747831  1.1837865879
H  -0.6165367328 -0.9005699502 -1.0985087050
H  -1.5293790519  0.6043356974 -0.8520817982
H   0.4539882763  1.9195692092 -0.7220891875
H   1.0505190578  0.7171034137 -1.8711413382
H   1.2194666578 -1.3781952755  1.1662927138
H   4.3620349851  1.5500576470 -0.5910487691
H   1.1755259163  0.0263316782  2.2484302984
H   4.7488568882  2.8032875272 -1.3567499891
17
Image 49  Energy = -421.92555962
C  -0.6422240542 -0.1379809588  0.9833666121
O  -1.1766747766  0.8678680098  1.6424023588
C  -0.6403223466  0.0718669518 -0.5712744920
C   0.6350874325  0.8431472122 -0.8647586780
C   1.6305275574  0.4458166526  0.2018797177
O   2.8185130720  0.7086567304  0.1638108790
C   0.9046324952 -0.3305308827  1.2653141835
O   5.1636567409  2.1714285557 -0.7978498183
H  -1.1076468191 -1.1452634173  1.1592674745
H  -0.6522134244 -0.8825511738 -1.1044691608
H  -1.5339481131  0.6337319982 -0.8386629371
H   0.4749943188  1.9148610705 -0.7470765115
H   1.0632759904  0.6734675715 -1.8539409085
H   1.2056157127 -1.3819937831  1.1925141334
H   4.4354152431  1.5440790842 -0.7097457845
H   1.1494954820  0.0254079382  2.2662199147
H   4.8218155145  2.8479885934 -1.3869969631
17
Image 50  Energy = -421.92137339
C  -0.6607378210 -0.1494046384  0.9894829967
O  -1.2125940462  0.8367221673  1.6621693441
C  -0.6505075379  0.0801941057 -0.5671098920
C   0.6340929942  0.8364785002 -0.8585232940
C   1.6178596493  0.4438120705  0.2211224851
O   2.8038986819  0.7063969512  0.1947171896
C   0.8889706889 -0.3335316051  1.2798427697
O   5.1607399631  2.2304613755 -0.7560888311
H  -1.1227381686 -1.1624542976  1.1388032145
H  -0.6763940411 -0.8699682175 -1.1071714272
H  -1.5366321333  0.6535239625 -0.8353246414
H   0.4880838283  1.9126256071 -0.7688243177
H   1.0722492256  0.6404888725 -1.8389521287
H   1.1996938825 -1.3826464713  1.2092442365
H   4.5162185013  1.5208623667 -0.8383391991
H   1.1446524435  0.0252187325  2.2777252444
H   4.8831439992  2.8812204728 -1.4027735806
17
Image 51  Energy = -421.91666534
C  -0.6772664204 -0.1573741476  0.9947926118
O  -1.2420002598  0.8118420822  1.6781679448
C  -0.6584100274  0.0865635308 -0.5647497173
C   0.6328121409  0.8317277932 -0.8522033214
C   1.6082784669  0.4471285388  0.2365878624
O   2.7919242401  0.7174785849  0.2205227635
C   0.8826510339 -0.3339974747  1.2920953526
O   5.1102162312  2.2652688576 -0.7120506184
H  -1.1432953311 -1.1720546022  1.1195632957
H  -0.6941610888 -0.8603454627 -1.1103482953
H  -1.5356305581  0.6692292076 -0.8433254300
H   0.4966649579  1.9107993191 -0.7838974292
H   1.0778949847  0.6135295963 -1.8248366355
H   1.2070476759 -1.3795318145  1.2218346825
H   4.5954956797  1.4912396512 -0.9525317369
H   1.1637251582  0.0258242901  2.2843588285
H   4.9340529462  2.9026719044 -1.4039801004
17
Image 52  Energy = -421.91156550
C  -0.6965876409 -0.1632963846  0.9984835040
O  -1.2654408704  0.7914012458  1.6931920397
C  -0.6669040989  0.0912153225 -0.5652474023
C   0.6302083142  0.8271544359 -0.8439223299
C   1.6007011523  0.4511236133  0.2495968795
O   2.7822517852  0.7352731669  0.2378792906
C   0.8850739454 -0.3335921866  1.3058638403
O   5.0430833981  2.2790350349 -0.6871531628
H  -1.1763836156 -1.1761468544  1.0983548880
H  -0.7093895335 -0.8530504949 -1.1160907485
H  -1.5320391050  0.6826010003 -0.8674570543
H   0.4997133808  1.9078811639 -0.7883110678
H   1.0810198984  0.5902926645 -1.8086881288
H   1.2236425504 -1.3739094015  1.2350722171
H   4.6701357688  1.4667120784 -1.0343522190
H   1.2089226133  0.0284364947  2.2873215747
H   4.9719920808  2.9188691960 -1.3945418994
17
Image 53  Energy = -421.90518811
C  -0.7213407028 -0.1685788058  0.9982724518
O  -1.2778576010  0.7719342201  1.7107116698
C  -0.6769571104  0.0950722429 -0.5693012556
C   0.6274472078  0.8227819816 -0.8343899837
C   1.5960689707  0.4564081134  0.2615372229
O   2.7760203096  0.7558338383  0.2493787285
C   0.8960066251 -0.3302154294  1.3200322710
O   4.9779887918  2.2783419041 -0.6851505857
H  -1.2171715025 -1.1807558615  1.0791790477
H  -0.7241094524 -0.8464360928 -1.1260761975
H  -1.5286250594  0.6946983626 -0.9031217323
H   0.4991536089  1.9038647512 -0.7880722335
H   1.0821082448  0.5703009865 -1.7914730346
H   1.2429583255 -1.3667522585  1.2499354652
H   4.7349600638  1.4425275052 -1.0869332526
H   1.2641808757  0.0324323909  2.2922115890
H   4.9991685235  2.9385421533 -1.3767400581
