17
Image 0  Energy = -421.89796264
C  -1.7889769841  0.3253365579  0.4767378484
O  -1.8816309512  1.4488274185  0.9074908199
C  -0.6985640414 -0.2394097397 -0.3566317400
C   0.5764448883  0.5922406325 -0.4458044413
C   1.8563350459 -0.1708288604 -0.1017591440
O   2.1060722013 -1.2684589187 -0.6426437883
C   2.6668692076  0.5527291959  0.8029330675
O   4.7134226265  2.0048844240 -0.4255290719
H  -2.6105308347 -0.3941789610  0.6716060186
H  -0.5361796628 -1.2432439588  0.0423371235
H  -1.1489595343 -0.3956172966 -1.3415502592
H   0.4950761284  1.4798576017  0.1730491191
H   0.7116050853  0.9674928789 -1.4582480302
H   2.0805096090  0.6964166850  1.7179080555
H   3.7067955659  1.4807360596 -0.4151178451
H   3.6108939387  0.0751378689  1.0172543548
H   4.6908171389  2.9580778532 -0.6220316284
17
Image 1  Energy = -421.90637443
C  -1.9956930654  0.4838124837  0.0833483830
O  -2.0574807812  1.6821078281  0.1762553399
C  -0.7424693719 -0.3266567916 -0.0785269131
C   0.5241530824  0.4990543131 -0.0917734530
C   1.7823277741 -0.3521278553 -0.0068215035
O   1.6843765402 -1.5669510511 -0.0463136935
C   3.0322621190  0.4104723730  0.1402321743
O   4.6642422464  2.4480353741 -0.2435995731
H  -2.9329498436 -0.1105140509  0.1209151521
H  -0.7197603068 -1.0581388943  0.7333433806
H  -0.8504501294 -0.9217531933 -0.9894049597
H   0.5140125384  1.2044695608  0.7394532735
H   0.5922273432  1.0956192778 -1.0030687094
H   2.9816049332  1.0713549280  0.9982462448
H   3.2527207711  1.1359915564 -0.6348282418
H   3.9219445046 -0.1895643125  0.2404647699
H   4.8989324468  3.3647871500 -0.1379226954
17
Image 2  Energy = -421.92711313
C  -1.8062437162  0.3125906308  0.4708867291
O  -1.9056946556  1.4371620463  0.8992342457
C  -0.7012034649 -0.2404044061 -0.3528084277
C   0.5641621549  0.6076232426 -0.4429475215
C   1.8334302426 -0.2011116576 -0.1023798870
O   1.9841795568 -1.2756460303 -0.7522130451
C   2.6446318721  0.3911019048  0.8453757537
O   4.7438758507  1.9913239896 -0.5344104700
H  -2.6354255225 -0.3967942925  0.6777827948
H  -0.4521602612 -1.2321832182  0.0301970314
H  -1.1515784738 -0.4282435237 -1.3325180334
H   0.4761083837  1.4865245602  0.1895486831
H   0.6894764503  0.9594015883 -1.4652071809
H   2.1720454693  0.9849151228  1.6239069219
H   3.9242908087  1.5470959134 -0.2201192162
H   3.6335612502  0.0032238185  1.0607212767
H   4.5365436476  2.9234196774 -0.5950500836
17
Image 3  Energy = -421.91334386
C  -1.9316744483  0.3696851605  0.3347500699
O  -2.0603612870  1.5211057284  0.6788413424
C  -0.7261972486 -0.2580696452 -0.2546346933
C   0.5421143909  0.5859319724 -0.3088533782
C   1.7979396946 -0.2708562697 -0.0586772065
O   1.7593552267 -1.4367436875 -0.5315014403
C   2.8374286735  0.3533413019  0.6302524076
O   4.7790944016  2.1932049914 -0.6136181060
H  -2.7991326013 -0.3113930212  0.4592947392
H  -0.5135724485 -1.1710486994  0.3104455961
H  -1.0238244584 -0.6273949082 -1.2423856559
H   0.4799335403  1.4004407576  0.4079019081
H   0.6536658600  1.0286588287 -1.2964411066
H   2.6087495225  1.2593876222  1.1846486622
H   4.0530521497  1.4259161667 -0.2480851643
H   3.7056362927 -0.2251144033  0.9066516771
H   4.3877919217  3.0329474678 -0.3585891867
17
Image 4  Energy = -421.92149207
C  -1.9920453588  0.5076543259  0.0407741505
O  -2.0730458769  1.7097576531  0.0931944018
C  -0.7358002570 -0.2937847804 -0.0480839138
C   0.5495160880  0.5024454704 -0.0501342844
C   1.7941409524 -0.3644657604 -0.0129035583
O   1.6854157961 -1.5900319158 -0.1036165255
C   3.0704002446  0.3439158171  0.1421136356
O   4.3834440224  2.6230950145 -0.3571984136
H  -2.9212411025 -0.0961951086  0.0622824292
H  -0.7542179116 -0.9955460509  0.7891566251
H  -0.8191357857 -0.9169842328 -0.9410383362
H   0.5716388839  1.1865356281  0.7973094729
H   0.6177420332  1.1173523721 -0.9460865638
H   3.0647823050  0.9633699240  1.0321929143
H   3.3291526216  1.1162942879 -0.5993370071
H   3.9055940872 -0.3379793315  0.1982812362
H   4.8736578808  3.3945665277 -0.0969046461
17
Image 5  Energy = -421.92162451
C  -1.9925525178  0.5062543799  0.0426470069
O  -2.0726462933  1.7115014461  0.0973806362
C  -0.7374256700 -0.2933801247 -0.0505510082
C   0.5489851929  0.5010872701 -0.0512514520
C   1.7926505385 -0.3702320344 -0.0100662463
O   1.6803632275 -1.5908430954 -0.1093492012
C   3.0725205107  0.3406054995  0.1474925222
O   4.3755867651  2.6431782825 -0.3559452363
H  -2.9218697817 -0.0953803343  0.0662419140
H  -0.7532390631 -0.9966630735  0.7855527632
H  -0.8223537349 -0.9148296721 -0.9449825530
H   0.5709518156  1.1883498639  0.7934229698
H   0.6192324289  1.1136331270 -0.9491662047
H   3.0655815673  0.9576807752  1.0429155068
H   3.3330869599  1.1124470284 -0.6041096995
H   3.9047545044 -0.3484372036  0.2064764780
H   4.8863717653  3.4050277171 -0.1067057562
17
Image 6  Energy = -421.93079855
C  -0.5508310222  0.0630577248  1.0194255480
O  -0.9169849165  1.2592542572  1.4273613803
C  -0.6380238682 -0.0756821772 -0.5387888115
C   0.5598250872  0.7460946502 -0.9853344162
C   1.6367955482  0.4271964044  0.0159926467
O   2.8284795615  0.6772796547 -0.1126428115
C   0.9979101819 -0.2651535549  1.1885455438
O   5.0597353268  2.1614820091 -0.5930353462
H  -1.1221792307 -0.7858633158  1.4674432610
H  -0.5277787627 -1.1204748854 -0.8478001392
H  -1.5824788146  0.3083694322 -0.9285597942
H   0.3217094586  1.8050794782 -0.8557446751
H   0.9054923298  0.5842498851 -2.0065462514
H   1.1785362673 -1.3404142159  1.0595544641
H   4.3361263712  1.5475150213 -0.3591621784
H   1.4885876962  0.0319091912  2.1079799357
H   4.5750782025  2.8461004114 -1.0586892561
