17
Image 0  Energy = -421.88742813
C  -1.9676677489  0.4906970293  0.0748720370
O  -2.0046284116  1.6963139890  0.1582562106
C  -0.7395885694 -0.3396341113 -0.0641495128
C   0.5329562613  0.4704182302 -0.0750112977
C   1.8033579073 -0.3484949449  0.0031624327
O   1.7995333277 -1.5704207863 -0.0054673287
C   3.0001730202  0.4841744934  0.0852327359
O   4.6357157536  2.3088953368 -0.0657833785
H  -2.9128877725 -0.0790666291  0.1043774530
H  -0.7454494214 -1.0561266327  0.7628020727
H  -0.8473502318 -0.9345236868 -0.9754925516
H   0.5420709577  1.1709768884  0.7625368796
H   0.5984741809  1.0758228298 -0.9821754098
H   2.9301586842  1.1613025163  0.9398940307
H   3.1227423354  1.1743795220 -0.7916272138
H   3.9241637689 -0.0591922912  0.1824697563
H   4.8782279590  3.2244811469 -0.1138985575
17
Image 1  Energy = -421.87934274
C  -1.9837513749  0.4987433910  0.0353638228
O  -2.0325970758  1.7009548464  0.0779166482
C  -0.7362008073 -0.3303058193 -0.0336946889
C   0.5325309867  0.4850952838 -0.0386837882
C   1.7905349775 -0.3602297797  0.0026980432
O   1.7193906993 -1.5768595741 -0.0129094321
C   3.0298929510  0.4260763813  0.0593553749
O   4.6263649169  2.4194167739 -0.1393264103
H  -2.9285039419 -0.0830096970  0.0499918621
H  -0.7582969030 -1.0195767082  0.8147618847
H  -0.8068718098 -0.9628927839 -0.9229240212
H   0.5469088955  1.1671966934  0.8119662523
H   0.5807986730  1.1096952628 -0.9321549175
H   3.0364763891  1.0851567533  0.9265056266
H   3.1512016971  1.1369018817 -0.7659486320
H   3.9326838058 -0.1629235427  0.0986895260
H   4.8494359985  3.3365570556 -0.0316057565
17
Image 2  Energy = -421.90708809
C  -2.0101300376  0.4806503935  0.0713897698
O  -2.0780790317  1.6783847305  0.1546258017
C  -0.7503146749 -0.3191366863 -0.0726263048
C   0.5171457356  0.4981578568 -0.0756603195
C   1.7745654163 -0.3510961193  0.0067169313
O   1.7039193275 -1.5732739775 -0.0487154235
C   3.0295453617  0.4033031497  0.1370258719
O   4.6937376506  2.4924361112 -0.1994251677
H  -2.9422898607 -0.1236473054  0.1068668094
H  -0.7245111812 -1.0400021936  0.7459928778
H  -0.8389027291 -0.9247570988 -0.9766564879
H   0.5033304005  1.2043028052  0.7538998042
H   0.5835958961  1.0982415037 -0.9840668152
H   3.0091080343  1.0738492046  0.9904927052
H   3.2288160294  1.0987287664 -0.6841380490
H   3.8984318313 -0.2329548405  0.2261363350
H   4.9520356011  3.4068199217 -0.1518611494
17
Image 3  Energy = -421.90758476
C  -2.0061664196  0.4785324574  0.0798621247
O  -2.0706514523  1.6755423239  0.1736730997
C  -0.7483261172 -0.3173434281 -0.0837294230
C   0.5180348777  0.5044022274 -0.0860735605
C   1.7700615796 -0.3515713437  0.0052233898
O   1.6831465940 -1.5740788715 -0.0655234664
C   3.0306854318  0.3899120306  0.1627466232
O   4.6568467828  2.5239023821 -0.2504131030
H  -2.9377147254 -0.1257009324  0.1205619499
H  -0.7088185627 -1.0480347056  0.7260684024
H  -0.8406080213 -0.9178242969 -0.9910698175
H   0.5003319540  1.2145793897  0.7404382111
H   0.5840704049  1.1041013297 -0.9949618460
H   2.9998787149  1.0600023869  1.0161500179
H   3.2556217137  1.0919602827 -0.6486173480
H   3.8921652787 -0.2541267465  0.2638244950
H   4.9714474940  3.4157542563 -0.1681640210
17
Image 4  Energy = -421.90882247
C  -2.0062732455  0.4914842809  0.0612607510
O  -2.0811920875  1.6896979161  0.1379994739
C  -0.7434551487 -0.3073697600 -0.0704836629
C   0.5317426432  0.5019823538 -0.0690931202
C   1.7780259635 -0.3622964052  0.0004626438
O   1.6772646630 -1.5835681400 -0.0971474063
C   3.0494333799  0.3632668627  0.1680622683
O   4.5762632760  2.5889113647 -0.3318628297
H  -2.9375367025 -0.1152853874  0.0957000688
H  -0.7287039234 -1.0233020869  0.7542338935
H  -0.8265128178 -0.9198727232 -0.9714035836
H   0.5266954567  1.2038615083  0.7646378392
H   0.5980176933  1.1125027453 -0.9695564057
H   3.0349458372  1.0103921353  1.0422389427
H   3.2772006780  1.0906299747 -0.6308721512
H   3.8897673754 -0.3154351455  0.2384971534
H   4.9343210321  3.4444064803 -0.1226771757
17
Image 5  Energy = -421.90916292
C  -2.0045954200  0.5038379683  0.0273067742
O  -2.0821625085  1.7021072255  0.0718032132
C  -0.7367089373 -0.2948478309 -0.0459264676
C   0.5420737698  0.5085364813 -0.0430915039
C   1.7799624624 -0.3770330075  0.0083555901
O   1.6608638766 -1.5956961371 -0.0892156389
C   3.0703793216  0.3278821651  0.1454792483
O   4.4965000116  2.6848621956 -0.3958311006
H  -2.9367337974 -0.1044153778  0.0475971873
H  -0.7381126486 -0.9818299421  0.8020882583
H  -0.7849635919 -0.9409620099 -0.9240968902
H   0.5523582134  1.1965390146  0.8032999435
H   0.5959043197  1.1457265856 -0.9282960899
H   3.0948984906  0.9359766885  1.0517376732
H   3.2618534415  1.0663596766 -0.6473904736
H   3.8879045977 -0.3827035210  0.1553069611
H   4.8905779958  3.4756582748 -0.0391276822
17
Image 6  Energy = -421.88853652
C  -1.9923082395  0.5029989900  0.0410851958
O  -2.0740433846  1.7084237617  0.0960901965
C  -0.7406305453 -0.2927795497 -0.0509205623
C   0.5466944313  0.5018534109 -0.0489134867
C   1.7935525983 -0.3668425848 -0.0056368049
O   1.6957383001 -1.5908563144 -0.1359232742
C   3.0450355018  0.3127149441  0.2098834996
O   4.3940987450  2.5615497299 -0.4131527266
H  -2.9210492603 -0.0981567747  0.0626509977
H  -0.7574547227 -1.0000389920  0.7843256335
H  -0.8250854829 -0.9135673360 -0.9483122759
H   0.5675279347  1.1861086782  0.7978212495
H   0.6162733071  1.1158071253 -0.9474256046
H   3.0392516216  0.9840494249  1.0670834440
H   3.4020798871  1.2337309733 -0.6308470852
H   3.9151003699 -0.3260984037  0.2302395836
H   4.8452188102  3.3511049461 -0.1080464668
