17
Image 0  Energy = -421.93079855
C  -0.5508310222  0.0630577248  1.0194255480
O  -0.9169849165  1.2592542572  1.4273613803
C  -0.6380238682 -0.0756821772 -0.5387888115
C   0.5598250872  0.7460946502 -0.9853344162
C   1.6367955482  0.4271964044  0.0159926467
O   2.8284795615  0.6772796547 -0.1126428115
C   0.9979101819 -0.2651535549  1.1885455438
O   5.0597353268  2.1614820091 -0.5930353462
H  -1.1221792307 -0.7858633158  1.4674432610
H  -0.5277787627 -1.1204748854 -0.8478001392
H  -1.5824788146  0.3083694322 -0.9285597942
H   0.3217094586  1.8050794782 -0.8557446751
H   0.9054923298  0.5842498851 -2.0065462514
H   1.1785362673 -1.3404142159  1.0595544641
H   4.3361263712  1.5475150213 -0.3591621784
H   1.4885876962  0.0319091912  2.1079799357
H   4.5750782025  2.8461004114 -1.0586892561
17
Image 1  Energy = -421.92915256
C  -0.5485500234  0.0401483093  1.0034469233
O  -0.9442520846  1.2181430149  1.4465106116
C  -0.6263507012 -0.0618448858 -0.5560695258
C   0.5708099041  0.7723761928 -0.9847281723
C   1.6482362975  0.4037303442  0.0064863706
O   2.8460602657  0.5599190337 -0.1632938062
C   1.0094485346 -0.2314187375  1.1884531239
O   5.0214949307  2.1263152287 -0.5826410247
H  -1.0900387306 -0.8447189370  1.4299137155
H  -0.5223085586 -1.0977352413 -0.8972215365
H  -1.5721121564  0.3388432072 -0.9175731783
H   0.3379861340  1.8276180683 -0.8159186368
H   0.9108375243  0.6383722699 -2.0092293830
H   1.2479674442 -1.3054973304  1.1610305170
H   4.3014622418  1.4985770240 -0.3860630833
H   1.4088727478  0.1644777680  2.1227069009
H   4.5504358422  2.8226948608 -1.0458101334
17
Image 2  Energy = -421.92914246
C  -0.5521162850  0.0262307768  0.9933975730
O  -0.9910921447  1.1794399310  1.4562817704
C  -0.6175733343 -0.0492606168 -0.5687082937
C   0.5794934060  0.7937483120 -0.9795101608
C   1.6570500710  0.3815752100 -0.0101322552
O   2.8598809182  0.4604646617 -0.2116150794
C   1.0122814879 -0.2030232096  1.1979958167
O   4.9980544270  2.0991787063 -0.5687014627
H  -1.0676130898 -0.8853085419  1.3962463451
H  -0.5089521603 -1.0787676784 -0.9275879930
H  -1.5634365878  0.3547620198 -0.9262813890
H   0.3548296518  1.8437725277 -0.7671072515
H   0.9095455207  0.6948500341 -2.0110979322
H   1.2905540003 -1.2642591545  1.2514248175
H   4.2890365667  1.4499540109 -0.4037030270
H   1.3754617125  0.2712879751  2.1088977286
H   4.5245959049  2.7953555969 -1.0297999359
17
Image 3  Energy = -421.92907623
C  -0.5626868874 -0.0033935787  0.9867620339
O  -1.0347851970  1.1182395258  1.4917534401
C  -0.6134919248 -0.0230778746 -0.5782473723
C   0.5914061567  0.8219739421 -0.9597925361
C   1.6606410992  0.3793652064  0.0056327864
O   2.8650172518  0.4406023396 -0.1927297078
C   1.0036843171 -0.2100587359  1.2053316621
O   5.0010085819  2.0835394085 -0.5980669431
H  -1.0608703159 -0.9426909944  1.3462047604
H  -0.5118978228 -1.0406749192 -0.9708968362
H  -1.5545738557  0.4000575358 -0.9259754161
H   0.3766317117  1.8694287433 -0.7260950719
H   0.9251314910  0.7434313749 -1.9919930578
H   1.3026828123 -1.2641981892  1.2757222521
H   4.2911882986  1.4391379178 -0.4199376078
H   1.3406341508  0.2808654250  2.1175974451
H   4.5302800462  2.7774532315 -1.0652701078
17
Image 4  Energy = -421.92908867
C  -0.5734923671 -0.0284779859  0.9822101862
O  -1.0480235461  1.0737758664  1.5199511025
C  -0.6126411115 -0.0022363966 -0.5820156212
C   0.5995708661  0.8434833771 -0.9380236967
C   1.6590566785  0.3939075173  0.0319797433
O   2.8655153970  0.4799982682 -0.1413173891
C   0.9938833105 -0.2369160828  1.2108698201
O   5.0136642566  2.0773860289 -0.6389397499
H  -1.0678873405 -0.9819893726  1.3092018472
H  -0.5176636586 -1.0086309872 -1.0031880428
H  -1.5490691956  0.4384845142 -0.9211115598
H   0.3863046395  1.8905487761 -0.7027923495
H   0.9431571364  0.7717030727 -1.9681972527
H   1.2941489044 -1.2907186704  1.2455533976
H   4.2930805619  1.4540091966 -0.4264565862
H   1.3197844518  0.2270929006  2.1389749381
H   4.5506113395  2.7685805360 -1.1166981534
17
Image 5  Energy = -421.93205727
C  -0.5810872445 -0.0473886237  0.9787579777
O  -1.0476984027  1.0490342854  1.5355433904
C  -0.6098190813  0.0104744500 -0.5842744408
C   0.6059139230  0.8600314694 -0.9176377732
C   1.6544348243  0.4158744439  0.0670423902
O   2.8603937750  0.5472703964 -0.0689214582
C   0.9814888467 -0.2662599441  1.2124662783
O   5.0285075130  2.0685575909 -0.6919927412
H  -1.0845220515 -1.0029656416  1.2822856305
H  -0.5172107176 -0.9872789401 -1.0260953790
H  -1.5424694903  0.4624219694 -0.9198604974
H   0.3874744467  1.9070958913 -0.6897927070
H   0.9640738680  0.7879819387 -1.9426918155
H   1.2800890411 -1.3206566044  1.2034993395
H   4.3003631039  1.4725896188 -0.4323750611
H   1.3038055689  0.1548487819  2.1663524922
H   4.5662621117  2.7583679984 -1.1723055555
17
Image 6  Energy = -421.93204807
C  -0.5891295260 -0.0653245834  0.9764270700
O  -1.0526192153  1.0229445447  1.5515630092
C  -0.6077832953  0.0220487911 -0.5853463763
C   0.6119837186  0.8737265870 -0.8974478366
C   1.6480442526  0.4433272610  0.1078464535
O   2.8493116627  0.6343626111  0.0177993076
C   0.9693862878 -0.2936859952  1.2152292833
O   5.0469158603  2.0497105941 -0.7545132179
H  -1.0980241444 -1.0245650718  1.2583252112
H  -0.5193065563 -0.9672600903 -1.0461952102
H  -1.5364784776  0.4857376653 -0.9161964586
H   0.3880636512  1.9218942497 -0.6833867134
H   0.9885783938  0.7966511842 -1.9158873506
H   1.2635763247 -1.3478940695  1.1533133206
H   4.3099247542  1.4938015763 -0.4389265315
H   1.2880434834  0.0799814795  2.1893485303
H   4.5895127616  2.7445427298 -1.2319528299
17
Image 7  Energy = -421.93171669
C  -0.6003827321 -0.0867544557  0.9750987422
O  -1.0713205944  0.9855949488  1.5736176539
C  -0.6092108510  0.0367033120 -0.5845565419
C   0.6209587106  0.8791694082 -0.8787662447
C   1.6420102452  0.4643477396  0.1498827045
O   2.8349540834  0.7118220135  0.1036453890
C   0.9554931920 -0.3168375458  1.2227401693
O   5.0699036975  2.0324021006 -0.8250282946
H  -1.1082395009 -1.0545760045  1.2281915144
H  -0.5385404697 -0.9422822817 -1.0691696506
H  -1.5301243048  0.5234903461 -0.9037146714
H   0.4012918041  1.9314850231 -0.6853926817
H   1.0170947016  0.7871163065 -1.8890705128
H   1.2502034658 -1.3682612617  1.1240139025
H   4.3260878819  1.5191310600 -0.4637038218
H   1.2635259702  0.0228087549  2.2120913984
H   4.6262948649  2.7446402843 -1.2898795236
17
Image 8  Energy = -421.93071946
C  -0.6142547240 -0.1062173766  0.9759951281
O  -1.1053945459  0.9442427585  1.5966063080
C  -0.6192210294  0.0497108205 -0.5815739520
C   0.6272580520  0.8681873880 -0.8723572671
C   1.6399455205  0.4579330724  0.1676440777
O   2.8305715647  0.7164258610  0.1291603280
C   0.9413228213 -0.3251156640  1.2346922243
O   5.1023531890  2.0590536962 -0.8391198487
H  -1.1114313303 -1.0870360148  1.2005638401
H  -0.5804001838 -0.9198695592 -1.0872538352
H  -1.5296737322  0.5668469880 -0.8822129607
H   0.4270866139  1.9269579080 -0.6974781651
H   1.0327806842  0.7543451645 -1.8772095559
H   1.2422676652 -1.3754126553  1.1456569893
H   4.3459661866  1.5499851765 -0.5069862496
H   1.2326038762  0.0201207400  2.2271187503
H   4.6882196756  2.7698422951 -1.3332460814
17
Image 9  Energy = -421.92932671
C  -0.6271967443 -0.1193471235  0.9785013702
O  -1.1350826490  0.9138485563  1.6142116934
C  -0.6285940037  0.0583876960 -0.5778697236
C   0.6302655797  0.8570850226 -0.8689578473
C   1.6370081138  0.4517615649  0.1800864124
O   2.8267042772  0.7145409031  0.1417857237
C   0.9284053282 -0.3286749662  1.2459807120
O   5.1337252635  2.1004619891 -0.8292991538
H  -1.1155947977 -1.1095521877  1.1821670786
H  -0.6130523269 -0.9047935859 -1.0961640567
H  -1.5311357977  0.5961063321 -0.8658389920
H   0.4464832808  1.9212161527 -0.7134066100
H   1.0435392829  0.7215368698 -1.8683411118
H   1.2321661083 -1.3787481239  1.1661902764
H   4.3740587514  1.5629491971 -0.5613179437
H   1.2067719092  0.0216691452  2.2402905810
H   4.7415282304  2.7915526597 -1.3680184463
17
Image 10  Energy = -421.92732050
C  -0.6404512044 -0.1300612171  0.9817630667
O  -1.1642782266  0.8873005003  1.6295839538
C  -0.6364719743  0.0657429029 -0.5743189199
C   0.6321981480  0.8484969603 -0.8651449729
C   1.6322430222  0.4456956955  0.1925862578
O   2.8219780845  0.7060438498  0.1534383266
C   0.9148121689 -0.3306201302  1.2581163315
O   5.1609584601  2.1426768664 -0.8204101794
H  -1.1211212550 -1.1280929524  1.1662976557
H  -0.6370552882 -0.8925852769 -1.1012628182
H  -1.5327670598  0.6177678888 -0.8544598273
H   0.4627928218  1.9172219192 -0.7293601583
H   1.0535599912  0.6924873936 -1.8585757980
H   1.2222071172 -1.3801744515  1.1862487478
H   4.4146424214  1.5553030248 -0.6418086934
H   1.1836776789  0.0244138451  2.2535356393
H   4.7830746971  2.8283833875 -1.3762286869
17
Image 11  Energy = -421.92480036
C  -0.6536637791 -0.1395832643  0.9855995324
O  -1.1907309601  0.8636083321  1.6438968709
C  -0.6442425405  0.0720680738 -0.5711248352
C   0.6322689597  0.8419536542 -0.8609462634
C   1.6239864849  0.4410290864  0.2060345132
O   2.8128916057  0.6989784485  0.1709993092
C   0.9012444729 -0.3337272336  1.2693537755
O   5.1775275516  2.1895071938 -0.7957920830
H  -1.1285788294 -1.1436398943  1.1519797242
H  -0.6569322920 -0.8823987386 -1.1045983762
H  -1.5350323276  0.6350386088 -0.8468063227
H   0.4752224572  1.9144431712 -0.7441178563
H   1.0616334916  0.6674906890 -1.8483567380
H   1.2131063120 -1.3822636045  1.2008600539
H   4.4601444466  1.5491382922 -0.7256656211
H   1.1680638161  0.0239560408  2.2647220727
H   4.8330913253  2.8544010417 -1.3960379227
17
Image 12  Energy = -421.92172147
C  -0.6660124707 -0.1480443579  0.9898339748
O  -1.2163050835  0.8401364698  1.6585556009
C  -0.6513055282  0.0784797674 -0.5681104374
C   0.6319688664  0.8369346309 -0.8568865253
C   1.6153736845  0.4405913951  0.2198159329
O   2.8024847612  0.6998241497  0.1924327166
C   0.8906346194 -0.3351700177  1.2799376114
O   5.1701514857  2.2319742488 -0.7609975111
H  -1.1361410598 -1.1574105634  1.1370490159
H  -0.6747033161 -0.8726654794 -1.1070730484
H  -1.5363048523  0.6510772821 -0.8426830716
H   0.4855655931  1.9127261368 -0.7604742128
H   1.0688894602  0.6428531158 -1.8377292976
H   1.2084894204 -1.3821617015  1.2121529799
H   4.5146592358  1.5302000979 -0.8212212832
H   1.1627346478  0.0241886199  2.2738486688
H   4.8798204162  2.8764660480 -1.4084511711
17
Image 13  Energy = -421.91788016
C  -0.6780039169 -0.1549819304  0.9940170954
O  -1.2398187204  0.8178879080  1.6732264379
C  -0.6575401514  0.0846125453 -0.5658214228
C   0.6317245730  0.8327918121 -0.8524283425
C   1.6081315071  0.4439947469  0.2328988443
O   2.7928851947  0.7102412362  0.2141124139
C   0.8847375285 -0.3348332456  1.2900037113
O   5.1315310337  2.2615814700 -0.7232998919
H  -1.1469407075 -1.1680042577  1.1206605408
H  -0.6901818144 -0.8638187863 -1.1092908694
H  -1.5355416134  0.6658517609 -0.8457625042
H   0.4936558101  1.9111843076 -0.7752843652
H   1.0754210986  0.6189923411 -1.8262733617
H   1.2098800902 -1.3798698838  1.2219256283
H   4.5776178295  1.5021578039 -0.9207857833
H   1.1716613121  0.0259257100  2.2804471395
H   4.9207806232  2.8962864642 -1.4083457254
17
Image 14  Energy = -421.91326182
C  -0.6915850114 -0.1605284446  0.9977327071
O  -1.2591597880  0.7982997293  1.6879233731
C  -0.6640623864  0.0895773811 -0.5651630030
C   0.6308078375  0.8287431578 -0.8466940490
C   1.6023110746  0.4486590594  0.2446398405
O   2.7846430119  0.7266249872  0.2325256644
C   0.8839696978 -0.3339050573  1.3003710386
O   5.0685264992  2.2784105506 -0.6931515743
H  -1.1659996534 -1.1746740150  1.1036660902
H  -0.7040677736 -0.8564571649 -1.1129388789
H  -1.5332367256  0.6784035870 -0.8598042504
H   0.4980920840  1.9088317105 -0.7844535388
H   1.0800057686  0.5978868603 -1.8137767207
H   1.2171689252 -1.3765526210  1.2319543059
H   4.6457214625  1.4763313214 -1.0061992406
H   1.1966305108  0.0283002946  2.2849929227
H   4.9602347095  2.9120485241 -1.4016248024
17
Image 15  Energy = -421.90795056
C  -0.7110430627 -0.1656831052  0.9995208554
O  -1.2740784620  0.7801249778  1.7037269353
C  -0.6722842732  0.0936194998 -0.5673444265
C   0.6288708134  0.8245953872 -0.8388882089
C   1.5972799555  0.4534027115  0.2566483606
O   2.7777812926  0.7459364786  0.2465884838
C   0.8912269652 -0.3321678030  1.3134392304
O   4.9996729465  2.2822723951 -0.6825230248
H  -1.1977960697 -1.1795908567  1.0870610520
H  -0.7178772097 -0.8494842352 -1.1210329646
H  -1.5304278559  0.6898344652 -0.8867282849
H   0.4995802450  1.9055217164 -0.7883859740
H   1.0820689183  0.5785576765 -1.7989768404
H   1.2324045874 -1.3701382005  1.2433557603
H   4.7133548506  1.4530064787 -1.0688065416
H   1.2383945551  0.0308930741  2.2893923085
H   4.9928718407  2.9292987340 -1.3870465666
17
Image 16  Energy = -421.90077285
C  -0.7441880381 -0.1680978296  0.9969175096
O  -1.2781450777  0.7626896761  1.7190999005
C  -0.6807944888  0.0956819415 -0.5739481034
C   0.6266136537  0.8214305712 -0.8303605614
C   1.5939413587  0.4580820632  0.2693258515
O   2.7727976056  0.7618840254  0.2558914216
C   0.9139624818 -0.3282227718  1.3262954147
O   4.9451851677  2.2760166558 -0.6926237639
H  -1.2408657709 -1.1869874816  1.0735956036
H  -0.7310525449 -0.8438603511 -1.1343055486
H  -1.5298305615  0.7007926963 -0.9232968587
H   0.4986773627  1.9008458042 -0.7870812620
H   1.0804925896  0.5620756601 -1.7813319774
H   1.2515494604 -1.3581981374  1.2569286307
H   4.7654701419  1.4291100549 -1.1010863882
H   1.2910223967  0.0331674249  2.2954357908
H   5.0151643972  2.9535899013 -1.3694557773
