17
Image 0  Energy = -421.89005525
C  -1.9833669023  0.4871113274  0.0664320545
O  -2.0326177396  1.6924567484  0.1415851205
C  -0.7449193843 -0.3295561476 -0.0602768265
C   0.5294826491  0.4821955448 -0.0685774686
C   1.7935644276 -0.3486006859  0.0036177967
O   1.7615605690 -1.5733386263 -0.0215138528
C   3.0134165327  0.4412647483  0.1038132477
O   4.6389848037  2.3762217694 -0.1259827246
H  -2.9235161012 -0.0925408828  0.0947547805
H  -0.7451944764 -1.0443604656  0.7686492085
H  -0.8411401182 -0.9350012870 -0.9665544809
H   0.5361168725  1.1801431581  0.7701671170
H   0.5930742415  1.0897300731 -0.9736381986
H   2.9722338292  1.1176059703  0.9600360240
H   3.1779165718  1.1649730167 -0.7649607364
H   3.9207690922 -0.1329068198  0.1811767859
H   4.8836340833  3.2945984996 -0.1087276951
17
Image 1  Energy = -421.87986200
C  -1.9848075990  0.4963521663  0.0530825922
O  -2.0330538288  1.6975103591  0.1140631985
C  -0.7388530580 -0.3296921216 -0.0498404500
C   0.5307534602  0.4862282596 -0.0567049432
C   1.7878036014 -0.3630649535 -0.0003350608
O   1.7086331473 -1.5799963012 -0.0265938952
C   3.0291244097  0.4191392478  0.0855377880
O   4.6225037787  2.4350473534 -0.1703417764
H  -2.9284901413 -0.0857101542  0.0756490009
H  -0.7448697010 -1.0349550276  0.7853011822
H  -0.8248004124 -0.9480166012 -0.9474148586
H   0.5391373997  1.1747440855  0.7889511268
H   0.5878756911  1.1031295306 -0.9554710776
H   3.0087643807  1.0825427242  0.9475339956
H   3.1850803753  1.1355014175 -0.7283027327
H   3.9340511302 -0.1652311818  0.1493863872
H   4.8711469217  3.3464699403 -0.0645005538
17
Image 2  Energy = -421.88100205
C  -1.9789973571  0.5047969557  0.0338466869
O  -2.0238953236  1.7074876924  0.0753897124
C  -0.7338841280 -0.3244802579 -0.0342980930
C   0.5371669488  0.4892900229 -0.0385514758
C   1.7864919408 -0.3719582032 -0.0023042617
O   1.6834953288 -1.5886777101 -0.0307967456
C   3.0408656375  0.3924977562  0.0687972024
O   4.5614965644  2.4863797029 -0.2145678479
H  -2.9251678191 -0.0732637142  0.0479369064
H  -0.7509343835 -1.0163394535  0.8121426086
H  -0.8037157344 -0.9602785164 -0.9208271145
H   0.5557407844  1.1654882049  0.8171282214
H   0.5888442979  1.1187710204 -0.9284852873
H   3.0455978422  1.0417103408  0.9418022101
H   3.1898203384  1.1303256737 -0.7268755539
H   3.9410649871 -0.2031328900  0.1005961226
H   4.8360106598  3.3713864346 -0.0009335063
17
Image 3  Energy = -421.90771363
C  -1.9941334104  0.4976230483  0.0457930172
O  -2.0552877962  1.6972721049  0.1014571828
C  -0.7400446015 -0.3161189169 -0.0485353870
C   0.5331589399  0.4951893995 -0.0513265054
C   1.7829388655 -0.3619776551 -0.0010805271
O   1.6920983056 -1.5832448180 -0.0540969207
C   3.0431374156  0.3897641380  0.1070571197
O   4.5684004066  2.5098661064 -0.2575736502
H  -2.9306032202 -0.0972534081  0.0675065408
H  -0.7475857935 -1.0198687702  0.7878981295
H  -0.8179669235 -0.9400382938 -0.9422711326
H   0.5442307990  1.1815807661  0.7955980015
H   0.5958775497  1.1119891130 -0.9486882514
H   3.0371700146  1.0358157464  0.9806830991
H   3.2379822561  1.1241039918 -0.6802404231
H   3.9193231350 -0.2404410487  0.1638181731
H   4.8813034128  3.3857366776 -0.0659985482
17
Image 4  Energy = -421.91951493
C  -2.0062675804  0.4854613236  0.0601581698
O  -2.0906458702  1.6858858372  0.1332696925
C  -0.7473314955 -0.3082882958 -0.0646367635
C   0.5290326924  0.4996508196 -0.0662548353
C   1.7828794055 -0.3504678410 -0.0002568791
O   1.6987087900 -1.5775313872 -0.0797148213
C   3.0445789355  0.3895450691  0.1490680853
O   4.5806111678  2.5278701107 -0.2906070679
H  -2.9318212972 -0.1225702051  0.0910794698
H  -0.7465590657 -1.0240908320  0.7604201449
H  -0.8377605239 -0.9153724840 -0.9680202944
H   0.5325072095  1.1977605124  0.7697913576
H   0.6029932341  1.1006454889 -0.9726524078
H   3.0253744714  1.0398071349  1.0186156406
H   3.2859762370  1.1170468811 -0.6348113729
H   3.8950266556 -0.2716607476  0.2356136560
H   4.9326949355  3.3963008077 -0.1410614653
17
Image 5  Energy = -421.91986434
C  -2.0082387216  0.4866846918  0.0578217408
O  -2.0950421392  1.6868650889  0.1295004858
C  -0.7483489190 -0.3064560085 -0.0630152546
C   0.5298256369  0.4994292642 -0.0635327168
C   1.7840248874 -0.3507557499 -0.0012174257
O   1.6984133574 -1.5777923798 -0.0885180265
C   3.0480965472  0.3846957780  0.1542213793
O   4.5648784054  2.5457167930 -0.3138464090
H  -2.9330729364 -0.1229725606  0.0867345946
H  -0.7513091903 -1.0212174106  0.7628823531
H  -0.8387422396 -0.9140275182 -0.9659505271
H   0.5346358775  1.1966401481  0.7732149820
H   0.6059109056  1.0996778502 -0.9699913899
H   3.0293283768  1.0311604799  1.0263415836
H   3.2997757030  1.1158804210 -0.6242491845
H   3.8918255093 -0.2850019420  0.2418189454
H   4.9380370237  3.4014656232 -0.1422147317
17
Image 6  Energy = -421.91012128
C  -2.0036835784  0.4941422038  0.0630076061
O  -2.0817801672  1.6905791228  0.1427882425
C  -0.7420075752 -0.3043008125 -0.0719587142
C   0.5354851579  0.5075313183 -0.0714394186
C   1.7894058931 -0.3502444693 -0.0104531680
O   1.6894234932 -1.5725758041 -0.1179138879
C   3.0588217433  0.3660767138  0.1815858011
O   4.4713973758  2.5928146064 -0.4038113297
H  -2.9331185221 -0.1144125257  0.0946637676
H  -0.7365988976 -1.0270876885  0.7476708307
H  -0.8330784787 -0.9081916510 -0.9778256904
H   0.5377792796  1.2041790958  0.7670204311
H   0.6113420504  1.1126218230 -0.9750417881
H   3.0179180456  0.9907203800  1.0691155674
H   3.3518567636  1.1224541524 -0.5636714964
H   3.8867753906 -0.3223895578  0.2775455230
H   4.9300598593  3.3880729807 -0.1512816630
17
Image 7  Energy = -421.92170511
C  -1.9923696954  0.5085465075  0.0429967321
O  -2.0728019221  1.7100604454  0.0975520238
C  -0.7365370541 -0.2932729493 -0.0505103003
C   0.5492740788  0.5019094886 -0.0521119453
C   1.7929309710 -0.3660115449 -0.0118919048
O   1.6827831917 -1.5915271405 -0.1106316441
C   3.0725413128  0.3392624642  0.1485222531
O   4.3728846114  2.6468688077 -0.3591664819
H  -2.9216018296 -0.0954328261  0.0663227119
H  -0.7535000320 -0.9969354671  0.7851633302
H  -0.8216131615 -0.9143050888 -0.9448789269
H   0.5711303056  1.1883044851  0.7934834853
H   0.6195317923  1.1147380618 -0.9497141370
H   3.0658483626  0.9556416624  1.0417192861
H   3.3302448607  1.1049111521 -0.5965352759
H   3.9037647386 -0.3484111933  0.2076208589
H   4.8874876753  3.4056529057 -0.1079375987
17
Image 8  Energy = -421.89717628
C  -1.9798969723  0.5308119601  0.0146583119
O  -2.0622722789  1.7340940767  0.0448237578
C  -0.7270251982 -0.2805637062 -0.0294564690
C   0.5678651166  0.5010367549 -0.0270704094
C   1.8124116559 -0.3786115830 -0.0230050312
O   1.6891779489 -1.5930538783 -0.1638105695
C   3.0938313854  0.3168492800  0.1553290255
O   4.2571799731  2.6799871258 -0.4551230247
H  -2.9112995525 -0.0715486754  0.0227657831
H  -0.7733056344 -0.9573758329  0.8268865497
H  -0.8009212833 -0.9214512863 -0.9095849860
H   0.6053783384  1.1718975587  0.8303136887
H   0.6348560610  1.1288667939 -0.9146200361
H   3.0920453377  0.8953013261  1.0754488329
H   3.3522738060  1.1184155092 -0.5586572243
H   3.9161114207 -0.3830999330  0.1783884311
H   4.7835897861  3.3784411301 -0.0672891132
17
Image 9  Energy = -421.88824219
C  -1.9762653028  0.5243780401  0.0122225459
O  -2.0567970804  1.7254208286  0.0463883514
C  -0.7160221707 -0.2814056277 -0.0371042285
C   0.5675803983  0.5242593344 -0.0321470093
C   1.8102918354 -0.3652949334 -0.0208375938
O   1.6530512303 -1.5737963145 -0.1559499165
C   3.1040927783  0.3132791566  0.1709437600
O   4.2279764140  2.6612528287 -0.5534022352
H  -2.9095620333 -0.0793086729  0.0209312142
H  -0.7469390978 -0.9655205708  0.8157876987
H  -0.7760304250 -0.9280105688 -0.9155281334
H   0.5944057610  1.1903189950  0.8298859893
H   0.6266747118  1.1655045056 -0.9123196257
H   3.0838781001  0.8417860718  1.1239472633
H   3.4071388836  1.2037457044 -0.5038876215
H   3.9183434430 -0.4027153536  0.1813563497
H   4.7381827363  3.3161031737 -0.0702899469
17
Image 10  Energy = -421.89105323
C  -1.9735093082  0.5207421572  0.0137721081
O  -2.0546978512  1.7234157702  0.0525634377
C  -0.7127036870 -0.2797936900 -0.0416793464
C   0.5674811333  0.5315152096 -0.0342358614
C   1.8126357297 -0.3563467537 -0.0237115677
O   1.6518145360 -1.5647492340 -0.1731200454
C   3.1097912522  0.3112246377  0.1935049009
O   4.1986578690  2.6569317388 -0.6449541834
H  -2.9069621820 -0.0824286653  0.0228043482
H  -0.7366005290 -0.9707869247  0.8065468309
H  -0.7692513652 -0.9243552066 -0.9225275539
H   0.5893038736  1.1959805085  0.8287575768
H   0.6215498573  1.1762225744 -0.9118238352
H   3.0629799968  0.8202206818  1.1556437347
H   3.4703876624  1.2845159534 -0.4532165307
H   3.9134163738 -0.4173354197  0.2031817826
H   4.7057070334  3.2450232936 -0.0715091250
17
Image 11  Energy = -421.89405437
C  -1.9720684882  0.5189978774  0.0145930406
O  -2.0543364366  1.7229331992  0.0550257386
C  -0.7117087708 -0.2791312184 -0.0428331841
C   0.5681081074  0.5338789564 -0.0334394020
C   1.8150363898 -0.3521435331 -0.0235080436
O   1.6573676376 -1.5619872008 -0.1838347875
C   3.1086581793  0.3095436870  0.2033234010
O   4.1776378439  2.6368674328 -0.6878238572
H  -2.9060437090 -0.0834466788  0.0235089115
H  -0.7330031490 -0.9736806117  0.8033048809
H  -0.7671433130 -0.9226414917 -0.9251490891
H   0.5860958319  1.1979950611  0.8295652378
H   0.6178007277  1.1782256898 -0.9113233119
H   3.0514299595  0.8210304896  1.1610813948
H   3.5253306428  1.3590206972 -0.4212644649
H   3.9071260968 -0.4243770516  0.2093861969
H   4.6797129368  3.1889110991 -0.0706158824
17
Image 12  Energy = -421.89822583
C  -1.9708031534  0.5178434628  0.0153052277
O  -2.0554666844  1.7219469383  0.0568453621
C  -0.7100197763 -0.2780110691 -0.0432340719
C   0.5703913922  0.5360700218 -0.0318358833
C   1.8208090403 -0.3458354305 -0.0252845234
O   1.6647197779 -1.5557488869 -0.1981454366
C   3.1104545633  0.3156719358  0.2143149931
O   4.1577872606  2.6168037905 -0.7272461913
H  -2.9047789091 -0.0850847373  0.0237112603
H  -0.7296526448 -0.9758995250  0.8007334520
H  -0.7648222830 -0.9204014997 -0.9268940649
H   0.5824360246  1.2000816551  0.8311862880
H   0.6149938727  1.1798427922 -0.9102222648
H   3.0414230913  0.8293863875  1.1674471333
H   3.5683570807  1.4159002396 -0.3917999139
H   3.9039899671 -0.4269531469  0.2132836321
H   4.6501816835  3.1243830018 -0.0681678322
17
Image 13  Energy = -421.90222635
C  -1.9690838561  0.5159572927  0.0165560064
O  -2.0593910356  1.7203782475  0.0603729437
C  -0.7067419427 -0.2748254932 -0.0436062127
C   0.5742760126  0.5394785659 -0.0286835851
C   1.8269190642 -0.3415976885 -0.0261674095
O   1.6718997124 -1.5498396783 -0.2257424505
C   3.1083255342  0.3194473790  0.2373235014
O   4.1348021249  2.5824292665 -0.7584173992
H  -2.9021072800 -0.0889394861  0.0237047625
H  -0.7234440096 -0.9774637143  0.7974442899
H  -0.7606286477 -0.9162756195 -0.9290182840
H   0.5790910832  1.2035888078  0.8338408304
H   0.6139540313  1.1822531410 -0.9081242621
H   3.0273913921  0.8507964212  1.1799129954
H   3.6093730248  1.4751636191 -0.3824397725
H   3.9049668934 -0.4248421006  0.2226294496
H   4.6203976827  3.0542863419 -0.0695876019
17
Image 14  Energy = -421.90763310
C  -1.9672433816  0.5143732290  0.0195706027
O  -2.0629897992  1.7189320031  0.0686459657
C  -0.7036310389 -0.2713725962 -0.0455232179
C   0.5772203751  0.5416539093 -0.0264347934
C   1.8292147263 -0.3483547184 -0.0219441933
O   1.6725695264 -1.5542883130 -0.2542529462
C   3.1017120055  0.3154820487  0.2604699759
O   4.1068236179  2.5340015161 -0.7621187597
H  -2.8996794611 -0.0926180022  0.0254913636
H  -0.7155891818 -0.9796761435  0.7918306066
H  -0.7588278153 -0.9106969719 -0.9333999990
H   0.5767366383  1.2065827393  0.8347081724
H   0.6155175730  1.1827439212 -0.9081706002
H   3.0150027008  0.8841196852  1.1829860467
H   3.6570958552  1.5528886918 -0.3929783432
H   3.9051398477 -0.4249020847  0.2367148936
H   4.6009280913  3.0011260189 -0.0755958258
17
Image 15  Energy = -421.91532906
C  -1.9695066596  0.5101945810  0.0296121296
O  -2.0752681292  1.7148538203  0.0878730528
C  -0.7039806989 -0.2692658135 -0.0489183330
C   0.5808759308  0.5370228197 -0.0234764913
C   1.8230513757 -0.3726527514 -0.0074387399
O   1.6543894283 -1.5705088339 -0.3045515020
C   3.0576405050  0.2570432331  0.3138272933
O   4.0983874152  2.5433352918 -0.7821598255
H  -2.8990246681 -0.1017523133  0.0365426899
H  -0.7074653049 -0.9892312916  0.7778993461
H  -0.7604121979 -0.8970386462 -0.9441830444
H   0.5821744909  1.2062509252  0.8339318966
H   0.6252722799  1.1713887001 -0.9099136247
H   3.0007900753  0.9443139841  1.1527536029
H   3.7354211329  1.6762638370 -0.4295032354
H   3.8964917975 -0.4359823297  0.2955501690
H   4.6111655584  2.9457614945 -0.0778452528
17
Image 16  Energy = -421.91814177
C  -1.9803905910  0.5000469202  0.0436461866
O  -2.1004300732  1.7019945931  0.1099252548
C  -0.7096456841 -0.2694802792 -0.0473196835
C   0.5737226216  0.5348465016 -0.0214161473
C   1.8109788103 -0.3853587308 -0.0077629640
O   1.6367773571 -1.5639981442 -0.3846319203
C   3.0160589046  0.2181005702  0.3899441277
O   4.1691387877  2.5449901742 -0.8176973831
H  -2.9025687748 -0.1225645936  0.0510278558
H  -0.7053488960 -1.0013186517  0.7684448188
H  -0.7582486791 -0.8839951083 -0.9503080355
H   0.5833896928  1.2102958613  0.8315741071
H   0.6259947402  1.1576331804 -0.9142809841
H   2.9672272819  1.0251908924  1.1135475234
H   3.7994691201  1.6958837205 -0.4804474267
H   3.8945446980 -0.4229533240  0.3856310664
H   4.6293305815  2.9306870804 -0.0698779990
17
Image 17  Energy = -421.92503187
C  -1.9818938399  0.4852298926  0.0723611586
O  -2.1145624563  1.6827061431  0.1747223491
C  -0.7096813787 -0.2692613957 -0.0612834548
C   0.5677994892  0.5412305153 -0.0424215954
C   1.8068875169 -0.3770828636 -0.0129914465
O   1.6466239965 -1.5323028072 -0.4590342087
C   2.9814036195  0.2087692352  0.4819033893
O   4.2616024427  2.4934712487 -0.8570941283
H  -2.8982884423 -0.1470894226  0.0776280015
H  -0.6807215154 -1.0193783620  0.7365492162
H  -0.7647508800 -0.8649241866 -0.9750526774
H   0.5741723544  1.2266895600  0.8025315579
H   0.6241965853  1.1499647904 -0.9438754887
H   2.9151254433  1.1071113590  1.0842186430
H   3.8422940893  1.6722277447 -0.5312041640
H   3.8766917640 -0.4045946286  0.5205356940
H   4.6031026009  2.9172339671 -0.0674914976
17
Image 18  Energy = -421.92474594
C  -1.9894735937  0.4689750512  0.1050199639
O  -2.1302969535  1.6617155572  0.2434868405
C  -0.7155185166 -0.2702765429 -0.0834110682
C   0.5563367296  0.5500836064 -0.0755860454
C   1.8000111427 -0.3610045663 -0.0224951865
O   1.6587776619 -1.5091205063 -0.4902217486
C   2.9530503656  0.2240302760  0.5222118899
O   4.4017811244  2.4125144761 -0.8612080409
H  -2.8992928683 -0.1718112197  0.1193768190
H  -0.6579432272 -1.0381961472  0.6963983741
H  -0.7935198227 -0.8466211540 -1.0085153179
H   0.5556660445  1.2482774934  0.7585850691
H   0.6170053705  1.1439503279 -0.9862549780
H   2.8674513744  1.1522791483  1.0769230927
H   3.9281816241  1.6286778493 -0.5198922339
H   3.8471309391 -0.3836078386  0.6137201483
H   4.5506560940  2.9601399477 -0.0881367836
17
Image 19  Energy = -421.92465820
C  -2.0017682542  0.4569060704  0.1190960753
O  -2.1460641510  1.6481229635  0.2664411924
C  -0.7254729226 -0.2748912527 -0.0869864627
C   0.5423809556  0.5544051794 -0.0972232958
C   1.7954340893 -0.3441873300 -0.0338926368
O   1.6626933338 -1.5019479039 -0.4794533613
C   2.9451611008  0.2613204682  0.4959520432
O   4.5674028001  2.3309894740 -0.7980276811
H  -2.9097301122 -0.1870480391  0.1403178776
H  -0.6526447354 -1.0390134017  0.6955050593
H  -0.8146064237 -0.8566865197 -1.0079956362
H   0.5383730562  1.2632339867  0.7277579016
H   0.5982224702  1.1376680745 -1.0154484728
H   2.8384565444  1.1786502785  1.0647335750
H   4.0225058588  1.5816179870 -0.4817145098
H   3.8322749717 -0.3496208294  0.6213071544
H   4.4573812122  3.0104822766 -0.1303689061
17
Image 20  Energy = -421.92439787
C  -2.0002150852  0.4383725996  0.1578092329
O  -2.1523933614  1.6222816881  0.3481794201
C  -0.7248101898 -0.2723845818 -0.1113806407
C   0.5368202664  0.5675116964 -0.1404949190
C   1.7913155221 -0.3264897528 -0.0398995268
O   1.6723116675 -1.4824543115 -0.4950986779
C   2.9189527083  0.2782794878  0.5311492696
O   4.6646294693  2.2649841019 -0.7263141626
H  -2.8991010970 -0.2171567285  0.1863772740
H  -0.6168114194 -1.0550461166  0.6482734440
H  -0.8447740517 -0.8327404028 -1.0424602185
H   0.5215042919  1.3016804209  0.6615852675
H   0.5992993545  1.1199876841 -1.0775666885
H   2.7996066952  1.2148499496  1.0646176274
H   4.0808838481  1.5401322363 -0.4243430300
H   3.8121011811 -0.3192027729  0.6727380557
H   4.3906786405  3.0273966526 -0.2131722053
17
Image 21  Energy = -421.92416986
C  -1.9899935515  0.4176212260  0.2078835981
O  -2.1443979882  1.5906698140  0.4550547076
C  -0.7234723633 -0.2685920920 -0.1498108493
C   0.5346518778  0.5784965221 -0.1900576325
C   1.7926178544 -0.3073241246 -0.0503944963
O   1.6915785434 -1.4623419779 -0.5155034510
C   2.8955940107  0.2997563565  0.5602623510
O   4.7123463057  2.2280434290 -0.6759184220
H  -2.8800584164 -0.2484443574  0.2505245874
H  -0.5794382772 -1.0847389125  0.5665362061
H  -0.8854402453 -0.7867141670 -1.0994472701
H   0.5051801097  1.3345765941  0.5907929250
H   0.6088241232  1.1016081267 -1.1429699192
H   2.7586860296  1.2346418058  1.0891033330
H   4.1073831867  1.5192477244 -0.3746897287
H   3.7761012797 -0.3036075743  0.7493367672
H   4.3698369734  3.0271017693 -0.2707035051
17
Image 22  Energy = -421.92361884
C  -1.9760667874  0.3983445158  0.2536171011
O  -2.1280758228  1.5613110323  0.5446145664
C  -0.7231768277 -0.2643405654 -0.1868100345
C   0.5339754927  0.5869251366 -0.2333286994
C   1.7927604195 -0.2935068893 -0.0590548829
O   1.7089231526 -1.4467873614 -0.5323732567
C   2.8739673825  0.3141536440  0.5874977533
O   4.7445396656  2.2045698316 -0.6283908363
H  -2.8577910860 -0.2769039912  0.3178500092
H  -0.5483449206 -1.1132168534  0.4815546170
H  -0.9258262894 -0.7374642980 -1.1523798273
H   0.4929789572  1.3613197042  0.5286613874
H   0.6200835577  1.0854412551 -1.1981749688
H   2.7195627084  1.2498323989  1.1103798023
H   4.1248486308  1.5068283558 -0.3299349388
H   3.7451235803 -0.2897646153  0.8143018511
H   4.3525182146  3.0232584413 -0.3180295904
17
Image 23  Energy = -421.92305531
C  -1.9583893480  0.3800289976  0.2950384953
O  -2.1065638598  1.5348098836  0.6178977258
C  -0.7231015120 -0.2598874179 -0.2213605579
C   0.5341333143  0.5938521796 -0.2717612979
C   1.7927191461 -0.2816000703 -0.0658811642
O   1.7256682897 -1.4329916903 -0.5467310113
C   2.8524104524  0.3262876395  0.6137228073
O   4.7683632790  2.1880973371 -0.5822686469
H  -2.8300697788 -0.3050057635  0.3856197437
H  -0.5219592989 -1.1392881720  0.3965137672
H  -0.9674849113 -0.6857723651 -1.1994741548
H   0.4834792911  1.3839399503  0.4732218195
H   0.6306010432  1.0707592149 -1.2462307049
H   2.6815367918  1.2613289905  1.1328196161
H   4.1395892538  1.4973614666 -0.2857501965
H   3.7157912490 -0.2770439641  0.8696535707
H   4.3332759250  3.0151232757 -0.3650294403
17
Image 24  Energy = -421.92252539
C  -1.9396281979  0.3607362670  0.3330756354
O  -2.0863436409  1.5089338459  0.6786349676
C  -0.7232395468 -0.2550005377 -0.2526814905
C   0.5339345202  0.6014779680 -0.3066218677
C   1.7928308335 -0.2680185397 -0.0734614993
O   1.7435467636 -1.4165055953 -0.5636900624
C   2.8307575199  0.3398031918  0.6376757869
O   4.7912275360  2.1727896192 -0.5346613470
H  -2.7983322177 -0.3361013500  0.4529867969
H  -0.4984749961 -1.1612204455  0.3146116583
H  -1.0084340286 -0.6340961258 -1.2391887815
H   0.4753085354  1.4052714813  0.4228644779
H   0.6383611175  1.0590436950 -1.2892088944
H   2.6402541302  1.2693509286  1.1599555802
H   4.1550188717  1.4878579134 -0.2391656043
H   3.6867662314 -0.2629576878  0.9182934040
H   4.3164455861  2.9986355915 -0.4194188177
17
Image 25  Energy = -421.92205672
C  -1.9208732950  0.3386542504  0.3681704451
O  -2.0716712557  1.4815701830  0.7287512971
C  -0.7224828395 -0.2497030570 -0.2797411209
C   0.5320553377  0.6128392351 -0.3387764005
C   1.7927666475 -0.2488265196 -0.0846288609
O   1.7641585638 -1.3911830778 -0.5908627154
C   2.8068637887  0.3563281321  0.6608773291
O   4.8158004695  2.1545470435 -0.4845613015
H  -2.7619332629 -0.3736077438  0.5192990424
H  -0.4746437630 -1.1771185757  0.2404689442
H  -1.0446956431 -0.5869339233 -1.2702064237
H   0.4658822160  1.4281846183  0.3770721183
H   0.6401026016  1.0535535183 -1.3284063508
H   2.5922499080  1.2742106837  1.1944531447
H   4.1734848737  1.4759103047 -0.1859926078
H   3.6576166402 -0.2455766101  0.9585955594
H   4.3053179020  2.9671533551 -0.4845130483
17
Image 26  Energy = -421.91875259
C  -1.9031090342  0.3216093149  0.4005455687
O  -2.0568731123  1.4570054796  0.7742838495
C  -0.7172354182 -0.2435845285 -0.2992999460
C   0.5344507872  0.6276466682 -0.3671368916
C   1.7979700376 -0.2238946401 -0.0956324329
O   1.8037751124 -1.3540559410 -0.6503933415
C   2.7642192346  0.3577428144  0.7068533896
O   4.8333093639  2.1371303220 -0.4610074031
H  -2.7296616418 -0.4067444015  0.5730015736
H  -0.4484146332 -1.1850975372  0.1847456070
H  -1.0678531372 -0.5503737715 -1.2901176320
H   0.4544427453  1.4547683924  0.3339146737
H   0.6389156883  1.0518378531 -1.3655843610
H   2.5307144634  1.2672301925  1.2512373577
H   4.1934862518  1.4606255613 -0.1495124801
H   3.6285061798 -0.2259480158  1.0083622284
H   4.2933567088  2.9241042334 -0.5542615753
17
Image 27  Energy = -421.91831368
C  -1.8804684832  0.3045762272  0.4254251760
O  -2.0398966190  1.4352354706  0.8103391025
C  -0.7079431155 -0.2370514180 -0.3145493527
C   0.5365335186  0.6448387641 -0.3923151443
C   1.8041771552 -0.1971830139 -0.1153221872
O   1.8411123244 -1.3056322144 -0.7107823431
C   2.7362177543  0.3691867477  0.7368601360
O   4.8417726799  2.1196574712 -0.4429309697
H  -2.6917445255 -0.4363197475  0.6163108855
H  -0.4225015131 -1.1875911622  0.1412234967
H  -1.0833791159 -0.5213918889 -1.3030400408
H   0.4512482200  1.4784433224  0.3004930165
H   0.6362539309  1.0578037481 -1.3957108084
H   2.4525298165  1.2356901289  1.3259943532
H   4.2027679939  1.4519544452 -0.1086629288
H   3.5925608528 -0.2166312833  1.0581085970
H   4.2807592579  2.8744163837 -0.6314430663
17
Image 28  Energy = -421.91777264
C  -1.8519929298  0.2871841803  0.4558602606
O  -2.0099387136  1.4116148436  0.8585023453
C  -0.7048098679 -0.2289561767 -0.3404455781
C   0.5398348012  0.6536769258 -0.4224550863
C   1.8056493390 -0.1832430999 -0.1238324221
O   1.8701146986 -1.2778727546 -0.7420242951
C   2.7044254495  0.3735393813  0.7688985319
O   4.8464976578  2.1141548804 -0.4200344327
H  -2.6468659068 -0.4651702241  0.6693833437
H  -0.4068652064 -1.1973345956  0.0664711996
H  -1.1171650338 -0.4690804530 -1.3260889451
H   0.4493947555  1.4999452700  0.2543271988
H   0.6455368237  1.0477267612 -1.4326218353
H   2.3802483597  1.2056275155  1.3858176423
H   4.2013197741  1.4557487187 -0.0790600063
H   3.5616842142 -0.2056118248  1.0998001727
H   4.2829314616  2.8480505579 -0.6725002010
17
Image 29  Energy = -421.91711442
C  -1.8230602500  0.2709663138  0.4820211947
O  -1.9808809346  1.3896441184  0.8995848117
C  -0.7009693944 -0.2207625457 -0.3647010127
C   0.5434711180  0.6626793617 -0.4500502111
C   1.8067496764 -0.1690604061 -0.1293473120
O   1.9098568592 -1.2400203567 -0.7831235893
C   2.6569505732  0.3659199989  0.8221380627
O   4.8570124467  2.1101578528 -0.4219926285
H  -2.6009691936 -0.4928520047  0.7159318186
H  -0.3948235125 -1.2043491388 -0.0030692227
H  -1.1463159378 -0.4197090287 -1.3453976599
H   0.4465624634  1.5219322917  0.2094842943
H   0.6552380824  1.0368304487 -1.4669131232
H   2.2867970055  1.1527225822  1.4713792945
H   4.2072349330  1.4629377161 -0.0763078702
H   3.5291360149 -0.1913834845  1.1505828509
H   4.2980092095  2.8343428332 -0.7102192498
17
Image 30  Energy = -421.93204872
C  -1.8069034877  0.2415935559  0.4880781924
O  -2.0018532595  1.3584008085  0.9077609142
C  -0.6923384936 -0.2080883633 -0.3774445638
C   0.5382404155  0.6914009912 -0.4571927767
C   1.7988198429 -0.1330188631 -0.1336758815
O   1.9524278890 -1.1636378206 -0.8561022601
C   2.5825775904  0.3276698581  0.9007896729
O   4.8950321769  2.1348905449 -0.4612217477
H  -2.5492192336 -0.5463383860  0.7366462947
H  -0.3720383394 -1.1972951835 -0.0430960654
H  -1.1511006906 -0.3896043942 -1.3545488835
H   0.4316878284  1.5488105381  0.2010972881
H   0.6463033609  1.0643496083 -1.4737423748
H   2.2122956191  1.1047364231  1.5586925126
H   4.3184596637  1.4239463654 -0.1231499317
H   3.4785679053 -0.2008438436  1.2085263995
H   4.2690402955  2.8130280922 -0.7214169478
