17
Image 0  Energy = -421.87986200
C  -1.9848075990  0.4963521663  0.0530825922
O  -2.0330538288  1.6975103591  0.1140631985
C  -0.7388530580 -0.3296921216 -0.0498404500
C   0.5307534602  0.4862282596 -0.0567049432
C   1.7878036014 -0.3630649535 -0.0003350608
O   1.7086331473 -1.5799963012 -0.0265938952
C   3.0291244097  0.4191392478  0.0855377880
O   4.6225037787  2.4350473534 -0.1703417764
H  -2.9284901413 -0.0857101542  0.0756490009
H  -0.7448697010 -1.0349550276  0.7853011822
H  -0.8248004124 -0.9480166012 -0.9474148586
H   0.5391373997  1.1747440855  0.7889511268
H   0.5878756911  1.1031295306 -0.9554710776
H   3.0087643807  1.0825427242  0.9475339956
H   3.1850803753  1.1355014175 -0.7283027327
H   3.9340511302 -0.1652311818  0.1493863872
H   4.8711469217  3.3464699403 -0.0645005538
17
Image 1  Energy = -421.91733911
C  -1.5011209618  0.0160649552  0.6560743504
O  -1.7550638480  1.0436212503  1.2286913488
C  -0.6449474463 -0.1168415012 -0.5686028997
C   0.5651173281  0.8156244304 -0.6062223391
C   1.8183676237  0.0899628783 -0.0834424441
O   2.3017235124 -0.7867871818 -0.8580257815
C   2.2799379603  0.4459889026  1.1666845627
O   4.7614328711  1.8724725967 -0.5803498108
H  -1.9858479825 -0.9206700128  1.0002994488
H  -0.3091053460 -1.1498929892 -0.6640110584
H  -1.3279431839  0.0741719361 -1.4049100622
H   0.3414673502  1.7256385907 -0.0515579147
H   0.7561083857  1.0860634115 -1.6448121361
H   1.8349907398  1.2474200155  1.7396281607
H   4.2880267273  1.0483792654 -0.3808280345
H   3.0992547489 -0.1144103540  1.6160489718
H   4.0276019388  2.4931937473 -0.5646651824
17
Image 2  Energy = -421.90795054
C  -0.7110430627 -0.1656831052  0.9995208554
O  -1.2740784620  0.7801249778  1.7037269353
C  -0.6722842732  0.0936194998 -0.5673444265
C   0.6288708134  0.8245953872 -0.8388882089
C   1.5972799555  0.4534027115  0.2566483606
O   2.7777812926  0.7459364786  0.2465884838
C   0.8912269652 -0.3321678030  1.3134392304
O   4.9996729465  2.2822723951 -0.6825230248
H  -1.1977960697 -1.1795908567  1.0870610520
H  -0.7178772097 -0.8494842352 -1.1210329646
H  -1.5304278559  0.6898344652 -0.8867282849
H   0.4995802450  1.9055217164 -0.7883859740
H   1.0820689183  0.5785576765 -1.7989768404
H   1.2324045874 -1.3701382005  1.2433557603
H   4.7133548506  1.4530064787 -1.0688065416
H   1.2383945551  0.0308930741  2.2893923085
H   4.9928718407  2.9292987340 -1.3870465666
