17
Image 0  Energy = -421.93323604
C  -1.8362756301  0.2071644370  0.4631948937
O  -2.0848349569  1.3132122551  0.8827354755
C  -0.6976452219 -0.1899841444 -0.3951628868
C   0.5307553378  0.7160320691 -0.4033412813
C   1.7939928465 -0.1234509505 -0.1184875188
O   1.9190125987 -1.1481981151 -0.8565117204
C   2.6129014606  0.3194485590  0.8934838919
O   4.8900448175  2.2286649716 -0.3842146474
H  -2.5439507704 -0.6141595617  0.7033799195
H  -0.3742000126 -1.1925743782 -0.1127082342
H  -1.1359540045 -0.3163265961 -1.3907254060
H   0.4145425336  1.5302563471  0.3076831733
H   0.6489739656  1.1532384094 -1.3937483896
H   2.2850561898  1.1195548588  1.5468759965
H   4.4019436913  1.5113180519  0.0530515370
H   3.5035550855 -0.2326249068  1.1771294909
H   4.2220814425  2.5884279262 -0.9726346503
17
Image 1  Energy = -421.93329317
C  -1.8100983934  0.1672112432  0.4907472345
O  -2.0713242587  1.2553459730  0.9455418190
C  -0.6949798478 -0.1718365832 -0.4360831963
C   0.5314734387  0.7380850670 -0.4182355989
C   1.8005199700 -0.0947840207 -0.1164823632
O   1.9519276709 -1.1038491508 -0.8647837123
C   2.5986116900  0.3451426313  0.9177823258
O   4.8714991586  2.2244740523 -0.3811825960
H  -2.4853221961 -0.6825632953  0.7420332999
H  -0.3603641341 -1.1901807005 -0.2345390347
H  -1.1678675718 -0.2248566138 -1.4226109474
H   0.3983402361  1.5533434570  0.2898118506
H   0.6634760659  1.1753659780 -1.4062934069
H   2.2434071795  1.1236050471  1.5831354286
H   4.4098744715  1.5288974855  0.1172032879
H   3.4705868778 -0.2250788718  1.2236736195
H   4.2002391670  2.4516782385 -1.0297192123
17
Image 2  Energy = -421.91818294
C  -1.7646369760  0.1299394711  0.5203895535
O  -2.0338412993  1.1993998214  1.0028032234
C  -0.6898169253 -0.1585944397 -0.4652130328
C   0.5316045407  0.7575201626 -0.4458540927
C   1.8044830428 -0.0585309431 -0.1232138079
O   1.9952339175 -1.0484510021 -0.8816210372
C   2.5621389516  0.3662197895  0.9488730218
O   4.8531902955  2.1799855592 -0.3845331935
H  -2.4029786909 -0.7361687548  0.7929155847
H  -0.3443477982 -1.1835626495 -0.3383055309
H  -1.2057013547 -0.1483209036 -1.4303575039
H   0.3841887864  1.5832305005  0.2453178446
H   0.6711654468  1.1779085865 -1.4395013129
H   2.1880847345  1.1425699568  1.6028554080
H   4.4063733880  1.5030624545  0.1503927443
H   3.4295303792 -0.1997061028  1.2747949497
H   4.1653295914  2.3634985357 -1.0297446585
17
Image 3  Energy = -421.91850584
C  -1.7174802740  0.0962765153  0.5607554940
O  -2.0079344594  1.1617118591  1.0437480669
C  -0.6903900304 -0.1436759718 -0.4959439873
C   0.5330762371  0.7733237816 -0.4821708970
C   1.8000511574 -0.0373969495 -0.1198957637
O   2.0173118321 -1.0265904123 -0.8728930920
C   2.5335661630  0.3968311795  0.9685656787
O   4.8503782055  2.1349278851 -0.3875274825
H  -2.2933748455 -0.8013530247  0.8687666342
H  -0.3387834341 -1.1744727543 -0.4414889413
H  -1.2524539252 -0.0717543919 -1.4341831027
H   0.3713321217  1.6172474576  0.1853065327
H   0.6851057702  1.1650794586 -1.4877302478
H   2.1358733974  1.1653797814  1.6206224166
H   4.4039682883  1.4603959584  0.1510501986
H   3.3768638736 -0.1888198569  1.3262739294
H   4.1428901960  2.3428899807 -1.0032565207
17
Image 4  Energy = -421.91848746
C  -1.6627559339  0.0689488958  0.5931527277
O  -1.9775559250  1.1253026405  1.0810032489
C  -0.6902776468 -0.1297032856 -0.5241235120
C   0.5356884963  0.7828413953 -0.5185551315
C   1.7917267987 -0.0230916481 -0.1152678560
O   2.0347305204 -1.0138933493 -0.8589824393
C   2.4926096924  0.4126426922  0.9941518543
O   4.8455190854  2.0899074622 -0.3960716103
H  -2.1766468166 -0.8502613525  0.9426509057
H  -0.3429967654 -1.1631460809 -0.5329641592
H  -1.2931073617 -0.0008565491 -1.4302018763
H   0.3638946937  1.6467299364  0.1204923487
H   0.7030957240  1.1426409446 -1.5339097057
H   2.0882305845  1.1926001810  1.6277844503
H   4.4012791131  1.4033867324  0.1283507030
H   3.3223046901 -0.1758893120  1.3789599917
H   4.1142611589  2.3618408485 -0.9564709566
17
Image 5  Energy = -421.91841329
C  -1.6036261159  0.0494354711  0.6222069446
O  -1.9182962925  1.0971940292  1.1273819487
C  -0.6865865189 -0.1203831543 -0.5474820908
C   0.5410682291  0.7887314944 -0.5556628381
C   1.7862917936 -0.0095466194 -0.1141948034
O   2.0636122354 -0.9962674749 -0.8507367019
C   2.4451024986  0.4258043518  1.0221204604
O   4.8298845510  2.0415637937 -0.4083584250
H  -2.0774430934 -0.8814247995  0.9956073631
H  -0.3479548881 -1.1550063133 -0.6034979765
H  -1.3244521528  0.0508947028 -1.4217003109
H   0.3606797364  1.6705108282  0.0563356293
H   0.7199475173  1.1177359797 -1.5796174959
H   2.0356103037  1.2186013965  1.6343372624
H   4.3799651601  1.3329761375  0.0804877669
H   3.2626561068 -0.1632439848  1.4362725688
H   4.0835414526  2.4024238546 -0.8935004502
17
Image 6  Energy = -421.91819104
C  -1.5511513039  0.0326632550  0.6440844180
O  -1.8381874717  1.0716872459  1.1814090368
C  -0.6800705398 -0.1160345720 -0.5642829951
C   0.5465551979  0.7932626701 -0.5865619440
C   1.7851884352  0.0072148728 -0.1115112259
O   2.1024120452 -0.9701396937 -0.8455163402
C   2.3978679959  0.4401893234  1.0511132657
O   4.8077546323  1.9829274553 -0.4252954085
H  -2.0169534752 -0.9028017087  1.0161205210
H  -0.3484138491 -1.1506215688 -0.6526947466
H  -1.3452727478  0.0813889166 -1.4122817785
H   0.3572119785  1.6893726461  0.0017811616
H   0.7337424895  1.0954404483 -1.6173473881
H   1.9854955322  1.2484726580  1.6397775216
H   4.3365788636  1.2464753462 -0.0004838967
H   3.2153826781 -0.1360302512  1.4842388888
H   4.0618599930  2.4565325425 -0.8025496194
17
Image 7  Energy = -421.91782717
C  -1.5207106730  0.0221214156  0.6530466351
O  -1.7899145799  1.0546173570  1.2107473157
C  -0.6666181741 -0.1148148786 -0.5700125313
C   0.5547522392  0.8014597126 -0.6015419822
C   1.7960799625  0.0338149188 -0.1063387553
O   2.1626432479 -0.9207546933 -0.8483664688
C   2.3622196463  0.4520488540  1.0840466228
O   4.7755120712  1.9180589768 -0.4664696473
H  -1.9907997653 -0.9154112241  1.0146703534
H  -0.3351099940 -1.1484984848 -0.6697864515
H  -1.3448878575  0.0870421532 -1.4069327531
H   0.3549214638  1.7052878758 -0.0285131091
H   0.7440092574  1.0874071280 -1.6364228415
H   1.9507956392  1.2715280808  1.6570303902
H   4.2768696031  1.1577825589 -0.1192334023
H   3.1766442755 -0.1191033403  1.5294114563
H   4.0435939674  2.4974131447 -0.6953356034
17
Image 8  Energy = -421.91747861
C  -1.5070295855  0.0176981426  0.6549524185
O  -1.7707382424  1.0469472409  1.2204869386
C  -0.6517847231 -0.1152780491 -0.5692721474
C   0.5622646812  0.8112467392 -0.6059874513
C   1.8105995136  0.0662035988 -0.0968322757
O   2.2389447726 -0.8490191192 -0.8565846341
C   2.3226140038  0.4516857786  1.1265877351
O   4.7539070547  1.8788063749 -0.5298051870
H  -1.9831790930 -0.9205477279  1.0068769654
H  -0.3169219839 -1.1481792834 -0.6674640512
H  -1.3339830240  0.0799535313 -1.4050488589
H   0.3498143320  1.7186210448 -0.0430498714
H   0.7509484319  1.0878211851 -1.6432970952
H   1.9076412097  1.2724056099  1.6941835118
H   4.2574039662  1.0906829093 -0.2501213948
H   3.1324056692 -0.1216148362  1.5772375472
H   4.0270932999  2.5025667458 -0.6128632379
17
Image 9  Energy = -421.91733911
C  -1.5011209618  0.0160649552  0.6560743504
O  -1.7550638480  1.0436212503  1.2286913488
C  -0.6449474463 -0.1168415012 -0.5686028997
C   0.5651173281  0.8156244304 -0.6062223391
C   1.8183676237  0.0899628783 -0.0834424441
O   2.3017235124 -0.7867871818 -0.8580257815
C   2.2799379603  0.4459889026  1.1666845627
O   4.7614328711  1.8724725967 -0.5803498108
H  -1.9858479825 -0.9206700128  1.0002994488
H  -0.3091053460 -1.1498929892 -0.6640110584
H  -1.3279431839  0.0741719361 -1.4049100622
H   0.3414673502  1.7256385907 -0.0515579147
H   0.7561083857  1.0860634115 -1.6448121361
H   1.8349907398  1.2474200155  1.7396281607
H   4.2880267273  1.0483792654 -0.3808280345
H   3.0992547489 -0.1144103540  1.6160489718
H   4.0276019388  2.4931937473 -0.5646651824
17
Image 10  Energy = -421.91768277
C  -1.4968707165  0.0136942915  0.6556191425
O  -1.7428465445  1.0399442549  1.2346111820
C  -0.6385534540 -0.1185526029 -0.5679639387
C   0.5664814596  0.8214821773 -0.6037091493
C   1.8267219178  0.1148368875 -0.0694849403
O   2.3571246895 -0.7229482607 -0.8611354779
C   2.2453288198  0.4425469932  1.2018209585
O   4.7708090951  1.8631052988 -0.6375061533
H  -1.9891413459 -0.9213544650  0.9935825191
H  -0.2988493900 -1.1509204851 -0.6598280195
H  -1.3202212865  0.0668136300 -1.4066570011
H   0.3313079986  1.7322725193 -0.0548114203
H   0.7608470029  1.0880919821 -1.6425587604
H   1.7567352115  1.2133657120  1.7847437165
H   4.3153214117  1.0184607595 -0.4956924766
H   3.0702094323 -0.1031245417  1.6565043093
H   4.0355957770  2.4722853921 -0.5275355789
17
Image 11  Energy = -421.91859240
C  -1.4922773305  0.0113114192  0.6544199797
O  -1.7366433837  1.0363190788  1.2365068361
C  -0.6275625645 -0.1202240876 -0.5652016877
C   0.5699221805  0.8303631215 -0.6015919010
C   1.8417857893  0.1485752137 -0.0613602302
O   2.4257970388 -0.6385363533 -0.8703907584
C   2.2201458294  0.4454335888  1.2290946295
O   4.7553980630  1.8244776337 -0.6816770898
H  -1.9898946270 -0.9232100215  0.9857941350
H  -0.2816884425 -1.1514328728 -0.6504796391
H  -1.3071413845  0.0550304497 -1.4077222732
H   0.3223375079  1.7409352167 -0.0575732093
H   0.7634310583  1.0939621667 -1.6410575871
H   1.6958245011  1.1827604100  1.8247440405
H   4.2911798683  0.9777118492 -0.5839009555
H   3.0586749500 -0.0813866288  1.6816786919
H   4.0407108626  2.4379097167 -0.4912838752
17
Image 12  Energy = -421.92002064
C  -1.4905624291  0.0081287573  0.6516799059
O  -1.7375023722  1.0331918451  1.2325125805
C  -0.6154913820 -0.1224161376 -0.5628489942
C   0.5743486583  0.8396151913 -0.5970434153
C   1.8568176384  0.1840707873 -0.0518601432
O   2.4928299768 -0.5475411944 -0.8775815384
C   2.2027471211  0.4507535831  1.2520434829
O   4.7304468722  1.7713741454 -0.7185096273
H  -1.9923469591 -0.9264094104  0.9766215215
H  -0.2609355733 -1.1523906719 -0.6409859277
H  -1.2901575893  0.0424587931 -1.4107651328
H   0.3118691422  1.7484253284 -0.0565977211
H   0.7670032961  1.1019052500 -1.6363677325
H   1.6481450731  1.1543343458  1.8610386079
H   4.2352940568  0.9336973170 -0.6659134346
H   3.0658814844 -0.0444531619  1.6934947965
H   4.0516128889  2.3952551670 -0.4489183267
17
Image 13  Energy = -421.92159291
C  -1.4794468850 -0.0088432438  0.6461127112
O  -1.7199808708  1.0036149783  1.2505573159
C  -0.5997753277 -0.1196752306 -0.5651614633
C   0.5773495802  0.8545906214 -0.5929965297
C   1.8652424209  0.2257368365 -0.0370382506
O   2.5437474963 -0.4645863874 -0.8691535188
C   2.1867592998  0.4724453593  1.2739363492
O   4.6900482824  1.7056089955 -0.7719871314
H  -1.9900585549 -0.9438230832  0.9500820378
H  -0.2340038913 -1.1445383571 -0.6467254044
H  -1.2740650941  0.0368099116 -1.4140684283
H   0.2969105604  1.7628443677 -0.0621346408
H   0.7758891151  1.1133711471 -1.6303991444
H   1.6102328789  1.1492163826  1.8916719779
H   4.1554034241  0.8875505536 -0.7494581720
H   3.0677193863  0.0049466312  1.7077025702
H   4.0780283602  2.3347301383 -0.3809408996
17
Image 14  Energy = -421.93783665
C  -1.4594261250 -0.0275587959  0.6425180259
O  -1.6976875180  0.9775428824  1.2693491383
C  -0.5793073318 -0.1203138445 -0.5607247349
C   0.5822421873  0.8732168882 -0.5933324862
C   1.8827701243  0.2902464960 -0.0264660633
O   2.6307416495 -0.3271660289 -0.8748553869
C   2.1571199899  0.4863386290  1.2976354914
O   4.6380300300  1.6190116251 -0.8085209775
H  -1.9768211303 -0.9665326686  0.9237132749
H  -0.2008848176 -1.1402180527 -0.6471543766
H  -1.2569492791  0.0302068811 -1.4097331042
H   0.2818590798  1.7810779090 -0.0732388097
H   0.7800701232  1.1216346353 -1.6338057631
H   1.5618787117  1.1339741347  1.9281396461
H   4.0479386194  0.8292375151 -0.8147969772
H   3.0604918602  0.0501931788  1.7213654507
H   4.0979336349  2.2591081581 -0.3400929258
17
Image 15  Energy = -421.92549223
C  -1.4278122588 -0.0379678047  0.6556478649
O  -1.6779641161  0.9530030935  1.2897441441
C  -0.5495548906 -0.1187847341 -0.5549655944
C   0.5752792198  0.9133262765 -0.6052816558
C   1.8803717082  0.3635510416 -0.0208110664
O   2.6629835641 -0.1779250242 -0.8821060564
C   2.0955881130  0.4822892587  1.3238924449
O   4.6713916144  1.5232901089 -0.8230594426
H  -1.9363596921 -0.9882150347  0.9336525324
H  -0.1320152003 -1.1271989950 -0.6188352321
H  -1.2339019739 -0.0131687584 -1.4042170197
H   0.2515726615  1.8246381612 -0.1048958309
H   0.7788305494  1.1393808909 -1.6487926334
H   1.4082383451  0.9931578698  1.9837036142
H   3.9700035172  0.8065785764 -0.8779160775
H   3.0221084267  0.1013666786  1.7457318762
H   4.1912402940  2.2326786813 -0.3914924604
17
Image 16  Energy = -421.93781443
C  -1.4362269077 -0.0126883093  0.6796612943
O  -1.6842443795  1.0014564999  1.2857727268
C  -0.5630765459 -0.1375114601 -0.5232640743
C   0.5421678350  0.9071872736 -0.6326894805
C   1.8659238815  0.3892981186 -0.0609635549
O   2.6998343534 -0.0642019561 -0.9391992331
C   2.0441573526  0.4256793061  1.2884661872
O   4.7947458543  1.5437716180 -0.7510795858
H  -1.9405159646 -0.9508512356  0.9942568919
H  -0.1244780076 -1.1387823318 -0.5324430666
H  -1.2499379103 -0.1031373434 -1.3775110073
H   0.2221535128  1.8291713293 -0.1504739243
H   0.7154196079  1.1090075208 -1.6863618660
H   1.2949318138  0.8046045199  1.9655351159
H   4.0682054644  0.8631951380 -0.8424974231
H   2.9856212465  0.0934716583  1.7147560586
H   4.3153184553  2.3103299560 -0.4319641393
17
Image 17  Energy = -421.93703188
C  -1.4538710265  0.0161853763  0.6972554379
O  -1.6726145152  1.0459338205  1.2875494507
C  -0.5783829737 -0.1563035481 -0.4976848841
C   0.5299164308  0.8782787161 -0.6594275825
C   1.8735090002  0.3898406586 -0.1026595201
O   2.7379216136  0.0203204998 -0.9882551958
C   2.0345320394  0.3714826958  1.2493557034
O   4.8494408377  1.6008684563 -0.6751740872
H  -1.9880597989 -0.9023400353  1.0221009577
H  -0.1468842961 -1.1598475093 -0.4669673092
H  -1.2673042037 -0.1572928481 -1.3517086209
H   0.2220333066  1.8133011934 -0.1954398593
H   0.6787813999  1.0525015982 -1.7212520134
H   1.2711820672  0.7098477588  1.9314232935
H   4.1252451013  0.9258867809 -0.8058500854
H   2.9803134430  0.0484515804  1.6717545487
H   4.3542416061  2.3728854377 -0.3950192812
17
Image 18  Energy = -421.93658949
C  -1.4620827042  0.0367456214  0.7134548703
O  -1.6551685075  1.0749938716  1.2970753056
C  -0.5891764230 -0.1683151154 -0.4775361728
C   0.5192891796  0.8581543130 -0.6821591059
C   1.8758466522  0.3952266052 -0.1301784282
O   2.7667833314  0.1011907294 -1.0159740629
C   2.0172861325  0.3258371664  1.2227287615
O   4.8963054389  1.6385964651 -0.6229344068
H  -2.0196142931 -0.8669573582  1.0424707159
H  -0.1607744458 -1.1718166389 -0.4186107550
H  -1.2816443440 -0.1954659571 -1.3285757910
H   0.2189347897  1.8053623942 -0.2388298700
H   0.6533581288  1.0059272245 -1.7496999962
H   1.2343583924  0.6118541393  1.9057120748
H   4.1684491455  0.9741957331 -0.7784196483
H   2.9682417579  0.0208663034  1.6457183648
H   4.3996076464  2.4236048095 -0.3842398895
17
Image 19  Energy = -421.93639723
C  -1.4630959120  0.0557450091  0.7315685085
O  -1.6345817727  1.1010573603  1.3085936135
C  -0.5988465933 -0.1774624980 -0.4594852319
C   0.5089118595  0.8391461068 -0.7072542651
C   1.8748261234  0.4021809790 -0.1531613171
O   2.7919164185  0.1867023511 -1.0331829758
C   1.9940798864  0.2778907484  1.1986404642
O   4.9399623035  1.6720315310 -0.5718516296
H  -2.0369858841 -0.8353720835  1.0677005478
H  -0.1736533058 -1.1808351919 -0.3779617466
H  -1.2984401430 -0.2251475302 -1.3040335088
H   0.2153320860  1.8007150060 -0.2912662241
H   0.6328197163  0.9550631739 -1.7797897505
H   1.1892470923  0.5001425771  1.8788017184
H   4.2033944102  1.0235260460 -0.7481055990
H   2.9505380248 -0.0030355776  1.6246482839
H   4.4545758430  2.4776515275 -0.3838605326
17
Image 20  Energy = -421.93622136
C  -1.4613112620  0.0788146824  0.7484487791
O  -1.6210973754  1.1336414804  1.3111293139
C  -0.6042848257 -0.1830992039 -0.4395937759
C   0.5004730496  0.8228508144 -0.7328711555
C   1.8738876247  0.4106677382 -0.1759724312
O   2.8115332932  0.2722637255 -1.0483194146
C   1.9730155011  0.2279500996  1.1717815558
O   4.9722574972  1.7052188224 -0.5234580971
H  -2.0414130363 -0.8023230696  1.0989217194
H  -0.1791564826 -1.1835799901 -0.3293984447
H  -1.3090150448 -0.2574132882 -1.2779726275
H   0.2153018668  1.7996234790 -0.3478125759
H   0.6150978233  0.9037502319 -1.8095241291
H   1.1445904338  0.3755116170  1.8435619591
H   4.2302461406  1.0699033467 -0.7213733159
H   2.9337085743 -0.0276644070  1.6034930423
H   4.4961665722  2.5238833947 -0.3710399423
17
Image 21  Energy = -421.93666582
C  -1.4534188941  0.1063174803  0.7646614432
O  -1.6095630196  1.1742742990  1.3029626486
C  -0.6096063179 -0.1863119465 -0.4245489156
C   0.4959220728  0.8037613844 -0.7594314642
C   1.8723287963  0.4137719626 -0.1947763899
O   2.8268576133  0.3508768809 -1.0559208598
C   1.9547388737  0.1734581274  1.1459539139
O   4.9900209623  1.7472628037 -0.4738157469
H  -2.0238030572 -0.7684629783  1.1442813982
H  -0.1884657239 -1.1844941846 -0.2887233248
H  -1.3225391722 -0.2796251487 -1.2538483775
H   0.2215072332  1.7974464613 -0.4111365762
H   0.6059071032  0.8449201638 -1.8390021547
H   1.1075550674  0.2469503796  1.8062163095
H   4.2488601583  1.1176330083 -0.6906692279
H   2.9180409173 -0.0602296632  1.5835605083
H   4.5156573325  2.5724503247 -0.3557632349
17
Image 22  Energy = -421.93692078
C  -1.4379266334  0.1289789724  0.7780528223
O  -1.6090622015  1.2106535557  1.2835828297
C  -0.6161820347 -0.1833753689 -0.4225339233
C   0.4990819546  0.7872267312 -0.7759631680
C   1.8673516753  0.4082220687 -0.1867850152
O   2.8445313506  0.4116477297 -1.0224561309
C   1.9185942978  0.1071524185  1.1442871309
O   5.0121210986  1.8081128705 -0.4773547051
H  -1.9716983634 -0.7468522289  1.2031272136
H  -0.2067009279 -1.1855035292 -0.2825718858
H  -1.3398334285 -0.2711013134 -1.2425354856
H   0.2342771089  1.7957371924 -0.4640039662
H   0.6199179141  0.7944800436 -1.8553973811
H   1.0526635985  0.1223255680  1.7834509669
H   4.2725497285  1.1714798883 -0.6745217097
H   2.8755464895 -0.1237902163  1.5968631394
H   4.5347678233  2.6346051541 -0.3852406406
17
Image 23  Energy = -421.93703328
C  -1.4380392630  0.1445326095  0.7820948163
O  -1.6163761059  1.2345148601  1.2671383186
C  -0.6254975365 -0.1808763595 -0.4221816349
C   0.5045996903  0.7712085157 -0.7761275547
C   1.8610132703  0.3996568264 -0.1598708150
O   2.8593966829  0.4653068944 -0.9643662082
C   1.8851592194  0.0362153127  1.1585642908
O   5.0461390618  1.8707282560 -0.5166083065
H  -1.9549157959 -0.7288250038  1.2324790322
H  -0.2311425177 -1.1885408752 -0.2827676395
H  -1.3506126478 -0.2551240886 -1.2420599592
H   0.2470504860  1.7909714166 -0.4956813073
H   0.6431903470  0.7522886098 -1.8535776942
H   1.0024126217  0.0144545029  1.7801349891
H   4.2961464812  1.2358383424 -0.6683582617
H   2.8327172872 -0.2043520358  1.6248075466
H   4.5887586449  2.7120022006 -0.4636198462
17
Image 24  Energy = -421.93753384
C  -1.4368657993  0.1580289989  0.7833110330
O  -1.6120168860  1.2519454393  1.2595514782
C  -0.6325516357 -0.1770556412 -0.4245423293
C   0.5149511470  0.7556793638 -0.7721451004
C   1.8554111426  0.3876382425 -0.1216578203
O   2.8764261637  0.5059815715 -0.8885202586
C   1.8434530931 -0.0302229617  1.1813546566
O   5.0838707020  1.9443748903 -0.6028109363
H  -1.9502242310 -0.7113816080  1.2464529056
H  -0.2562003649 -1.1918131421 -0.2890393201
H  -1.3582248136 -0.2331264703 -1.2451891441
H   0.2640659367  1.7847916442 -0.5199026525
H   0.6749041745  0.7145410000 -1.8467636242
H   0.9488653738 -0.0826752512  1.7769561165
H   4.3422550458  1.2935754978 -0.7001636701
H   2.7817335761 -0.2723578412  1.6635472128
H   4.6101476238  2.7720757932 -0.5004384428
17
Image 25  Energy = -421.93814475
C  -1.4236075188  0.1822220178  0.7859126244
O  -1.6021305833  1.2838300104  1.2423384269
C  -0.6363776601 -0.1679601642 -0.4297285086
C   0.5344388960  0.7347984722 -0.7733875976
C   1.8530175794  0.3650265955 -0.0866265498
O   2.9000838990  0.5270848339 -0.8060516701
C   1.8059959307 -0.1006481316  1.1987889579
O   5.0892907590  2.0365977741 -0.6772385940
H  -1.9210327806 -0.6807253166  1.2787907308
H  -0.2881188093 -1.1928428183 -0.3012456557
H  -1.3660055312 -0.1973457915 -1.2476932899
H   0.2983346110  1.7746167493 -0.5526471251
H   0.7164807585  0.6670331717 -1.8434276061
H   0.8983564021 -0.1972257243  1.7645516171
H   4.3845203124  1.3478035409 -0.7360181449
H   2.7370952996 -0.3379937723  1.6975445216
H   4.5696576823  2.8257290085 -0.5138617235
17
Image 26  Energy = -421.93861859
C  -1.3965444407  0.2124478438  0.7930198602
O  -1.6056530066  1.3259356823  1.2068586611
C  -0.6393692218 -0.1560112512 -0.4385414787
C   0.5567760479  0.7153791184 -0.7831730664
C   1.8598233665  0.3341211021 -0.0746016725
O   2.9232239061  0.5258270093 -0.7627640885
C   1.7873619281 -0.1728871211  1.1943505511
O   5.0514537508  2.1232102386 -0.6695160023
H  -1.8411495971 -0.6481734919  1.3399548167
H  -0.3190661707 -1.1919804172 -0.3237007507
H  -1.3764654446 -0.1490188466 -1.2508417047
H   0.3419787694  1.7647285163 -0.5834943778
H   0.7506184106  0.6276704593 -1.8508063768
H   0.8692509471 -0.3027249999  1.7358389769
H   4.3904488440  1.3944209525 -0.7201450636
H   2.7123944509 -0.4142232876  1.7041576816
H   4.4849182733  2.8812784788 -0.5165955766
17
Image 27  Energy = -421.93876903
C  -1.3893183078  0.2277071109  0.7956026871
O  -1.6365856366  1.3444947937  1.1797799584
C  -0.6441045215 -0.1434319838 -0.4482502742
C   0.5711803816  0.7114448758 -0.7823081040
C   1.8681766917  0.3183968975 -0.0663162093
O   2.9344842608  0.5597512344 -0.7333262088
C   1.7824899372 -0.2477743065  1.1780373268
O   5.0387464227  2.1786309246 -0.5986211311
H  -1.7881743217 -0.6417708867  1.3718849527
H  -0.3431161492 -1.1886334534 -0.3497624328
H  -1.3836037254 -0.1023156412 -1.2601884960
H   0.3673656431  1.7645450316 -0.5825148755
H   0.7683284265  0.6200854370 -1.8504498688
H   0.8556311974 -0.4246117228  1.6967587127
H   4.3810458708  1.4455818228 -0.6328695826
H   2.7054590874 -0.4962634225  1.6909871046
H   4.4619940467  2.9441634335 -0.6084442043
17
Image 28  Energy = -421.93911366
C  -1.3942748350  0.2371665993  0.7952640282
O  -1.6911348379  1.3515639033  1.1485055888
C  -0.6555913759 -0.1367434474 -0.4483659949
C   0.5667578777  0.7063882314 -0.7782006632
C   1.8603849721  0.3161286633 -0.0582208412
O   2.9298795661  0.6168339359 -0.6953326384
C   1.7805465845 -0.3054260438  1.1581376699
O   5.0555603005  2.2022396378 -0.5442923771
H  -1.7430649923 -0.6228624586  1.4083882779
H  -0.3658778613 -1.1838217409 -0.3584948052
H  -1.3921159656 -0.0778729253 -1.2585504351
H   0.3716377707  1.7614726366 -0.5831045354
H   0.7708580977  0.6136752315 -1.8448901509
H   0.8563549334 -0.5493519520  1.6494743689
H   4.3695650663  1.4951656643 -0.5652613364
H   2.7019434772 -0.5411851872  1.6780170973
H   4.5285708419  2.9866290375 -0.7030739895
17
Image 29  Energy = -421.93954405
C  -1.4025575854  0.2494216011  0.7959573344
O  -1.7600919243  1.3587524002  1.1064066931
C  -0.6657059779 -0.1329803116 -0.4463762060
C   0.5628733475  0.7006414908 -0.7711586264
C   1.8534644221  0.3138578181 -0.0495151289
O   2.9224246658  0.6719355234 -0.6549014972
C   1.7789534844 -0.3581490725  1.1383265178
O   5.0738887504  2.2232041021 -0.5079358094
H  -1.6946377698 -0.5965144848  1.4545045529
H  -0.3865575485 -1.1821702882 -0.3577038883
H  -1.3989594215 -0.0596780199 -1.2566686224
H   0.3717419573  1.7566097205 -0.5795418984
H   0.7702032034  0.6070825900 -1.8362799276
H   0.8583052021 -0.6598164186  1.5990704183
H   4.3581870280  1.5461719638 -0.5176304590
H   2.6967807180 -0.5843665786  1.6659227617
H   4.6116875344  3.0159976502 -0.7824762704
17
Image 30  Energy = -421.94003292
C  -1.4030291725  0.2639922583  0.8036965218
O  -1.8090778490  1.3677200106  1.0719427904
C  -0.6810590903 -0.1336793750 -0.4432440094
C   0.5526870544  0.6929289808 -0.7725171697
C   1.8430872256  0.3174329535 -0.0447232487
O   2.9077417023  0.7437899268 -0.6115798512
C   1.7727681872 -0.4155574100  1.1073090376
O   5.0955417308  2.2495774452 -0.4555357040
H  -1.6332382774 -0.5606113057  1.5109922300
H  -0.4090894418 -1.1846862244 -0.3547380589
H  -1.4145815112 -0.0489634914 -1.2513167960
H   0.3618988844  1.7510104291 -0.5896398689
H   0.7629625690  0.5913742068 -1.8371705794
H   0.8546728746 -0.7720405586  1.5345127065
H   4.3470463419  1.6096113509 -0.4652969872
H   2.6901163904 -0.6399898393  1.6371512544
H   4.7115529291  3.0380927624 -0.8398451190
17
Image 31  Energy = -421.93618176
C  -1.3883205265  0.2694827429  0.8072722987
O  -1.8210362669  1.3660699265  1.0634499086
C  -0.6854926528 -0.1265888650 -0.4522890538
C   0.5602677291  0.6907773171 -0.7671600735
C   1.8342996558  0.3181235727 -0.0065352633
O   2.9100522006  0.7905739733 -0.5185689808
C   1.7378141408 -0.4585134047  1.1112709714
O   5.1105447809  2.2739336506 -0.4912738243
H  -1.5688583831 -0.5443594448  1.5404091676
H  -0.4243005042 -1.1817954940 -0.3764822679
H  -1.4183211238 -0.0195947153 -1.2576916850
H   0.3685382294  1.7514314370 -0.5964170290
H   0.7908901933  0.5809026150 -1.8280376434
H   0.8139348755 -0.8494481746  1.4968126149
H   4.3438633663  1.6577102487 -0.4627199916
H   2.6391786889 -0.6971572725  1.6618504600
H   4.7469452317  3.0484523060 -0.9238908760
17
Image 32  Energy = -421.93707645
C  -1.3648937975  0.2764591868  0.8203081708
O  -1.8529743521  1.3599257799  1.0424646845
C  -0.6946483521 -0.1200687080 -0.4608428585
C   0.5631114138  0.6849017937 -0.7718634623
C   1.8221603511  0.3185698754  0.0168717905
O   2.9027031368  0.8270366235 -0.4490734567
C   1.7082871963 -0.4884850699  1.1116555108
O   5.1208838387  2.2866650553 -0.5124431291
H  -1.4533770163 -0.5117689195  1.5911131070
H  -0.4451336589 -1.1798224743 -0.4025811308
H  -1.4332694320  0.0156533056 -1.2563039790
H   0.3728502352  1.7493815343 -0.6174982318
H   0.8079819033  0.5597212048 -1.8288299626
H   0.7864534179 -0.9281797285  1.4483367343
H   4.3449797389  1.6851748018 -0.4532247097
H   2.5962472734 -0.7201035094  1.6870967173
H   4.7686376699  3.0549391534 -0.9651857935
17
Image 33  Energy = -421.93779500
C  -1.3404700201  0.2897929597  0.8285208816
O  -1.8994882731  1.3451925458  1.0205718153
C  -0.7033061796 -0.1150640911 -0.4673239097
C   0.5649126783  0.6739024206 -0.7790654281
C   1.8100462617  0.3143257566  0.0311439324
O   2.8916300647  0.8522963366 -0.3939931643
C   1.6868617286 -0.5158860686  1.1071574593
O   5.1208891980  2.2993771670 -0.5171897024
H  -1.3265413176 -0.4526589678  1.6456609980
H  -0.4680608952 -1.1787701344 -0.4184611771
H  -1.4473053063  0.0441570026 -1.2515629921
H   0.3792029202  1.7416420294 -0.6415346278
H   0.8211063942  0.5326512093 -1.8311354614
H   0.7747941525 -1.0033611778  1.3971054711
H   4.3328761318  1.7161276189 -0.4430657085
H   2.5613775185 -0.7380505555  1.7052887450
H   4.7914744525  3.0643249882 -0.9921167503
17
Image 34  Energy = -421.93893467
C  -1.3257009745  0.3086022041  0.8308994765
O  -1.9939580686  1.3070595595  0.9835326566
C  -0.7157661063 -0.1093408750 -0.4733313071
C   0.5613880695  0.6703301060 -0.7757117252
C   1.7943074733  0.3156657405  0.0499836729
O   2.8723147612  0.8903161431 -0.3276053872
C   1.6675459822 -0.5484329829  1.0999832534
O   5.1357015307  2.2939314761 -0.5364165364
H  -1.1677269784 -0.3551880009  1.6949936245
H  -0.4877182845 -1.1746405834 -0.4271589590
H  -1.4586464619  0.0637037442 -1.2540959925
H   0.3755598306  1.7389727872 -0.6447798059
H   0.8271474319  0.5252086298 -1.8242986618
H   0.7737468499 -1.0934502705  1.3362876231
H   4.3362912237  1.7301876432 -0.4368205085
H   2.5333996933 -0.7581780310  1.7166379176
H   4.8221139767  3.0652524607 -1.0120985829
17
Image 35  Energy = -421.94021489
C  -1.3171686691  0.3297316027  0.8317190127
O  -2.1169239581  1.2340051061  0.9519695248
C  -0.7267210399 -0.0982562561 -0.4749239171
C   0.5579480273  0.6721377068 -0.7649477896
C   1.7757331660  0.3295065113  0.0851042526
O   2.8398615902  0.9717667715 -0.2188166647
C   1.6559685690 -0.5928908160  1.0827105142
O   5.1618287329  2.2586889280 -0.5851290973
H  -1.0079710540 -0.2201886321  1.7303177131
H  -0.5069519513 -1.1654961607 -0.4355522233
H  -1.4681596607  0.0908455260 -1.2515368312
H   0.3701465232  1.7419603675 -0.6515589666
H   0.8422733605  0.5154813354 -1.8067213332
H   0.7852270207 -1.1971216066  1.2455138680
H   4.3413546646  1.7401911429 -0.4323816420
H   2.5026817145 -0.7915336405  1.7273487532
H   4.8608725335  3.0511719771 -1.0331152417
17
Image 36  Energy = -421.92739739
C  -1.2863551480  0.3381933286  0.8562091844
O  -2.0740318322  1.2423544794  1.0083083307
C  -0.7270342407 -0.0682731682 -0.4798265687
C   0.5759913918  0.6757179725 -0.7771157738
C   1.7647041181  0.3863291448  0.1453519062
O   2.7733226302  1.1408218355 -0.0222233153
C   1.6454716370 -0.6249323073  1.0616245672
O   5.1469624898  2.1643807876 -0.6762937355
H  -0.9522436455 -0.2344372624  1.7329385400
H  -0.5423293967 -1.1431095456 -0.4793141101
H  -1.4815337997  0.1699173743 -1.2304335597
H   0.3886028204  1.7508104377 -0.7438142443
H   0.8972885794  0.4465419617 -1.7967190390
H   0.8106549397 -1.3015242252  1.0992352043
H   4.3023527996  1.7328396535 -0.4102467740
H   2.4478026551 -0.8030414734  1.7681775321
H   4.8603734489  2.9974116409 -1.0558591143
17
Image 37  Energy = -421.92602720
C  -1.2378314534  0.3268400543  0.8768446704
O  -1.8779167090  1.3255373321  1.1030824207
C  -0.7216726917 -0.0508399193 -0.4898884706
C   0.5900811648  0.6735857976 -0.8022235217
C   1.7494556360  0.4205330664  0.1689721726
O   2.7285654625  1.2263188255  0.0686500203
C   1.6302907336 -0.6140325383  1.0588198795
O   5.1086895786  2.1159391370 -0.7045776805
H  -1.0222298468 -0.3719109093  1.7001261994
H  -0.5624478690 -1.1293267809 -0.5227568684
H  -1.4919653018  0.2258139013 -1.2119166153
H   0.4084259820  1.7492776399 -0.8238735880
H   0.9340027927  0.3911347377 -1.8015296555
H   0.8203799171 -1.3229173726  1.0389816934
H   4.2622588383  1.7236411960 -0.3857987337
H   2.4023664077 -0.7766833969  1.7990898758
H   4.8295470684  2.9570899463 -1.0720027256
17
Image 38  Energy = -421.92463057
C  -1.1988899488  0.3048977782  0.8907274150
O  -1.6947226323  1.3639638350  1.1855354170
C  -0.7156748163 -0.0468101081 -0.4970047371
C   0.5944266426  0.6720537059 -0.8259926672
C   1.7378013609  0.4370056696  0.1668072680
O   2.7159407194  1.2455086324  0.0800742919
C   1.6035353949 -0.5868571214  1.0688339271
O   5.0951201626  2.1104592194 -0.6970025940
H  -1.1094864036 -0.4779376808  1.6616563039
H  -0.5717858546 -1.1261037110 -0.5517918107
H  -1.5015461945  0.2503749777 -1.1941426508
H   0.4151591119  1.7472616557 -0.8712603481
H   0.9459250829  0.3654076345 -1.8158394326
H   0.8115872076 -1.3153506696  1.0306815482
H   4.2499568054  1.7201049624 -0.3711020957
H   2.3664938821 -0.7341410851  1.8221544384
H   4.8061592833  2.9401625674 -1.0823354328
17
Image 39  Energy = -421.92349300
C  -1.1527941981  0.2844553879  0.9037426218
O  -1.5314658264  1.3724640804  1.2573820109
C  -0.7104452894 -0.0431560092 -0.5040849500
C   0.5976823690  0.6688724857 -0.8501134497
C   1.7214577717  0.4563603038  0.1684768562
O   2.6926248610  1.2747375078  0.1045806625
C   1.5743807570 -0.5632576873  1.0757588374
O   5.0778170521  2.0983826459 -0.6945543589
H  -1.1544209129 -0.5456212929  1.6292442466
H  -0.5840678192 -1.1227185120 -0.5799163944
H  -1.5131152832  0.2742220117 -1.1722520799
H   0.4206822480  1.7426816466 -0.9237214565
H   0.9597502521  0.3348133573 -1.8277024112
H   0.8140156027 -1.3227499677  1.0042808665
H   4.2307502476  1.7200981378 -0.3580269143
H   2.3153023695 -0.6846704118  1.8553488509
H   4.7918454344  2.9250860120 -1.0884439539
17
Image 40  Energy = -421.92207645
C  -1.0939557085  0.2588810654  0.9201724678
O  -1.3856350510  1.3576724028  1.3222293542
C  -0.7018849625 -0.0395551217 -0.5107696617
C   0.6015207098  0.6666024074 -0.8772447902
C   1.7033503277  0.4769613395  0.1675513233
O   2.6710744735  1.2979873984  0.1275342658
C   1.5321233048 -0.5324231223  1.0861691786
O   5.0621755564  2.0842446297 -0.6963760511
H  -1.1743293765 -0.6026491949  1.6027638528
H  -0.5927953652 -1.1181571725 -0.6121797669
H  -1.5271894989  0.2988522352 -1.1391350502
H   0.4259121491  1.7382101221 -0.9786754221
H   0.9750738768  0.3068043152 -1.8418498594
H   0.8188906989 -1.3318339416  0.9698910183
H   4.2133472149  1.7175905066 -0.3501459909
H   2.2400685912 -0.6219080149  1.9010200685
H   4.7822527329  2.9127196759 -1.0909558399
17
Image 41  Energy = -421.92008880
C  -1.0125896623  0.2301575492  0.9464499781
O  -1.2785866669  1.3340225193  1.3668670744
C  -0.6831539075 -0.0417234783 -0.5132187978
C   0.6064380375  0.6692599733 -0.9062235238
C   1.6816436793  0.4940522005  0.1610411713
O   2.6678609290  1.2846094431  0.1397353311
C   1.4368602452 -0.4772045462  1.1139509331
O   5.0572085072  2.0793375262 -0.7013461314
H  -1.1788996978 -0.6481736711  1.5918060206
H  -0.5828352172 -1.1183541694 -0.6393664711
H  -1.5370352154  0.3107051583 -1.0945243094
H   0.4262646005  1.7386964840 -1.0207573546
H   0.9917223930  0.2967603628 -1.8608638806
H   0.8226614742 -1.3418692845  0.9263265459
H   4.2096139176  1.7122747181 -0.3517078753
H   2.1439153064 -0.5629839040  1.9334021992
H   4.7789107934  2.9104329526 -1.0915720012
17
Image 42  Energy = -421.91874418
C  -0.9296529405  0.2071253118  0.9763699935
O  -1.2108161052  1.3158252190  1.3977641360
C  -0.6644561350 -0.0434073949 -0.5097064365
C   0.6128044681  0.6703314238 -0.9310095510
C   1.6661836363  0.4997553769  0.1473787416
O   2.6643157585  1.2628333545  0.1562852688
C   1.3462401960 -0.4411614400  1.1238976082
O   5.0593524906  2.0801379752 -0.7090472385
H  -1.1800935590 -0.6756303979  1.5899054201
H  -0.5714852778 -1.1182110080 -0.6590177419
H  -1.5391666481  0.3207475280 -1.0532761026
H   0.4265764446  1.7381462375 -1.0466322288
H   0.9990966318  0.2930988867 -1.8811929039
H   0.8435764318 -1.3604711740  0.8847506646
H   4.2176835939  1.7081589385 -0.3539131108
H   2.0343234062 -0.4998138137  1.9598385869
H   4.7755174139  2.9125347273 -1.0923962172
17
Image 43  Energy = -421.91859515
C  -0.8294074274  0.1927551322  1.0000021927
O  -1.1153981844  1.3141462415  1.4137604535
C  -0.6523320393 -0.0486069393 -0.5094379491
C   0.6112141554  0.6724964594 -0.9575600535
C   1.6424867755  0.5353548950  0.1407350240
O   2.6111670491  1.3226860623  0.2055872846
C   1.3018510096 -0.4214683637  1.1083408932
O   5.0220070245  2.0307375961 -0.6856264600
H  -1.1394039322 -0.6847671421  1.5948435848
H  -0.5711641589 -1.1208361785 -0.6830650370
H  -1.5440913783  0.3341462429 -1.0091572225
H   0.4120020616  1.7343559423 -1.0960703095
H   1.0102524277  0.2769133499 -1.8942424272
H   0.8812866755 -1.3712418747  0.8264684865
H   4.1732778402  1.6965984970 -0.3114177456
H   1.9822667834 -0.4520022748  1.9466915884
H   4.7539854635  2.8587321150 -1.0898537928
17
Image 44  Energy = -421.91768513
C  -0.7161137254  0.1781043628  1.0168559211
O  -0.9746763826  1.3354836426  1.4135358023
C  -0.6410479215 -0.0621253278 -0.5100668158
C   0.6093159895  0.6687944485 -0.9763094868
C   1.6194198686  0.5538108454  0.1395238992
O   2.5834032905  1.3278224956  0.2295475546
C   1.2359984158 -0.3954671548  1.1161657983
O   4.9714041453  2.0003357296 -0.6662702284
H  -1.1217033918 -0.6886179938  1.5795097443
H  -0.5722578606 -1.1309262184 -0.7112313942
H  -1.5433638600  0.3359712944 -0.9768071722
H   0.4022116770  1.7288584087 -1.1149521975
H   1.0253371018  0.2749613768 -1.9061145492
H   0.9164259125 -1.3733765356  0.7851235991
H   4.1091786529  1.6888981961 -0.2997624902
H   1.9166845783 -0.4081214651  1.9541747293
H   4.7297835807  2.8355938428 -1.0729241980
17
Image 45  Energy = -421.92213102
C  -0.6002272335  0.1483012497  1.0431630369
O  -0.8915956301  1.3316762403  1.4325360207
C  -0.6343427097 -0.0678779332 -0.5096111862
C   0.6074705961  0.6690681592 -0.9977229818
C   1.6061726792  0.5678373308  0.1307121664
O   2.5971535869  1.2902385942  0.2238806418
C   1.1388872730 -0.3531671797  1.1311644144
O   4.9489157007  1.9924944104 -0.6572650772
H  -1.1020797143 -0.7105790166  1.5575608250
H  -0.5817158420 -1.1344528311 -0.7402587295
H  -1.5474132353  0.3470808747 -0.9368851553
H   0.4012651136  1.7295417021 -1.1349592954
H   1.0327321814  0.2736099639 -1.9216307270
H   0.9764947916 -1.3635541571  0.7529445711
H   4.0786190104  1.6820698500 -0.2978064470
H   1.8010535068 -0.3606608942  1.9929739677
H   4.7186096495  2.8283735380 -1.0687973467
17
Image 46  Energy = -421.92698161
C  -0.5319126325  0.1077282392  1.0475141501
O  -0.8045166221  1.3093032395  1.4621384437
C  -0.6337669202 -0.0642177148 -0.5120197109
C   0.6065382298  0.6746912627 -1.0123290602
C   1.5986136090  0.5725045347  0.1214319857
O   2.6168444070  1.2422942383  0.2200295147
C   1.0763862194 -0.3410606369  1.1322957780
O   4.9429729575  1.9954557511 -0.6615699039
H  -1.0775362684 -0.7404868294  1.5360299299
H  -0.5991832654 -1.1246827188 -0.7797557591
H  -1.5559701240  0.3736864612 -0.8921092248
H   0.4008473783  1.7335675453 -1.1572502583
H   1.0353465147  0.2723223094 -1.9326231631
H   1.0570826597 -1.3663008723  0.7491007593
H   4.0739024924  1.6742104979 -0.3084858676
H   1.6370473330 -0.2792171975  2.0600452141
H   4.7073033344  2.8302015885 -1.0724444062
17
Image 47  Energy = -421.92913825
C  -0.5049044502  0.0578050122  1.0351446356
O  -0.7477992991  1.2693908749  1.4816782772
C  -0.6401017871 -0.0548050492 -0.5224096328
C   0.6041707768  0.6834329058 -1.0125001189
C   1.5974396927  0.5620990130  0.1200053046
O   2.6487875981  1.1752484465  0.1974502994
C   1.0437595288 -0.3398310705  1.1463397732
O   4.9508317726  2.0170571170 -0.6725527541
H  -1.0818511193 -0.7798377438  1.5014125276
H  -0.6392309154 -1.0996450314 -0.8495411268
H  -1.5617567959  0.4219246479 -0.8531288632
H   0.4054432806  1.7433448723 -1.1562920154
H   1.0343814688  0.2844884219 -1.9337275963
H   1.1666802236 -1.3814094280  0.8173771921
H   4.0960899590  1.6588516468 -0.3235536302
H   1.5005333340 -0.1833529322  2.1177357147
H   4.6775265987  2.8352384453 -1.0934392350
17
Image 48  Energy = -421.92929706
C  -0.5100654570  0.0395977763  1.0241616549
O  -0.7643700282  1.2480647347  1.4842847512
C  -0.6386483048 -0.0481170417 -0.5342266133
C   0.6074099534  0.6947011268 -1.0054439464
C   1.6158238392  0.5080254629  0.1027619678
O   2.7244770803  1.0116009123  0.1306808807
C   1.0209817353 -0.3322873702  1.1659804662
O   4.9658360913  2.0806390939 -0.6658511884
H  -1.0953940251 -0.8040196317  1.4691144828
H  -0.6449129483 -1.0848910650 -0.8877094230
H  -1.5574443784  0.4423790574 -0.8529214714
H   0.4140236465  1.7636033085 -1.0846046704
H   1.0185654650  0.3490056856 -1.9555145816
H   1.1940466664 -1.3916012049  0.9287505713
H   4.1438176092  1.6375288158 -0.3427131311
H   1.4353809781 -0.0955680559  2.1442508039
H   4.6204721804  2.8513387256 -1.1210019313
17
Image 49  Energy = -421.92969451
C  -0.5171691601  0.0420750934  1.0195219574
O  -0.8138706020  1.2400799446  1.4845804850
C  -0.6320576874 -0.0421891633 -0.5404426988
C   0.6096838758  0.7097437564 -1.0015494793
C   1.6388173508  0.4511805414  0.0715698472
O   2.7989931196  0.8208549951  0.0313228661
C   1.0125720473 -0.3089387966  1.1801478449
O   4.9585114965  2.1361011798 -0.6249571752
H  -1.0892886405 -0.8180557492  1.4521759477
H  -0.6218999063 -1.0790889323 -0.8945177309
H  -1.5539826644  0.4379367630 -0.8658682279
H   0.4193301447  1.7838702385 -1.0049313116
H   0.9939933729  0.4252063770 -1.9819928451
H   1.1939508967 -1.3809273075  1.0123011555
H   4.1650954368  1.6141744426 -0.3542929867
H   1.4144383926 -0.0175174866  2.1455917880
H   4.5728827112  2.8554940300 -1.1286606953
17
Image 50  Energy = -421.92996233
C  -0.5198219721  0.0419158046  1.0121020565
O  -0.8598058719  1.2270562019  1.4809556218
C  -0.6233583015 -0.0385853199 -0.5484188445
C   0.6067199618  0.7359144805 -0.9989034169
C   1.6564202372  0.4095549227  0.0342780852
O   2.8470310727  0.6462613351 -0.0767700079
C   1.0139960837 -0.2744562197  1.1861641474
O   4.9369505283  2.1474709973 -0.5775294844
H  -1.0717437440 -0.8372210834  1.4353930266
H  -0.5855513467 -1.0746605448 -0.9036890330
H  -1.5534669685  0.4213400913 -0.8791011069
H   0.4123169967  1.8082269241 -0.9226407679
H   0.9658430240  0.5161673158 -2.0042199015
H   1.2191209788 -1.3512341825  1.0980410846
H   4.1670863630  1.5671229660 -0.3676945170
H   1.3993153551  0.0825099642  2.1371604478
H   4.5389472386  2.8426165553 -1.1051286191
17
Image 51  Energy = -421.93079855
C  -0.5508310222  0.0630577248  1.0194255480
O  -0.9169849165  1.2592542572  1.4273613803
C  -0.6380238682 -0.0756821772 -0.5387888115
C   0.5598250872  0.7460946502 -0.9853344162
C   1.6367955482  0.4271964044  0.0159926467
O   2.8284795615  0.6772796547 -0.1126428115
C   0.9979101819 -0.2651535549  1.1885455438
O   5.0597353268  2.1614820091 -0.5930353462
H  -1.1221792307 -0.7858633158  1.4674432610
H  -0.5277787627 -1.1204748854 -0.8478001392
H  -1.5824788146  0.3083694322 -0.9285597942
H   0.3217094586  1.8050794782 -0.8557446751
H   0.9054923298  0.5842498851 -2.0065462514
H   1.1785362673 -1.3404142159  1.0595544641
H   4.3361263712  1.5475150213 -0.3591621784
H   1.4885876962  0.0319091912  2.1079799357
H   4.5750782025  2.8461004114 -1.0586892561
