17
Image 0  Energy = -421.88853652
C  -1.9923082395  0.5029989900  0.0410851958
O  -2.0740433846  1.7084237617  0.0960901965
C  -0.7406305453 -0.2927795497 -0.0509205623
C   0.5466944313  0.5018534109 -0.0489134867
C   1.7935525983 -0.3668425848 -0.0056368049
O   1.6957383001 -1.5908563144 -0.1359232742
C   3.0450355018  0.3127149441  0.2098834996
O   4.3940987450  2.5615497299 -0.4131527266
H  -2.9210492603 -0.0981567747  0.0626509977
H  -0.7574547227 -1.0000389920  0.7843256335
H  -0.8250854829 -0.9135673360 -0.9483122759
H   0.5675279347  1.1861086782  0.7978212495
H   0.6162733071  1.1158071253 -0.9474256046
H   3.0392516216  0.9840494249  1.0670834440
H   3.4020798871  1.2337309733 -0.6308470852
H   3.9151003699 -0.3260984037  0.2302395836
H   4.8452188102  3.3511049461 -0.1080464668
17
Image 1  Energy = -421.91251760
C  -1.9868172609  0.5100070506  0.0301670955
O  -2.0700287611  1.7102552931  0.0825136198
C  -0.7215994305 -0.2820867385 -0.0549493941
C   0.5569748934  0.5283339621 -0.0513529608
C   1.8007072331 -0.3569467527 -0.0087736791
O   1.6721340940 -1.5716434008 -0.1742994520
C   3.0882978229  0.3243949812  0.2181805143
O   4.2980232403  2.6783907335 -0.5830830766
H  -2.9146776405 -0.1010789313  0.0481159773
H  -0.7332500418 -0.9829778373  0.7833300860
H  -0.7840716774 -0.9143304874 -0.9421059223
H   0.5765615692  1.2020974411  0.8053055522
H   0.6166707331  1.1670435469 -0.9363038872
H   3.0462047936  0.8757071597  1.1600557456
H   3.3786366308  1.1358192247 -0.5113908091
H   3.9113856888 -0.3836646572  0.2439163095
H   4.8148478588  3.3306813137 -0.1093243487
17
Image 2  Energy = -421.89046654
C  -1.9858402595  0.5049825393  0.0298191814
O  -2.0713109601  1.7038631930  0.0802788948
C  -0.7201654328 -0.2891072527 -0.0522314348
C   0.5537367501  0.5369956632 -0.0518186190
C   1.8079775354 -0.3397924727 -0.0237677760
O   1.6575686879 -1.5477268915 -0.1667805479
C   3.1064747621  0.3273117199  0.2136046684
O   4.2609933778  2.6759706541 -0.6848866243
H  -2.9181805274 -0.1012370585  0.0460153961
H  -0.7337820699 -0.9946457340  0.7846193432
H  -0.7807140724 -0.9222074630 -0.9410802389
H   0.5685806817  1.2031427477  0.8106568684
H   0.6013294556  1.1778865653 -0.9344409062
H   3.0319849811  0.8399529670  1.1745377219
H   3.4946577352  1.2796418378 -0.4622361700
H   3.8999013253 -0.4138257735  0.2629504435
H   4.7767878793  3.2287963191 -0.0852393741
17
Image 3  Energy = -421.89821070
C  -1.9844314382  0.5003211259  0.0312539472
O  -2.0741600209  1.7039369529  0.0838769766
C  -0.7192144086 -0.2879475933 -0.0512949039
C   0.5569967523  0.5375545921 -0.0460892148
C   1.8176917390 -0.3315939541 -0.0248007703
O   1.6667573167 -1.5459596118 -0.1781502601
C   3.1063158831  0.3355909032  0.2137280216
O   4.2131959548  2.6146732864 -0.7348620502
H  -2.9174764692 -0.1040247662  0.0470893613
H  -0.7294290561 -0.9991619006  0.7819939432
H  -0.7775760808 -0.9197865432 -0.9428039177
H   0.5573994905  1.2074054724  0.8127571317
H   0.5945214871  1.1740537361 -0.9307824318
H   3.0249516320  0.8816846724  1.1476037806
H   3.6057840168  1.4276778288 -0.4020500456
H   3.8899296608 -0.4187629045  0.2583261349
H   4.7187433222  3.0943401881 -0.0657946119
17
Image 4  Energy = -421.90688902
C  -1.9828657377  0.4997382727  0.0356102893
O  -2.0837513451  1.7028715701  0.0946211602
C  -0.7160993293 -0.2801771866 -0.0544684608
C   0.5624274231  0.5392237598 -0.0412988200
C   1.8207318430 -0.3442927519 -0.0150270698
O   1.6653583258 -1.5599931512 -0.2159549391
C   3.0938329859  0.3227329533  0.2469738928
O   4.1665363275  2.5428757846 -0.7508956326
H  -2.9139106050 -0.1096799262  0.0526328990
H  -0.7198582311 -1.0003437140  0.7725142616
H  -0.7752082550 -0.9085783095 -0.9502299074
H   0.5522525055  1.2140399478  0.8124648507
H   0.6014092272  1.1696146980 -0.9313386321
H   3.0105268942  0.9344607912  1.1399803567
H   3.7031581525  1.5638008932 -0.3942240247
H   3.8919993587 -0.4229983680  0.2692490481
H   4.6734595145  3.0067063121 -0.0706075863
17
Image 5  Energy = -421.91615753
C  -1.9843300123  0.4999549344  0.0399244778
O  -2.0964689313  1.7020286749  0.1049890486
C  -0.7168635598 -0.2728525564 -0.0600792954
C   0.5661927611  0.5342145045 -0.0357497215
C   1.8050021323 -0.3830132836  0.0105729024
O   1.6253045353 -1.5873249164 -0.2738226452
C   3.0372959948  0.2363315353  0.3285511576
O   4.1805916305  2.5471730853 -0.7947752300
H  -2.9097225589 -0.1172833519  0.0615350568
H  -0.7070358126 -0.9988001493  0.7601890866
H  -0.7688211194 -0.8964570468 -0.9580653499
H   0.5597630187  1.2206094297  0.8081598842
H   0.6247003921  1.1538673863 -0.9316751228
H   3.0115943930  0.9796996850  1.1208542718
H   3.7922053977  1.7102878483 -0.4077955861
H   3.8813140594 -0.4514860477  0.3108351875
H   4.6492748119  2.9930534935 -0.0836470152
17
Image 6  Energy = -421.91826558
C  -1.9923701069  0.4921336788  0.0428887332
O  -2.1118397500  1.6937220830  0.1069129817
C  -0.7233074806 -0.2755110103 -0.0482028400
C   0.5577765726  0.5300298269 -0.0254074078
C   1.7923725344 -0.3969151135  0.0117783457
O   1.6028928754 -1.5749921536 -0.3747244531
C   2.9927192991  0.1934625839  0.4324863671
O   4.3011763486  2.5417077622 -0.8311036870
H  -2.9141372538 -0.1302322306  0.0568601481
H  -0.7081470911 -1.0015028565  0.7726773440
H  -0.7599773456 -0.9014520684 -0.9443763794
H   0.5663063332  1.2152627048  0.8188721037
H   0.6134132043  1.1467309557 -0.9222652637
H   2.9872874124  1.0718027439  1.0722901134
H   3.8403640667  1.7267959866 -0.5225373262
H   3.8891802980 -0.4179076225  0.3785187414
H   4.6162870212  2.9568700157 -0.0246693397
17
Image 7  Energy = -421.92442644
C  -1.9898211261  0.4830638931  0.0788085559
O  -2.1266228787  1.6785060101  0.1859754613
C  -0.7189399355 -0.2678967520 -0.0673759393
C   0.5626283907  0.5357662077 -0.0486811607
C   1.7908619931 -0.3941949026  0.0086926317
O   1.6153491136 -1.5482940266 -0.4433552018
C   2.9596193272  0.1756739552  0.5306491895
O   4.3387521315  2.5168479987 -0.8568229541
H  -2.9060694041 -0.1502248174  0.0906152091
H  -0.6797392182 -1.0277273702  0.7222390120
H  -0.7724523634 -0.8600042100 -0.9855986266
H   0.5777393223  1.2270722004  0.7895582996
H   0.6327452408  1.1322331685 -0.9572680077
H   2.9250675084  1.1317914445  1.0371480764
H   3.8813329722  1.6963532603 -0.5809474230
H   3.8729026148 -0.4075506501  0.5337278445
H   4.5866451901  2.9485820288 -0.0373650181
17
Image 8  Energy = -421.92472627
C  -1.9826931157  0.4734233073  0.1065493005
O  -2.1289195421  1.6639311363  0.2533117868
C  -0.7072431281 -0.2592312836 -0.0958488111
C   0.5697721837  0.5533705414 -0.0798273848
C   1.7978772969 -0.3763108654  0.0000170143
O   1.6367077339 -1.5277044481 -0.4564738539
C   2.9527847101  0.1955805653  0.5512728146
O   4.3261491275  2.4572372418 -0.8785544275
H  -2.8903177874 -0.1709871571  0.1268749011
H  -0.6467877734 -1.0393398494  0.6701777227
H  -0.7800425274 -0.8248275596 -1.0278879504
H   0.5735548037  1.2561307030  0.7494347969
H   0.6445124581  1.1392040340 -0.9950631104
H   2.8862223437  1.1307643561  1.0943419040
H   3.8802976976  1.6531102115 -0.5384432174
H   3.8533279791 -0.4068385861  0.6132488948
H   4.5647966218  2.9524795181 -0.0931301914
17
Image 9  Energy = -421.92472316
C  -1.9936722545  0.4680394058  0.1069094420
O  -2.1367988529  1.6602203279  0.2437663143
C  -0.7193183454 -0.2682026085 -0.0876272889
C   0.5535068595  0.5514028411 -0.0833476383
C   1.7933962446 -0.3638753073 -0.0130446440
O   1.6421719492 -1.5181906359 -0.4699280531
C   2.9454977712  0.2183228879  0.5303840257
O   4.4544788136  2.3998620064 -0.8415434101
H  -2.9024737835 -0.1742467165  0.1315937284
H  -0.6596673448 -1.0378160408  0.6901712839
H  -0.7917992827 -0.8459868299 -1.0126870782
H   0.5552774184  1.2563972573  0.7442815363
H   0.6148190304  1.1386499638 -0.9988578831
H   2.8709493220  1.1585846648  1.0634303199
H   3.9656759200  1.6156928453 -0.5105931678
H   3.8498969688 -0.3767006684  0.5933601671
H   4.5080613731  2.9878441228 -0.0862686699
17
Image 10  Energy = -421.92467324
C  -2.0072863891  0.4578263899  0.1197215020
O  -2.1502209128  1.6488354401  0.2663591533
C  -0.7309673936 -0.2746657274 -0.0900288574
C   0.5407033584  0.5508914330 -0.0992930061
C   1.7886355058 -0.3550476492 -0.0217722417
O   1.6428932787 -1.5213537644 -0.4463806070
C   2.9441989411  0.2495388941  0.4933800072
O   4.5885182396  2.3522906963 -0.7829987752
H  -2.9183619929 -0.1818260967  0.1485682171
H  -0.6582883372 -1.0426740814  0.6883075206
H  -0.8117021709 -0.8567077611 -1.0117944528
H   0.5373176926  1.2663767595  0.7196751443
H   0.6047524138  1.1284306142 -1.0209772167
H   2.8532069002  1.1851046873  1.0340738128
H   4.0427389261  1.5909252755 -0.4857684170
H   3.8375889173 -0.3542841890  0.6050927250
H   4.4462731742  3.0263391364 -0.1161643667
17
Image 11  Energy = -421.92436025
C  -2.0049994226  0.4411203811  0.1599891742
O  -2.1486672025  1.6252641160  0.3506215521
C  -0.7332942122 -0.2762054200 -0.1169052741
C   0.5335896358  0.5582854347 -0.1410703202
C   1.7855696990 -0.3380856131 -0.0265481157
O   1.6557072661 -1.5073470975 -0.4545643980
C   2.9208014084  0.2704967954  0.5224997832
O   4.6706158422  2.2989384768 -0.7292509212
H  -2.9104770850 -0.2055188167  0.1980909689
H  -0.6260814207 -1.0653781561  0.6354423911
H  -0.8498976728 -0.8331542584 -1.0507590614
H   0.5182126398  1.2941718771  0.6592086518
H   0.6045844877  1.1101296367 -1.0780680034
H   2.8177054131  1.2279925146  1.0220301768
H   4.0936526029  1.5576784811 -0.4410936375
H   3.8154794507 -0.3234310736  0.6646684689
H   4.4074968993  3.0350428886 -0.1742911889
17
Image 12  Energy = -421.93902429
C  -1.9861659072  0.4340323264  0.1929015862
O  -2.1246026693  1.6185463402  0.4160936408
C  -0.7356709393 -0.2768451603 -0.1443601836
C   0.5359624468  0.5504321295 -0.1741341333
C   1.7959698715 -0.3265878460 -0.0274002107
O   1.6866284299 -1.5156728117 -0.4120840353
C   2.9232498411  0.3193330781  0.4913945026
O   4.6665085899  2.2397954971 -0.6908383650
H  -2.8873086911 -0.2097087612  0.2447884339
H  -0.6195285268 -1.0939656551  0.5738952667
H  -0.9023603165 -0.7883893883 -1.0963741927
H   0.5096760448  1.3069483511  0.6046715807
H   0.6185376437  1.0716806977 -1.1258164689
H   2.7720262551  1.2217447037  1.0701779842
H   4.0438968581  1.5511554097 -0.3809196846
H   3.8106677483 -0.2768710906  0.6761366478
H   4.4425110500  3.0443718093 -0.2181324448
