22
Frame 1: 1
C    -0.8675    -1.1212     0.1451
C     1.2063     0.0888     0.0375
C    -0.8012     1.8039     0.7777
C     1.9270    -0.5238     1.2299
C     2.1735     0.5194    -1.0520
N     0.2436    -0.9006    -0.5570
N    -2.0080    -1.5937    -0.4191
O    -1.6073     1.4743    -0.2757
H    -1.9698     0.5875    -0.1411
H     0.0290    -0.6370    -1.5287
H    -0.8978    -0.8021     1.1842
H     0.5985     0.9809     0.3930
H    -2.6675    -1.9721     0.2647
H    -1.8829    -2.2545    -1.1927
H    -0.4288     2.8210     0.7145
H    -1.0181     1.4392     1.7832
H     2.6046     0.2089     1.6809
H     1.6503     1.0084    -1.8818
H     2.5096    -1.3982     0.9217
H     1.2101    -0.8363     1.9937
H     2.9111     1.2261    -0.6587
H     2.7050    -0.3554    -1.4408
22
Frame 2: 2
C    -0.8717    -1.1180     0.1442
C     1.2068     0.0840     0.0369
C    -0.7936     1.8060     0.7804
C     1.9258    -0.5329     1.2281
C     2.1750     0.5122    -1.0526
N     0.2399    -0.9009    -0.5583
N    -2.0144    -1.5854    -0.4200
O    -1.6016     1.4809    -0.2730
H    -1.9675     0.5953    -0.1393
H     0.0258    -0.6353    -1.5295
H    -0.9002    -0.8001     1.1837
H     0.6026     0.9780     0.3939
H    -2.6750    -1.9620     0.2637
H    -1.8923    -2.2457    -1.1945
H    -0.4173     2.8217     0.7183
H    -1.0115     1.4408     1.7855
H     2.6064     0.1966     1.6797
H     1.6532     1.0042    -1.8815
H     2.5048    -1.4092     0.9185
H     1.2081    -0.8437     1.9919
H     2.9156     1.2155    -0.6588
H     2.7029    -0.3642    -1.4428
22
Frame 3: 3
C    -0.8759    -1.1149     0.1433
C     1.2072     0.0791     0.0364
C    -0.7861     1.8080     0.7831
C     1.9245    -0.5421     1.2264
C     2.1765     0.5050    -1.0532
N     0.2361    -0.9013    -0.5595
N    -2.0208    -1.5770    -0.4209
O    -1.5959     1.4874    -0.2703
H    -1.9652     0.6032    -0.1376
H     0.0226    -0.6336    -1.5303
H    -0.9026    -0.7981     1.1832
H     0.6068     0.9751     0.3948
H    -2.6825    -1.9519     0.2627
H    -1.9017    -2.2369    -1.1962
H    -0.4058     2.8224     0.7221
H    -1.0048     1.4425     1.7879
H     2.6083     0.1843     1.6785
H     1.6561     1.0001    -1.8811
H     2.5001    -1.4202     0.9153
H     1.2061    -0.8510     1.9902
H     2.9200     1.2049    -0.6590
H     2.7008    -0.3730    -1.4448
22
Frame 4: 4
C    -0.8802    -1.1117     0.1423
C     1.2077     0.0743     0.0358
C    -0.7785     1.8101     0.7857
C     1.9233    -0.5512     1.2246
C     2.1780     0.4977    -1.0538
N     0.2324    -0.9016    -0.5608
N    -2.0271    -1.5687    -0.4217
O    -1.5901     1.4940    -0.2677
H    -1.9629     0.6110    -0.1358
H     0.0193    -0.6319    -1.5311
H    -0.9050    -0.7961     1.1827
H     0.6109     0.9721     0.3957
H    -2.6900    -1.9418     0.2617
H    -1.9111    -2.2281    -1.1980
H    -0.3942     2.8231     0.7258
H    -0.9982     1.4441     1.7902
H     2.6101     0.1719     1.6773
H     1.6591     0.9959    -1.8808
H     2.4953    -1.4311     0.9121
H     1.2041    -0.8584     1.9884
H     2.9245     1.1944    -0.6591
H     2.6987    -0.3818    -1.4468
22
Frame 5: 5
C    -0.8844    -1.1086     0.1414
C     1.2081     0.0695     0.0352
C    -0.7710     1.8122     0.7884
C     1.9221    -0.5603     1.2229
C     2.1795     0.4905    -1.0543
N     0.2287    -0.9020    -0.5620
N    -2.0335    -1.5604    -0.4226
O    -1.5844     1.5006    -0.2650
H    -1.9606     0.6188    -0.1341
H     0.0161    -0.6302    -1.5320
H    -0.9074    -0.7941     1.1821
H     0.6150     0.9692     0.3966
H    -2.6975    -1.9318     0.2607
H    -1.9205    -2.2193    -1.1997
H    -0.3827     2.8238     0.7296
H    -0.9915     1.4458     1.7925
H     2.6120     0.1596     1.6761
H     1.6620     0.9918    -1.8805
H     2.4906    -1.4421     0.9089
H     1.2021    -0.8657     1.9867
H     2.9290     1.1838    -0.6592
H     2.6965    -0.3906    -1.4487
22
Frame 6: 6
C    -0.8886    -1.1054     0.1405
C     1.2086     0.0646     0.0347
C    -0.7634     1.8143     0.7911
C     1.9209    -0.5695     1.2211
C     2.1810     0.4833    -1.0549
N     0.2249    -0.9023    -0.5633
N    -2.0399    -1.5520    -0.4235
O    -1.5787     1.5072    -0.2623
H    -1.9583     0.6266    -0.1323
H     0.0129    -0.6286    -1.5328
H    -0.9098    -0.7920     1.1816
H     0.6192     0.9663     0.3975
H    -2.7050    -1.9217     0.2598
H    -1.9299    -2.2106    -1.2015
H    -0.3712     2.8244     0.7334
H    -0.9849     1.4474     1.7949
H     2.6138     0.1473     1.6749
H     1.6649     0.9876    -1.8802
H     2.4858    -1.4531     0.9057
H     1.2001    -0.8731     1.9849
H     2.9335     1.1732    -0.6593
H     2.6944    -0.3994    -1.4507
22
Frame 7: 7
C    -0.8928    -1.1022     0.1396
C     1.2091     0.0598     0.0341
C    -0.7558     1.8163     0.7938
C     1.9196    -0.5786     1.2194
C     2.1825     0.4761    -1.0555
N     0.2212    -0.9026    -0.5645
N    -2.0463    -1.5437    -0.4244
O    -1.5730     1.5137    -0.2596
H    -1.9560     0.6345    -0.1306
H     0.0097    -0.6269    -1.5336
H    -0.9122    -0.7900     1.1811
H     0.6233     0.9634     0.3985
H    -2.7125    -1.9116     0.2588
H    -1.9393    -2.2018    -1.2032
H    -0.3597     2.8251     0.7372
H    -0.9782     1.4491     1.7972
H     2.6157     0.1350     1.6737
H     1.6678     0.9835    -1.8798
H     2.4811    -1.4641     0.9025
H     1.1981    -0.8805     1.9832
H     2.9379     1.1626    -0.6595
H     2.6923    -0.4082    -1.4527
22
Frame 8: 8
C    -0.8970    -1.0991     0.1387
C     1.2095     0.0550     0.0335
C    -0.7483     1.8184     0.7965
C     1.9184    -0.5878     1.2176
C     2.1840     0.4688    -1.0561
N     0.2175    -0.9030    -0.5658
N    -2.0527    -1.5354    -0.4253
O    -1.5672     1.5203    -0.2569
H    -1.9537     0.6423    -0.1288
H     0.0064    -0.6252    -1.5344
H    -0.9146    -0.7880     1.1806
H     0.6275     0.9605     0.3994
H    -2.7200    -1.9015     0.2578
H    -1.9487    -2.1930    -1.2050
H    -0.3482     2.8258     0.7410
H    -0.9716     1.4507     1.7995
H     2.6175     0.1227     1.6725
H     1.6707     0.9793    -1.8795
H     2.4763    -1.4751     0.8993
H     1.1961    -0.8878     1.9814
H     2.9424     1.1521    -0.6596
H     2.6902    -0.4170    -1.4547
22
Frame 9: 9
C    -0.9012    -1.0959     0.1377
C     1.2100     0.0501     0.0330
C    -0.7407     1.8205     0.7992
C     1.9172    -0.5969     1.2159
C     2.1855     0.4616    -1.0567
N     0.2137    -0.9033    -0.5670
N    -2.0590    -1.5270    -0.4262
O    -1.5615     1.5269    -0.2542
H    -1.9514     0.6501    -0.1271
H     0.0032    -0.6235    -1.5352
H    -0.9170    -0.7860     1.1801
H     0.6316     0.9575     0.4003
H    -2.7275    -1.8914     0.2568
H    -1.9581    -2.1842    -1.2068
H    -0.3367     2.8265     0.7447
H    -0.9649     1.4524     1.8019
H     2.6193     0.1103     1.6713
H     1.6737     0.9752    -1.8792
H     2.4715    -1.4861     0.8961
H     1.1941    -0.8952     1.9797
H     2.9469     1.1415    -0.6597
H     2.6881    -0.4258    -1.4567
22
Frame 10: 10
C    -0.9055    -1.0928     0.1368
C     1.2105     0.0453     0.0324
C    -0.7332     1.8225     0.8018
C     1.9160    -0.6060     1.2141
C     2.1870     0.4544    -1.0573
N     0.2100    -0.9036    -0.5683
N    -2.0654    -1.5187    -0.4270
O    -1.5558     1.5334    -0.2516
H    -1.9491     0.6579    -0.1253
H    -0.0000    -0.6218    -1.5360
H    -0.9194    -0.7840     1.1796
H     0.6357     0.9546     0.4012
H    -2.7350    -1.8813     0.2558
H    -1.9675    -2.1754    -1.2085
H    -0.3251     2.8272     0.7485
H    -0.9583     1.4540     1.8042
H     2.6212     0.0980     1.6701
H     1.6766     0.9710    -1.8788
H     2.4668    -1.4970     0.8929
H     1.1921    -0.9026     1.9779
H     2.9513     1.1309    -0.6598
H     2.6860    -0.4346    -1.4587
22
Frame 11: 11
C    -0.9097    -1.0896     0.1359
C     1.2109     0.0405     0.0318
C    -0.7256     1.8246     0.8045
C     1.9147    -0.6152     1.2123
C     2.1885     0.4472    -1.0579
N     0.2063    -0.9040    -0.5695
N    -2.0718    -1.5104    -0.4279
O    -1.5501     1.5400    -0.2489
H    -1.9467     0.6658    -0.1236
H    -0.0032    -0.6201    -1.5368
H    -0.9218    -0.7820     1.1791
H     0.6399     0.9517     0.4021
H    -2.7425    -1.8712     0.2548
H    -1.9769    -2.1666    -1.2103
H    -0.3136     2.8279     0.7523
H    -0.9516     1.4557     1.8065
H     2.6230     0.0857     1.6690
H     1.6795     0.9668    -1.8785
H     2.4620    -1.5080     0.8897
H     1.1901    -0.9099     1.9761
H     2.9558     1.1203    -0.6600
H     2.6839    -0.4434    -1.4607
22
Frame 12: 12
C    -0.9139    -1.0864     0.1350
C     1.2114     0.0356     0.0313
C    -0.7180     1.8267     0.8072
C     1.9135    -0.6243     1.2106
C     2.1900     0.4399    -1.0584
N     0.2025    -0.9043    -0.5708
N    -2.0782    -1.5020    -0.4288
O    -1.5443     1.5466    -0.2462
H    -1.9444     0.6736    -0.1218
H    -0.0065    -0.6184    -1.5377
H    -0.9242    -0.7800     1.1785
H     0.6440     0.9488     0.4030
H    -2.7500    -1.8611     0.2538
H    -1.9862    -2.1578    -1.2120
H    -0.3021     2.8286     0.7561
H    -0.9450     1.4573     1.8089
H     2.6249     0.0734     1.6678
H     1.6824     0.9627    -1.8782
H     2.4573    -1.5190     0.8865
H     1.1881    -0.9173     1.9744
H     2.9603     1.1098    -0.6601
H     2.6817    -0.4522    -1.4626
22
Frame 13: 13
C    -0.9181    -1.0833     0.1341
C     1.2118     0.0308     0.0307
C    -0.7105     1.8287     0.8099
C     1.9123    -0.6334     1.2088
C     2.1915     0.4327    -1.0590
N     0.1988    -0.9047    -0.5720
N    -2.0846    -1.4937    -0.4297
O    -1.5386     1.5531    -0.2435
H    -1.9421     0.6814    -0.1201
H    -0.0097    -0.6167    -1.5385
H    -0.9266    -0.7780     1.1780
H     0.6481     0.9459     0.4039
H    -2.7575    -1.8511     0.2528
H    -1.9956    -2.1490    -1.2138
H    -0.2906     2.8293     0.7599
H    -0.9383     1.4590     1.8112
H     2.6267     0.0610     1.6666
H     1.6853     0.9585    -1.8779
H     2.4525    -1.5300     0.8833
H     1.1861    -0.9246     1.9726
H     2.9647     1.0992    -0.6602
H     2.6796    -0.4610    -1.4646
22
Frame 14: 14
C    -0.9223    -1.0801     0.1331
C     1.2123     0.0259     0.0302
C    -0.7029     1.8308     0.8126
C     1.9111    -0.6426     1.2071
C     2.1930     0.4255    -1.0596
N     0.1951    -0.9050    -0.5733
N    -2.0910    -1.4854    -0.4306
O    -1.5329     1.5597    -0.2408
H    -1.9398     0.6892    -0.1183
H    -0.0129    -0.6150    -1.5393
H    -0.9290    -0.7760     1.1775
H     0.6523     0.9430     0.4048
H    -2.7650    -1.8410     0.2518
H    -2.0050    -2.1403    -1.2155
H    -0.2791     2.8300     0.7637
H    -0.9317     1.4606     1.8135
H     2.6286     0.0487     1.6654
H     1.6883     0.9544    -1.8775
H     2.4478    -1.5410     0.8801
H     1.1841    -0.9320     1.9709
H     2.9692     1.0886    -0.6604
H     2.6775    -0.4698    -1.4666
22
Frame 15: 15
C    -0.9266    -1.0770     0.1322
C     1.2128     0.0211     0.0296
C    -0.6954     1.8329     0.8153
C     1.9098    -0.6517     1.2053
C     2.1945     0.4183    -1.0602
N     0.1913    -0.9053    -0.5745
N    -2.0973    -1.4770    -0.4314
O    -1.5272     1.5663    -0.2381
H    -1.9375     0.6971    -0.1166
H    -0.0161    -0.6134    -1.5401
H    -0.9314    -0.7739     1.1770
H     0.6564     0.9400     0.4057
H    -2.7725    -1.8309     0.2508
H    -2.0144    -2.1315    -1.2173
H    -0.2675     2.8307     0.7674
H    -0.9250     1.4623     1.8159
H     2.6304     0.0364     1.6642
H     1.6912     0.9502    -1.8772
H     2.4430    -1.5519     0.8769
H     1.1821    -0.9394     1.9691
H     2.9737     1.0780    -0.6605
H     2.6754    -0.4786    -1.4686
22
Frame 16: 16
C    -0.9308    -1.0738     0.1313
C     1.2132     0.0163     0.0290
C    -0.6878     1.8350     0.8179
C     1.9086    -0.6609     1.2036
C     2.1960     0.4111    -1.0608
N     0.1876    -0.9057    -0.5758
N    -2.1037    -1.4687    -0.4323
O    -1.5215     1.5729    -0.2355
H    -1.9352     0.7049    -0.1148
H    -0.0193    -0.6117    -1.5409
H    -0.9338    -0.7719     1.1765
H     0.6605     0.9371     0.4066
H    -2.7800    -1.8208     0.2499
H    -2.0238    -2.1227    -1.2191
H    -0.2560     2.8313     0.7712
H    -0.9184     1.4639     1.8182
H     2.6323     0.0241     1.6630
H     1.6941     0.9461    -1.8769
H     2.4382    -1.5629     0.8737
H     1.1801    -0.9467     1.9674
H     2.9782     1.0675    -0.6606
H     2.6733    -0.4874    -1.4706
22
Frame 17: 17
C    -0.9350    -1.0706     0.1304
C     1.2137     0.0114     0.0285
C    -0.6802     1.8370     0.8206
C     1.9074    -0.6700     1.2018
C     2.1975     0.4038    -1.0614
N     0.1839    -0.9060    -0.5770
N    -2.1101    -1.4604    -0.4332
O    -1.5157     1.5794    -0.2328
H    -1.9329     0.7127    -0.1131
H    -0.0226    -0.6100    -1.5417
H    -0.9362    -0.7699     1.1760
H     0.6647     0.9342     0.4075
H    -2.7875    -1.8107     0.2489
H    -2.0332    -2.1139    -1.2208
H    -0.2445     2.8320     0.7750
H    -0.9117     1.4656     1.8205
H     2.6341     0.0118     1.6618
H     1.6970     0.9419    -1.8766
H     2.4335    -1.5739     0.8705
H     1.1781    -0.9541     1.9656
H     2.9826     1.0569    -0.6607
H     2.6712    -0.4962    -1.4726
22
Frame 18: 18
C    -0.9392    -1.0675     0.1295
C     1.2141     0.0066     0.0279
C    -0.6727     1.8391     0.8233
C     1.9062    -0.6791     1.2001
C     2.1990     0.3966    -1.0619
N     0.1801    -0.9064    -0.5783
N    -2.1165    -1.4520    -0.4341
O    -1.5100     1.5860    -0.2301
H    -1.9306     0.7205    -0.1113
H    -0.0258    -0.6083    -1.5425
H    -0.9386    -0.7679     1.1754
H     0.6688     0.9313     0.4084
H    -2.7950    -1.8006     0.2479
H    -2.0426    -2.1051    -1.2226
H    -0.2330     2.8327     0.7788
H    -0.9051     1.4672     1.8229
H     2.6359    -0.0006     1.6606
H     1.6999     0.9377    -1.8762
H     2.4287    -1.5849     0.8673
H     1.1761    -0.9615     1.9638
H     2.9871     1.0463    -0.6609
H     2.6690    -0.5050    -1.4746
22
Frame 19: 19
C    -0.9434    -1.0643     0.1285
C     1.2146     0.0018     0.0273
C    -0.6651     1.8412     0.8260
C     1.9049    -0.6883     1.1983
C     2.2005     0.3894    -1.0625
N     0.1764    -0.9067    -0.5795
N    -2.1229    -1.4437    -0.4350
O    -1.5043     1.5926    -0.2274
H    -1.9283     0.7284    -0.1096
H    -0.0290    -0.6066    -1.5434
H    -0.9410    -0.7659     1.1749
H     0.6730     0.9284     0.4094
H    -2.8025    -1.7905     0.2469
H    -2.0520    -2.0963    -1.2243
H    -0.2215     2.8334     0.7826
H    -0.8984     1.4689     1.8252
H     2.6378    -0.0129     1.6594
H     1.7029     0.9336    -1.8759
H     2.4240    -1.5959     0.8641
H     1.1741    -0.9688     1.9621
H     2.9916     1.0357    -0.6610
H     2.6669    -0.5138    -1.4766
22
Frame 20: 20
C    -0.9476    -1.0612     0.1276
C     1.2151    -0.0031     0.0268
C    -0.6576     1.8432     0.8287
C     1.9037    -0.6974     1.1966
C     2.2020     0.3822    -1.0631
N     0.1727    -0.9070    -0.5808
N    -2.1292    -1.4354    -0.4359
O    -1.4986     1.5991    -0.2247
H    -1.9260     0.7362    -0.1078
H    -0.0322    -0.6049    -1.5442
H    -0.9434    -0.7639     1.1744
H     0.6771     0.9254     0.4103
H    -2.8100    -1.7804     0.2459
H    -2.0614    -2.0875    -1.2261
H    -0.2099     2.8341     0.7863
H    -0.8918     1.4705     1.8275
H     2.6396    -0.0252     1.6582
H     1.7058     0.9294    -1.8756
H     2.4192    -1.6068     0.8609
H     1.1721    -0.9762     1.9603
H     2.9960     1.0252    -0.6611
H     2.6648    -0.5226    -1.4785
22
Frame 21: 21
C    -0.9519    -1.0580     0.1267
C     1.2155    -0.0079     0.0262
C    -0.6500     1.8453     0.8314
C     1.9025    -0.7065     1.1948
C     2.2035     0.3749    -1.0637
N     0.1689    -0.9074    -0.5820
N    -2.1356    -1.4270    -0.4367
O    -1.4928     1.6057    -0.2220
H    -1.9237     0.7440    -0.1061
H    -0.0355    -0.6032    -1.5450
H    -0.9458    -0.7619     1.1739
H     0.6812     0.9225     0.4112
H    -2.8175    -1.7704     0.2449
H    -2.0708    -2.0787    -1.2279
H    -0.1984     2.8348     0.7901
H    -0.8851     1.4722     1.8299
H     2.6415    -0.0375     1.6570
H     1.7087     0.9253    -1.8752
H     2.4145    -1.6178     0.8577
H     1.1701    -0.9835     1.9586
H     3.0005     1.0146    -0.6612
H     2.6627    -0.5314    -1.4805
22
Frame 22: 22
C    -0.9561    -1.0548     0.1258
C     1.2160    -0.0127     0.0256
C    -0.6424     1.8474     0.8340
C     1.9013    -0.7157     1.1930
C     2.2050     0.3677    -1.0643
N     0.1652    -0.9077    -0.5833
N    -2.1420    -1.4187    -0.4376
O    -1.4871     1.6123    -0.2194
H    -1.9214     0.7519    -0.1043
H    -0.0387    -0.6015    -1.5458
H    -0.9482    -0.7599     1.1734
H     0.6854     0.9196     0.4121
H    -2.8250    -1.7603     0.2439
H    -2.0802    -2.0700    -1.2296
H    -0.1869     2.8355     0.7939
H    -0.8785     1.4738     1.8322
H     2.6433    -0.0498     1.6558
H     1.7116     0.9211    -1.8749
H     2.4097    -1.6288     0.8545
H     1.1681    -0.9909     1.9568
H     3.0050     1.0040    -0.6614
H     2.6606    -0.5402    -1.4825
22
Frame 23: 23
C    -0.9603    -1.0517     0.1249
C     1.2165    -0.0176     0.0251
C    -0.6349     1.8495     0.8367
C     1.9000    -0.7248     1.1913
C     2.2066     0.3605    -1.0649
N     0.1615    -0.9080    -0.5846
N    -2.1484    -1.4104    -0.4385
O    -1.4814     1.6189    -0.2167
H    -1.9191     0.7597    -0.1026
H    -0.0419    -0.5999    -1.5466
H    -0.9506    -0.7579     1.1729
H     0.6895     0.9167     0.4130
H    -2.8325    -1.7502     0.2429
H    -2.0896    -2.0612    -1.2314
H    -0.1754     2.8362     0.7977
H    -0.8719     1.4755     1.8345
H     2.6452    -0.0622     1.6546
H     1.7145     0.9170    -1.8746
H     2.4049    -1.6398     0.8513
H     1.1661    -0.9983     1.9551
H     3.0095     0.9934    -0.6615
H     2.6585    -0.5490    -1.4845
22
Frame 24: 24
C    -0.9645    -1.0485     0.1239
C     1.2169    -0.0224     0.0245
C    -0.6273     1.8515     0.8394
C     1.8988    -0.7340     1.1895
C     2.2081     0.3533    -1.0655
N     0.1577    -0.9084    -0.5858
N    -2.1548    -1.4020    -0.4394
O    -1.4757     1.6254    -0.2140
H    -1.9168     0.7675    -0.1008
H    -0.0451    -0.5982    -1.5474
H    -0.9530    -0.7558     1.1724
H     0.6936     0.9138     0.4139
H    -2.8400    -1.7401     0.2419
H    -2.0990    -2.0524    -1.2331
H    -0.1639     2.8369     0.8015
H    -0.8652     1.4771     1.8369
H     2.6470    -0.0745     1.6534
H     1.7175     0.9128    -1.8743
H     2.4002    -1.6508     0.8481
H     1.1641    -1.0056     1.9533
H     3.0139     0.9829    -0.6616
H     2.6564    -0.5578    -1.4865
22
Frame 25: 25
C    -0.9687    -1.0454     0.1230
C     1.2174    -0.0272     0.0239
C    -0.6197     1.8536     0.8421
C     1.8976    -0.7431     1.1878
C     2.2096     0.3460    -1.0660
N     0.1540    -0.9087    -0.5871
N    -2.1611    -1.3937    -0.4403
O    -1.4700     1.6320    -0.2113
H    -1.9145     0.7753    -0.0991
H    -0.0484    -0.5965    -1.5482
H    -0.9554    -0.7538     1.1718
H     0.6978     0.9108     0.4148
H    -2.8475    -1.7300     0.2410
H    -2.1084    -2.0436    -1.2349
H    -0.1524     2.8375     0.8052
H    -0.8586     1.4788     1.8392
H     2.6488    -0.0868     1.6522
H     1.7204     0.9087    -1.8739
H     2.3954    -1.6618     0.8449
H     1.1621    -1.0130     1.9516
H     3.0184     0.9723    -0.6618
H     2.6542    -0.5666    -1.4885
22
Frame 26: 26
C    -0.9687    -1.0454     0.1230
C     1.2174    -0.0272     0.0239
C    -0.6197     1.8536     0.8421
C     1.8976    -0.7431     1.1878
C     2.2096     0.3460    -1.0660
N     0.1540    -0.9087    -0.5871
N    -2.1611    -1.3937    -0.4403
O    -1.4700     1.6320    -0.2113
H    -1.9145     0.7753    -0.0991
H    -0.0484    -0.5965    -1.5482
H    -0.9554    -0.7538     1.1718
H     0.6978     0.9108     0.4148
H    -2.8475    -1.7300     0.2410
H    -2.1084    -2.0436    -1.2349
H    -0.1524     2.8375     0.8052
H    -0.8586     1.4788     1.8392
H     2.6488    -0.0868     1.6522
H     1.7204     0.9087    -1.8739
H     2.3954    -1.6618     0.8449
H     1.1621    -1.0130     1.9516
H     3.0184     0.9723    -0.6618
H     2.6542    -0.5666    -1.4885
22
Frame 27: 27
C    -0.9687    -1.0454     0.1230
C     1.2174    -0.0272     0.0239
C    -0.6197     1.8536     0.8421
C     1.8976    -0.7431     1.1878
C     2.2096     0.3460    -1.0660
N     0.1540    -0.9087    -0.5871
N    -2.1611    -1.3937    -0.4403
O    -1.4700     1.6320    -0.2113
H    -1.9145     0.7753    -0.0991
H    -0.0484    -0.5965    -1.5482
H    -0.9554    -0.7538     1.1718
H     0.6978     0.9108     0.4148
H    -2.8475    -1.7300     0.2410
H    -2.1084    -2.0436    -1.2349
H    -0.1524     2.8375     0.8052
H    -0.8586     1.4788     1.8392
H     2.6488    -0.0868     1.6522
H     1.7204     0.9087    -1.8739
H     2.3954    -1.6618     0.8449
H     1.1621    -1.0130     1.9516
H     3.0184     0.9723    -0.6618
H     2.6542    -0.5666    -1.4885
22
Frame 28: 28
C    -0.9645    -1.0485     0.1239
C     1.2169    -0.0224     0.0245
C    -0.6273     1.8515     0.8394
C     1.8988    -0.7340     1.1895
C     2.2081     0.3533    -1.0655
N     0.1577    -0.9084    -0.5858
N    -2.1548    -1.4020    -0.4394
O    -1.4757     1.6254    -0.2140
H    -1.9168     0.7675    -0.1008
H    -0.0451    -0.5982    -1.5474
H    -0.9530    -0.7558     1.1724
H     0.6936     0.9138     0.4139
H    -2.8400    -1.7401     0.2419
H    -2.0990    -2.0524    -1.2331
H    -0.1639     2.8369     0.8015
H    -0.8652     1.4771     1.8369
H     2.6470    -0.0745     1.6534
H     1.7175     0.9128    -1.8743
H     2.4002    -1.6508     0.8481
H     1.1641    -1.0056     1.9533
H     3.0139     0.9829    -0.6616
H     2.6564    -0.5578    -1.4865
22
Frame 29: 29
C    -0.9603    -1.0517     0.1249
C     1.2165    -0.0176     0.0251
C    -0.6349     1.8495     0.8367
C     1.9000    -0.7248     1.1913
C     2.2066     0.3605    -1.0649
N     0.1615    -0.9080    -0.5846
N    -2.1484    -1.4104    -0.4385
O    -1.4814     1.6189    -0.2167
H    -1.9191     0.7597    -0.1026
H    -0.0419    -0.5999    -1.5466
H    -0.9506    -0.7579     1.1729
H     0.6895     0.9167     0.4130
H    -2.8325    -1.7502     0.2429
H    -2.0896    -2.0612    -1.2314
H    -0.1754     2.8362     0.7977
H    -0.8719     1.4755     1.8345
H     2.6452    -0.0622     1.6546
H     1.7145     0.9170    -1.8746
H     2.4049    -1.6398     0.8513
H     1.1661    -0.9983     1.9551
H     3.0095     0.9934    -0.6615
H     2.6585    -0.5490    -1.4845
22
Frame 30: 30
C    -0.9561    -1.0548     0.1258
C     1.2160    -0.0127     0.0256
C    -0.6424     1.8474     0.8340
C     1.9013    -0.7157     1.1930
C     2.2050     0.3677    -1.0643
N     0.1652    -0.9077    -0.5833
N    -2.1420    -1.4187    -0.4376
O    -1.4871     1.6123    -0.2194
H    -1.9214     0.7519    -0.1043
H    -0.0387    -0.6015    -1.5458
H    -0.9482    -0.7599     1.1734
H     0.6854     0.9196     0.4121
H    -2.8250    -1.7603     0.2439
H    -2.0802    -2.0700    -1.2296
H    -0.1869     2.8355     0.7939
H    -0.8785     1.4738     1.8322
H     2.6433    -0.0498     1.6558
H     1.7116     0.9211    -1.8749
H     2.4097    -1.6288     0.8545
H     1.1681    -0.9909     1.9568
H     3.0050     1.0040    -0.6614
H     2.6606    -0.5402    -1.4825
22
Frame 31: 31
C    -0.9519    -1.0580     0.1267
C     1.2155    -0.0079     0.0262
C    -0.6500     1.8453     0.8314
C     1.9025    -0.7065     1.1948
C     2.2035     0.3749    -1.0637
N     0.1689    -0.9074    -0.5820
N    -2.1356    -1.4270    -0.4367
O    -1.4928     1.6057    -0.2220
H    -1.9237     0.7440    -0.1061
H    -0.0355    -0.6032    -1.5450
H    -0.9458    -0.7619     1.1739
H     0.6812     0.9225     0.4112
H    -2.8175    -1.7704     0.2449
H    -2.0708    -2.0787    -1.2279
H    -0.1984     2.8348     0.7901
H    -0.8851     1.4722     1.8299
H     2.6415    -0.0375     1.6570
H     1.7087     0.9253    -1.8752
H     2.4145    -1.6178     0.8577
H     1.1701    -0.9835     1.9586
H     3.0005     1.0146    -0.6612
H     2.6627    -0.5314    -1.4805
22
Frame 32: 32
C    -0.9476    -1.0612     0.1276
C     1.2151    -0.0031     0.0268
C    -0.6576     1.8432     0.8287
C     1.9037    -0.6974     1.1966
C     2.2020     0.3822    -1.0631
N     0.1727    -0.9070    -0.5808
N    -2.1292    -1.4354    -0.4359
O    -1.4986     1.5991    -0.2247
H    -1.9260     0.7362    -0.1078
H    -0.0322    -0.6049    -1.5442
H    -0.9434    -0.7639     1.1744
H     0.6771     0.9254     0.4103
H    -2.8100    -1.7804     0.2459
H    -2.0614    -2.0875    -1.2261
H    -0.2099     2.8341     0.7863
H    -0.8918     1.4705     1.8275
H     2.6396    -0.0252     1.6582
H     1.7058     0.9294    -1.8756
H     2.4192    -1.6068     0.8609
H     1.1721    -0.9762     1.9603
H     2.9960     1.0252    -0.6611
H     2.6648    -0.5226    -1.4785
22
Frame 33: 33
C    -0.9434    -1.0643     0.1285
C     1.2146     0.0018     0.0273
C    -0.6651     1.8412     0.8260
C     1.9049    -0.6883     1.1983
C     2.2005     0.3894    -1.0625
N     0.1764    -0.9067    -0.5795
N    -2.1229    -1.4437    -0.4350
O    -1.5043     1.5926    -0.2274
H    -1.9283     0.7284    -0.1096
H    -0.0290    -0.6066    -1.5434
H    -0.9410    -0.7659     1.1749
H     0.6730     0.9284     0.4094
H    -2.8025    -1.7905     0.2469
H    -2.0520    -2.0963    -1.2243
H    -0.2215     2.8334     0.7826
H    -0.8984     1.4689     1.8252
H     2.6378    -0.0129     1.6594
H     1.7029     0.9336    -1.8759
H     2.4240    -1.5959     0.8641
H     1.1741    -0.9688     1.9621
H     2.9916     1.0357    -0.6610
H     2.6669    -0.5138    -1.4766
22
Frame 34: 34
C    -0.9392    -1.0675     0.1295
C     1.2141     0.0066     0.0279
C    -0.6727     1.8391     0.8233
C     1.9062    -0.6791     1.2001
C     2.1990     0.3966    -1.0619
N     0.1801    -0.9064    -0.5783
N    -2.1165    -1.4520    -0.4341
O    -1.5100     1.5860    -0.2301
H    -1.9306     0.7205    -0.1113
H    -0.0258    -0.6083    -1.5425
H    -0.9386    -0.7679     1.1754
H     0.6688     0.9313     0.4084
H    -2.7950    -1.8006     0.2479
H    -2.0426    -2.1051    -1.2226
H    -0.2330     2.8327     0.7788
H    -0.9051     1.4672     1.8229
H     2.6359    -0.0006     1.6606
H     1.6999     0.9377    -1.8762
H     2.4287    -1.5849     0.8673
H     1.1761    -0.9615     1.9638
H     2.9871     1.0463    -0.6609
H     2.6690    -0.5050    -1.4746
22
Frame 35: 35
C    -0.9350    -1.0706     0.1304
C     1.2137     0.0114     0.0285
C    -0.6802     1.8370     0.8206
C     1.9074    -0.6700     1.2018
C     2.1975     0.4038    -1.0614
N     0.1839    -0.9060    -0.5770
N    -2.1101    -1.4604    -0.4332
O    -1.5157     1.5794    -0.2328
H    -1.9329     0.7127    -0.1131
H    -0.0226    -0.6100    -1.5417
H    -0.9362    -0.7699     1.1760
H     0.6647     0.9342     0.4075
H    -2.7875    -1.8107     0.2489
H    -2.0332    -2.1139    -1.2208
H    -0.2445     2.8320     0.7750
H    -0.9117     1.4656     1.8205
H     2.6341     0.0118     1.6618
H     1.6970     0.9419    -1.8766
H     2.4335    -1.5739     0.8705
H     1.1781    -0.9541     1.9656
H     2.9826     1.0569    -0.6607
H     2.6712    -0.4962    -1.4726
22
Frame 36: 36
C    -0.9308    -1.0738     0.1313
C     1.2132     0.0163     0.0290
C    -0.6878     1.8350     0.8179
C     1.9086    -0.6609     1.2036
C     2.1960     0.4111    -1.0608
N     0.1876    -0.9057    -0.5758
N    -2.1037    -1.4687    -0.4323
O    -1.5215     1.5729    -0.2355
H    -1.9352     0.7049    -0.1148
H    -0.0193    -0.6117    -1.5409
H    -0.9338    -0.7719     1.1765
H     0.6605     0.9371     0.4066
H    -2.7800    -1.8208     0.2499
H    -2.0238    -2.1227    -1.2191
H    -0.2560     2.8313     0.7712
H    -0.9184     1.4639     1.8182
H     2.6323     0.0241     1.6630
H     1.6941     0.9461    -1.8769
H     2.4382    -1.5629     0.8737
H     1.1801    -0.9467     1.9674
H     2.9782     1.0675    -0.6606
H     2.6733    -0.4874    -1.4706
22
Frame 37: 37
C    -0.9266    -1.0770     0.1322
C     1.2128     0.0211     0.0296
C    -0.6954     1.8329     0.8153
C     1.9098    -0.6517     1.2053
C     2.1945     0.4183    -1.0602
N     0.1913    -0.9053    -0.5745
N    -2.0973    -1.4770    -0.4314
O    -1.5272     1.5663    -0.2381
H    -1.9375     0.6971    -0.1166
H    -0.0161    -0.6134    -1.5401
H    -0.9314    -0.7739     1.1770
H     0.6564     0.9400     0.4057
H    -2.7725    -1.8309     0.2508
H    -2.0144    -2.1315    -1.2173
H    -0.2675     2.8307     0.7674
H    -0.9250     1.4623     1.8159
H     2.6304     0.0364     1.6642
H     1.6912     0.9502    -1.8772
H     2.4430    -1.5519     0.8769
H     1.1821    -0.9394     1.9691
H     2.9737     1.0780    -0.6605
H     2.6754    -0.4786    -1.4686
22
Frame 38: 38
C    -0.9223    -1.0801     0.1331
C     1.2123     0.0259     0.0302
C    -0.7029     1.8308     0.8126
C     1.9111    -0.6426     1.2071
C     2.1930     0.4255    -1.0596
N     0.1951    -0.9050    -0.5733
N    -2.0910    -1.4854    -0.4306
O    -1.5329     1.5597    -0.2408
H    -1.9398     0.6892    -0.1183
H    -0.0129    -0.6150    -1.5393
H    -0.9290    -0.7760     1.1775
H     0.6523     0.9430     0.4048
H    -2.7650    -1.8410     0.2518
H    -2.0050    -2.1403    -1.2155
H    -0.2791     2.8300     0.7637
H    -0.9317     1.4606     1.8135
H     2.6286     0.0487     1.6654
H     1.6883     0.9544    -1.8775
H     2.4478    -1.5410     0.8801
H     1.1841    -0.9320     1.9709
H     2.9692     1.0886    -0.6604
H     2.6775    -0.4698    -1.4666
22
Frame 39: 39
C    -0.9181    -1.0833     0.1341
C     1.2118     0.0308     0.0307
C    -0.7105     1.8287     0.8099
C     1.9123    -0.6334     1.2088
C     2.1915     0.4327    -1.0590
N     0.1988    -0.9047    -0.5720
N    -2.0846    -1.4937    -0.4297
O    -1.5386     1.5531    -0.2435
H    -1.9421     0.6814    -0.1201
H    -0.0097    -0.6167    -1.5385
H    -0.9266    -0.7780     1.1780
H     0.6481     0.9459     0.4039
H    -2.7575    -1.8511     0.2528
H    -1.9956    -2.1490    -1.2138
H    -0.2906     2.8293     0.7599
H    -0.9383     1.4590     1.8112
H     2.6267     0.0610     1.6666
H     1.6853     0.9585    -1.8779
H     2.4525    -1.5300     0.8833
H     1.1861    -0.9246     1.9726
H     2.9647     1.0992    -0.6602
H     2.6796    -0.4610    -1.4646
22
Frame 40: 40
C    -0.9139    -1.0864     0.1350
C     1.2114     0.0356     0.0313
C    -0.7180     1.8267     0.8072
C     1.9135    -0.6243     1.2106
C     2.1900     0.4399    -1.0584
N     0.2025    -0.9043    -0.5708
N    -2.0782    -1.5020    -0.4288
O    -1.5443     1.5466    -0.2462
H    -1.9444     0.6736    -0.1218
H    -0.0065    -0.6184    -1.5377
H    -0.9242    -0.7800     1.1785
H     0.6440     0.9488     0.4030
H    -2.7500    -1.8611     0.2538
H    -1.9862    -2.1578    -1.2120
H    -0.3021     2.8286     0.7561
H    -0.9450     1.4573     1.8089
H     2.6249     0.0734     1.6678
H     1.6824     0.9627    -1.8782
H     2.4573    -1.5190     0.8865
H     1.1881    -0.9173     1.9744
H     2.9603     1.1098    -0.6601
H     2.6817    -0.4522    -1.4626
22
Frame 41: 41
C    -0.9097    -1.0896     0.1359
C     1.2109     0.0405     0.0318
C    -0.7256     1.8246     0.8045
C     1.9147    -0.6152     1.2123
C     2.1885     0.4472    -1.0579
N     0.2063    -0.9040    -0.5695
N    -2.0718    -1.5104    -0.4279
O    -1.5501     1.5400    -0.2489
H    -1.9467     0.6658    -0.1236
H    -0.0032    -0.6201    -1.5368
H    -0.9218    -0.7820     1.1791
H     0.6399     0.9517     0.4021
H    -2.7425    -1.8712     0.2548
H    -1.9769    -2.1666    -1.2103
H    -0.3136     2.8279     0.7523
H    -0.9516     1.4557     1.8065
H     2.6230     0.0857     1.6690
H     1.6795     0.9668    -1.8785
H     2.4620    -1.5080     0.8897
H     1.1901    -0.9099     1.9761
H     2.9558     1.1203    -0.6600
H     2.6839    -0.4434    -1.4607
22
Frame 42: 42
C    -0.9055    -1.0928     0.1368
C     1.2105     0.0453     0.0324
C    -0.7332     1.8225     0.8018
C     1.9160    -0.6060     1.2141
C     2.1870     0.4544    -1.0573
N     0.2100    -0.9036    -0.5683
N    -2.0654    -1.5187    -0.4270
O    -1.5558     1.5334    -0.2516
H    -1.9491     0.6579    -0.1253
H    -0.0000    -0.6218    -1.5360
H    -0.9194    -0.7840     1.1796
H     0.6357     0.9546     0.4012
H    -2.7350    -1.8813     0.2558
H    -1.9675    -2.1754    -1.2085
H    -0.3251     2.8272     0.7485
H    -0.9583     1.4540     1.8042
H     2.6212     0.0980     1.6701
H     1.6766     0.9710    -1.8788
H     2.4668    -1.4970     0.8929
H     1.1921    -0.9026     1.9779
H     2.9513     1.1309    -0.6598
H     2.6860    -0.4346    -1.4587
22
Frame 43: 43
C    -0.9012    -1.0959     0.1377
C     1.2100     0.0501     0.0330
C    -0.7407     1.8205     0.7992
C     1.9172    -0.5969     1.2159
C     2.1855     0.4616    -1.0567
N     0.2137    -0.9033    -0.5670
N    -2.0590    -1.5270    -0.4262
O    -1.5615     1.5269    -0.2542
H    -1.9514     0.6501    -0.1271
H     0.0032    -0.6235    -1.5352
H    -0.9170    -0.7860     1.1801
H     0.6316     0.9575     0.4003
H    -2.7275    -1.8914     0.2568
H    -1.9581    -2.1842    -1.2068
H    -0.3367     2.8265     0.7447
H    -0.9649     1.4524     1.8019
H     2.6193     0.1103     1.6713
H     1.6737     0.9752    -1.8792
H     2.4715    -1.4861     0.8961
H     1.1941    -0.8952     1.9797
H     2.9469     1.1415    -0.6597
H     2.6881    -0.4258    -1.4567
22
Frame 44: 44
C    -0.8970    -1.0991     0.1387
C     1.2095     0.0550     0.0335
C    -0.7483     1.8184     0.7965
C     1.9184    -0.5878     1.2176
C     2.1840     0.4688    -1.0561
N     0.2175    -0.9030    -0.5658
N    -2.0527    -1.5354    -0.4253
O    -1.5672     1.5203    -0.2569
H    -1.9537     0.6423    -0.1288
H     0.0064    -0.6252    -1.5344
H    -0.9146    -0.7880     1.1806
H     0.6275     0.9605     0.3994
H    -2.7200    -1.9015     0.2578
H    -1.9487    -2.1930    -1.2050
H    -0.3482     2.8258     0.7410
H    -0.9716     1.4507     1.7995
H     2.6175     0.1227     1.6725
H     1.6707     0.9793    -1.8795
H     2.4763    -1.4751     0.8993
H     1.1961    -0.8878     1.9814
H     2.9424     1.1521    -0.6596
H     2.6902    -0.4170    -1.4547
22
Frame 45: 45
C    -0.8928    -1.1022     0.1396
C     1.2091     0.0598     0.0341
C    -0.7558     1.8163     0.7938
C     1.9196    -0.5786     1.2194
C     2.1825     0.4761    -1.0555
N     0.2212    -0.9026    -0.5645
N    -2.0463    -1.5437    -0.4244
O    -1.5730     1.5137    -0.2596
H    -1.9560     0.6345    -0.1306
H     0.0097    -0.6269    -1.5336
H    -0.9122    -0.7900     1.1811
H     0.6233     0.9634     0.3985
H    -2.7125    -1.9116     0.2588
H    -1.9393    -2.2018    -1.2032
H    -0.3597     2.8251     0.7372
H    -0.9782     1.4491     1.7972
H     2.6157     0.1350     1.6737
H     1.6678     0.9835    -1.8798
H     2.4811    -1.4641     0.9025
H     1.1981    -0.8805     1.9832
H     2.9379     1.1626    -0.6595
H     2.6923    -0.4082    -1.4527
22
Frame 46: 46
C    -0.8886    -1.1054     0.1405
C     1.2086     0.0646     0.0347
C    -0.7634     1.8143     0.7911
C     1.9209    -0.5695     1.2211
C     2.1810     0.4833    -1.0549
N     0.2249    -0.9023    -0.5633
N    -2.0399    -1.5520    -0.4235
O    -1.5787     1.5072    -0.2623
H    -1.9583     0.6266    -0.1323
H     0.0129    -0.6286    -1.5328
H    -0.9098    -0.7920     1.1816
H     0.6192     0.9663     0.3975
H    -2.7050    -1.9217     0.2598
H    -1.9299    -2.2106    -1.2015
H    -0.3712     2.8244     0.7334
H    -0.9849     1.4474     1.7949
H     2.6138     0.1473     1.6749
H     1.6649     0.9876    -1.8802
H     2.4858    -1.4531     0.9057
H     1.2001    -0.8731     1.9849
H     2.9335     1.1732    -0.6593
H     2.6944    -0.3994    -1.4507
22
Frame 47: 47
C    -0.8844    -1.1086     0.1414
C     1.2081     0.0695     0.0352
C    -0.7710     1.8122     0.7884
C     1.9221    -0.5603     1.2229
C     2.1795     0.4905    -1.0543
N     0.2287    -0.9020    -0.5620
N    -2.0335    -1.5604    -0.4226
O    -1.5844     1.5006    -0.2650
H    -1.9606     0.6188    -0.1341
H     0.0161    -0.6302    -1.5320
H    -0.9074    -0.7941     1.1821
H     0.6150     0.9692     0.3966
H    -2.6975    -1.9318     0.2607
H    -1.9205    -2.2193    -1.1997
H    -0.3827     2.8238     0.7296
H    -0.9915     1.4458     1.7925
H     2.6120     0.1596     1.6761
H     1.6620     0.9918    -1.8805
H     2.4906    -1.4421     0.9089
H     1.2021    -0.8657     1.9867
H     2.9290     1.1838    -0.6592
H     2.6965    -0.3906    -1.4487
22
Frame 48: 48
C    -0.8802    -1.1117     0.1423
C     1.2077     0.0743     0.0358
C    -0.7785     1.8101     0.7857
C     1.9233    -0.5512     1.2246
C     2.1780     0.4977    -1.0538
N     0.2324    -0.9016    -0.5608
N    -2.0271    -1.5687    -0.4217
O    -1.5901     1.4940    -0.2677
H    -1.9629     0.6110    -0.1358
H     0.0193    -0.6319    -1.5311
H    -0.9050    -0.7961     1.1827
H     0.6109     0.9721     0.3957
H    -2.6900    -1.9418     0.2617
H    -1.9111    -2.2281    -1.1980
H    -0.3942     2.8231     0.7258
H    -0.9982     1.4441     1.7902
H     2.6101     0.1719     1.6773
H     1.6591     0.9959    -1.8808
H     2.4953    -1.4311     0.9121
H     1.2041    -0.8584     1.9884
H     2.9245     1.1944    -0.6591
H     2.6987    -0.3818    -1.4468
22
Frame 49: 49
C    -0.8759    -1.1149     0.1433
C     1.2072     0.0791     0.0364
C    -0.7861     1.8080     0.7831
C     1.9245    -0.5421     1.2264
C     2.1765     0.5050    -1.0532
N     0.2361    -0.9013    -0.5595
N    -2.0208    -1.5770    -0.4209
O    -1.5959     1.4874    -0.2703
H    -1.9652     0.6032    -0.1376
H     0.0226    -0.6336    -1.5303
H    -0.9026    -0.7981     1.1832
H     0.6068     0.9751     0.3948
H    -2.6825    -1.9519     0.2627
H    -1.9017    -2.2369    -1.1962
H    -0.4058     2.8224     0.7221
H    -1.0048     1.4425     1.7879
H     2.6083     0.1843     1.6785
H     1.6561     1.0001    -1.8811
H     2.5001    -1.4202     0.9153
H     1.2061    -0.8510     1.9902
H     2.9200     1.2049    -0.6590
H     2.7008    -0.3730    -1.4448
22
Frame 50: 50
C    -0.8717    -1.1180     0.1442
C     1.2068     0.0840     0.0369
C    -0.7936     1.8060     0.7804
C     1.9258    -0.5329     1.2281
C     2.1750     0.5122    -1.0526
N     0.2399    -0.9009    -0.5583
N    -2.0144    -1.5854    -0.4200
O    -1.6016     1.4809    -0.2730
H    -1.9675     0.5953    -0.1393
H     0.0258    -0.6353    -1.5295
H    -0.9002    -0.8001     1.1837
H     0.6026     0.9780     0.3939
H    -2.6750    -1.9620     0.2637
H    -1.8923    -2.2457    -1.1945
H    -0.4173     2.8217     0.7183
H    -1.0115     1.4408     1.7855
H     2.6064     0.1966     1.6797
H     1.6532     1.0042    -1.8815
H     2.5048    -1.4092     0.9185
H     1.2081    -0.8437     1.9919
H     2.9156     1.2155    -0.6588
H     2.7029    -0.3642    -1.4428
22
Frame 51: 51
C    -0.8675    -1.1212     0.1451
C     1.2063     0.0888     0.0375
C    -0.8012     1.8039     0.7777
C     1.9270    -0.5238     1.2299
C     2.1735     0.5194    -1.0520
N     0.2436    -0.9006    -0.5570
N    -2.0080    -1.5937    -0.4191
O    -1.6073     1.4743    -0.2757
H    -1.9698     0.5875    -0.1411
H     0.0290    -0.6370    -1.5287
H    -0.8978    -0.8021     1.1842
H     0.5985     0.9809     0.3930
H    -2.6675    -1.9721     0.2647
H    -1.8829    -2.2545    -1.1927
H    -0.4288     2.8210     0.7145
H    -1.0181     1.4392     1.7832
H     2.6046     0.2089     1.6809
H     1.6503     1.0084    -1.8818
H     2.5096    -1.3982     0.9217
H     1.2101    -0.8363     1.9937
H     2.9111     1.2261    -0.6587
H     2.7050    -0.3554    -1.4408
