22
Frame 1: 1
C    -0.8675    -1.1212     0.1451
C     1.2063     0.0888     0.0375
C    -0.8012     1.8039     0.7777
C     1.9270    -0.5238     1.2299
C     2.1735     0.5194    -1.0520
N     0.2436    -0.9006    -0.5570
N    -2.0080    -1.5937    -0.4191
O    -1.6073     1.4743    -0.2757
H    -1.9698     0.5875    -0.1411
H     0.0290    -0.6370    -1.5287
H    -0.8978    -0.8021     1.1842
H     0.5985     0.9809     0.3930
H    -2.6675    -1.9721     0.2647
H    -1.8829    -2.2545    -1.1927
H    -0.4288     2.8210     0.7145
H    -1.0181     1.4392     1.7832
H     2.6046     0.2089     1.6809
H     1.6503     1.0084    -1.8818
H     2.5096    -1.3982     0.9217
H     1.2101    -0.8363     1.9937
H     2.9111     1.2261    -0.6587
H     2.7050    -0.3554    -1.4408
22
Frame 2: 2
C    -0.8703    -1.1164     0.1502
C     1.2073     0.0866     0.0364
C    -0.8009     1.8081     0.7753
C     1.9288    -0.5290     1.2269
C     2.1742     0.5127    -1.0555
N     0.2393    -0.8990    -0.5554
N    -2.0110    -1.5932    -0.4096
O    -1.6016     1.4769    -0.2814
H    -1.9769     0.5963    -0.1407
H     0.0221    -0.6338    -1.5261
H    -0.8988    -0.7934     1.1885
H     0.6056     0.9791     0.3920
H    -2.6678    -1.9723     0.2764
H    -1.8866    -2.2534    -1.1838
H    -0.4190     2.8212     0.7070
H    -1.0253     1.4503     1.7816
H     2.6086     0.2018     1.6778
H     1.6512     1.0030    -1.8847
H     2.5092    -1.4042     0.9168
H     1.2126    -0.8412     1.9915
H     2.9154     1.2168    -0.6643
H     2.7015    -0.3644    -1.4448
22
Frame 3: 3
C    -0.8731    -1.1115     0.1553
C     1.2083     0.0844     0.0352
C    -0.8006     1.8123     0.7728
C     1.9306    -0.5341     1.2239
C     2.1748     0.5060    -1.0590
N     0.2350    -0.8973    -0.5538
N    -2.0140    -1.5928    -0.4001
O    -1.5958     1.4795    -0.2871
H    -1.9841     0.6050    -0.1403
H     0.0151    -0.6306    -1.5235
H    -0.8998    -0.7847     1.1927
H     0.6127     0.9773     0.3911
H    -2.6680    -1.9726     0.2881
H    -1.8903    -2.2524    -1.1749
H    -0.4092     2.8214     0.6996
H    -1.0325     1.4614     1.7800
H     2.6126     0.1948     1.6746
H     1.6522     0.9976    -1.8876
H     2.5089    -1.4101     0.9118
H     1.2152    -0.8460     1.9893
H     2.9197     1.2076    -0.6699
H     2.6981    -0.3734    -1.4488
22
Frame 4: 4
C    -0.8759    -1.1067     0.1605
C     1.2093     0.0822     0.0341
C    -0.8003     1.8165     0.7704
C     1.9324    -0.5393     1.2209
C     2.1755     0.4993    -1.0625
N     0.2308    -0.8957    -0.5523
N    -2.0170    -1.5923    -0.3906
O    -1.5901     1.4821    -0.2927
H    -1.9912     0.6138    -0.1399
H     0.0082    -0.6273    -1.5209
H    -0.9008    -0.7760     1.1970
H     0.6198     0.9755     0.3901
H    -2.6683    -1.9728     0.2997
H    -1.8940    -2.2513    -1.1659
H    -0.3995     2.8215     0.6921
H    -1.0398     1.4725     1.7783
H     2.6165     0.1877     1.6715
H     1.6531     0.9922    -1.8905
H     2.5085    -1.4161     0.9069
H     1.2177    -0.8509     1.9871
H     2.9239     1.1983    -0.6755
H     2.6946    -0.3823    -1.4529
22
Frame 5: 5
C    -0.8787    -1.1018     0.1656
C     1.2103     0.0800     0.0329
C    -0.8000     1.8206     0.7680
C     1.9342    -0.5444     1.2179
C     2.1761     0.4926    -1.0659
N     0.2265    -0.8941    -0.5507
N    -2.0200    -1.5918    -0.3811
O    -1.5843     1.4847    -0.2984
H    -1.9983     0.6226    -0.1395
H     0.0012    -0.6241    -1.5183
H    -0.9018    -0.7673     1.2013
H     0.6269     0.9737     0.3892
H    -2.6686    -1.9731     0.3114
H    -1.8977    -2.2503    -1.1570
H    -0.3897     2.8217     0.6846
H    -1.0470     1.4836     1.7767
H     2.6205     0.1806     1.6683
H     1.6541     0.9868    -1.8933
H     2.5081    -1.4220     0.9020
H     1.2202    -0.8557     1.9849
H     2.9282     1.1890    -0.6812
H     2.6912    -0.3913    -1.4569
22
Frame 6: 6
C    -0.8816    -1.0970     0.1707
C     1.2113     0.0779     0.0318
C    -0.7997     1.8248     0.7655
C     1.9360    -0.5496     1.2148
C     2.1768     0.4859    -1.0694
N     0.2222    -0.8925    -0.5491
N    -2.0229    -1.5914    -0.3716
O    -1.5786     1.4873    -0.3041
H    -2.0054     0.6314    -0.1391
H    -0.0057    -0.6209    -1.5157
H    -0.9028    -0.7586     1.2055
H     0.6340     0.9719     0.3882
H    -2.6688    -1.9733     0.3231
H    -1.9014    -2.2492    -1.1481
H    -0.3799     2.8219     0.6772
H    -1.0542     1.4947     1.7751
H     2.6245     0.1735     1.6652
H     1.6550     0.9814    -1.8962
H     2.5077    -1.4280     0.8970
H     1.2227    -0.8606     1.9827
H     2.9325     1.1797    -0.6868
H     2.6877    -0.4003    -1.4609
22
Frame 7: 7
C    -0.8844    -1.0921     0.1758
C     1.2123     0.0757     0.0307
C    -0.7994     1.8290     0.7631
C     1.9378    -0.5548     1.2118
C     2.1775     0.4792    -1.0729
N     0.2179    -0.8908    -0.5475
N    -2.0259    -1.5909    -0.3621
O    -1.5728     1.4899    -0.3098
H    -2.0126     0.6401    -0.1387
H    -0.0126    -0.6177    -1.5131
H    -0.9038    -0.7498     1.2098
H     0.6411     0.9701     0.3872
H    -2.6691    -1.9736     0.3348
H    -1.9051    -2.2482    -1.1392
H    -0.3701     2.8221     0.6697
H    -1.0614     1.5058     1.7735
H     2.6285     0.1665     1.6620
H     1.6560     0.9760    -1.8991
H     2.5074    -1.4340     0.8921
H     1.2253    -0.8655     1.9805
H     2.9368     1.1705    -0.6924
H     2.6843    -0.4093    -1.4649
22
Frame 8: 8
C    -0.8872    -1.0873     0.1810
C     1.2133     0.0735     0.0295
C    -0.7991     1.8332     0.7607
C     1.9396    -0.5599     1.2088
C     2.1781     0.4725    -1.0764
N     0.2136    -0.8892    -0.5460
N    -2.0289    -1.5905    -0.3526
O    -1.5671     1.4925    -0.3154
H    -2.0197     0.6489    -0.1383
H    -0.0196    -0.6144    -1.5105
H    -0.9048    -0.7411     1.2141
H     0.6481     0.9683     0.3863
H    -2.6694    -1.9738     0.3465
H    -1.9088    -2.2471    -1.1302
H    -0.3603     2.8223     0.6622
H    -1.0687     1.5169     1.7719
H     2.6324     0.1594     1.6589
H     1.6569     0.9706    -1.9020
H     2.5070    -1.4399     0.8872
H     1.2278    -0.8703     1.9783
H     2.9411     1.1612    -0.6980
H     2.6808    -0.4182    -1.4689
22
Frame 9: 9
C    -0.8900    -1.0824     0.1861
C     1.2143     0.0713     0.0284
C    -0.7988     1.8374     0.7582
C     1.9414    -0.5651     1.2058
C     2.1788     0.4658    -1.0799
N     0.2093    -0.8876    -0.5444
N    -2.0319    -1.5900    -0.3431
O    -1.5613     1.4951    -0.3211
H    -2.0268     0.6577    -0.1379
H    -0.0265    -0.6112    -1.5079
H    -0.9058    -0.7324     1.2184
H     0.6552     0.9666     0.3853
H    -2.6696    -1.9741     0.3582
H    -1.9125    -2.2461    -1.1213
H    -0.3505     2.8225     0.6548
H    -1.0759     1.5280     1.7702
H     2.6364     0.1523     1.6557
H     1.6579     0.9652    -1.9049
H     2.5066    -1.4459     0.8823
H     1.2303    -0.8752     1.9762
H     2.9453     1.1519    -0.7036
H     2.6774    -0.4272    -1.4729
22
Frame 10: 10
C    -0.8928    -1.0776     0.1912
C     1.2153     0.0691     0.0272
C    -0.7985     1.8416     0.7558
C     1.9432    -0.5702     1.2028
C     2.1794     0.4592    -1.0834
N     0.2051    -0.8860    -0.5428
N    -2.0349    -1.5895    -0.3335
O    -1.5556     1.4977    -0.3268
H    -2.0340     0.6665    -0.1375
H    -0.0334    -0.6080    -1.5053
H    -0.9068    -0.7237     1.2226
H     0.6623     0.9648     0.3844
H    -2.6699    -1.9743     0.3698
H    -1.9162    -2.2450    -1.1124
H    -0.3408     2.8226     0.6473
H    -1.0831     1.5391     1.7686
H     2.6404     0.1452     1.6526
H     1.6588     0.9598    -1.9078
H     2.5062    -1.4518     0.8773
H     1.2329    -0.8801     1.9740
H     2.9496     1.1427    -0.7092
H     2.6739    -0.4362    -1.4770
22
Frame 11: 11
C    -0.8956    -1.0727     0.1963
C     1.2163     0.0669     0.0261
C    -0.7982     1.8458     0.7534
C     1.9450    -0.5754     1.1998
C     2.1801     0.4525    -1.0869
N     0.2008    -0.8843    -0.5412
N    -2.0379    -1.5891    -0.3240
O    -1.5499     1.5003    -0.3325
H    -2.0411     0.6752    -0.1371
H    -0.0404    -0.6048    -1.5026
H    -0.9078    -0.7150     1.2269
H     0.6694     0.9630     0.3834
H    -2.6701    -1.9746     0.3815
H    -1.9199    -2.2440    -1.1035
H    -0.3310     2.8228     0.6398
H    -1.0903     1.5502     1.7670
H     2.6444     0.1382     1.6495
H     1.6597     0.9544    -1.9106
H     2.5059    -1.4578     0.8724
H     1.2354    -0.8849     1.9718
H     2.9539     1.1334    -0.7148
H     2.6705    -0.4452    -1.4810
22
Frame 12: 12
C    -0.8984    -1.0679     0.2015
C     1.2173     0.0647     0.0249
C    -0.7979     1.8499     0.7509
C     1.9468    -0.5806     1.1968
C     2.1808     0.4458    -1.0903
N     0.1965    -0.8827    -0.5396
N    -2.0409    -1.5886    -0.3145
O    -1.5441     1.5029    -0.3381
H    -2.0482     0.6840    -0.1367
H    -0.0473    -0.6015    -1.5000
H    -0.9088    -0.7063     1.2312
H     0.6765     0.9612     0.3824
H    -2.6704    -1.9748     0.3932
H    -1.9236    -2.2429    -1.0946
H    -0.3212     2.8230     0.6324
H    -1.0976     1.5613     1.7654
H     2.6484     0.1311     1.6463
H     1.6607     0.9490    -1.9135
H     2.5055    -1.4638     0.8675
H     1.2379    -0.8898     1.9696
H     2.9582     1.1241    -0.7204
H     2.6670    -0.4542    -1.4850
22
Frame 13: 13
C    -0.9012    -1.0630     0.2066
C     1.2183     0.0625     0.0238
C    -0.7976     1.8541     0.7485
C     1.9486    -0.5857     1.1938
C     2.1814     0.4391    -1.0938
N     0.1922    -0.8811    -0.5381
N    -2.0439    -1.5881    -0.3050
O    -1.5384     1.5055    -0.3438
H    -2.0554     0.6928    -0.1363
H    -0.0543    -0.5983    -1.4974
H    -0.9098    -0.6976     1.2354
H     0.6836     0.9594     0.3815
H    -2.6707    -1.9751     0.4049
H    -1.9273    -2.2419    -1.0856
H    -0.3114     2.8232     0.6249
H    -1.1048     1.5724     1.7637
H     2.6523     0.1240     1.6432
H     1.6616     0.9436    -1.9164
H     2.5051    -1.4697     0.8625
H     1.2404    -0.8946     1.9674
H     2.9625     1.1148    -0.7261
H     2.6636    -0.4631    -1.4890
22
Frame 14: 14
C    -0.9041    -1.0582     0.2117
C     1.2193     0.0603     0.0227
C    -0.7973     1.8583     0.7460
C     1.9504    -0.5909     1.1908
C     2.1821     0.4324    -1.0973
N     0.1879    -0.8795    -0.5365
N    -2.0469    -1.5877    -0.2955
O    -1.5326     1.5081    -0.3495
H    -2.0625     0.7016    -0.1359
H    -0.0612    -0.5951    -1.4948
H    -0.9108    -0.6889     1.2397
H     0.6907     0.9576     0.3805
H    -2.6709    -1.9753     0.4166
H    -1.9310    -2.2408    -1.0767
H    -0.3016     2.8234     0.6174
H    -1.1120     1.5835     1.7621
H     2.6563     0.1169     1.6400
H     1.6626     0.9382    -1.9193
H     2.5047    -1.4757     0.8576
H     1.2430    -0.8995     1.9652
H     2.9667     1.1056    -0.7317
H     2.6601    -0.4721    -1.4930
22
Frame 15: 15
C    -0.9069    -1.0534     0.2168
C     1.2203     0.0582     0.0215
C    -0.7970     1.8625     0.7436
C     1.9522    -0.5960     1.1877
C     2.1827     0.4257    -1.1008
N     0.1837    -0.8778    -0.5349
N    -2.0498    -1.5872    -0.2860
O    -1.5269     1.5107    -0.3552
H    -2.0696     0.7103    -0.1355
H    -0.0681    -0.5919    -1.4922
H    -0.9118    -0.6802     1.2440
H     0.6978     0.9558     0.3796
H    -2.6712    -1.9756     0.4282
H    -1.9347    -2.2397    -1.0678
H    -0.2919     2.8235     0.6100
H    -1.1192     1.5945     1.7605
H     2.6603     0.1099     1.6369
H     1.6635     0.9329    -1.9222
H     2.5044    -1.4816     0.8527
H     1.2455    -0.9044     1.9630
H     2.9710     1.0963    -0.7373
H     2.6567    -0.4811    -1.4971
22
Frame 16: 16
C    -0.9097    -1.0485     0.2219
C     1.2213     0.0560     0.0204
C    -0.7967     1.8667     0.7412
C     1.9540    -0.6012     1.1847
C     2.1834     0.4190    -1.1043
N     0.1794    -0.8762    -0.5333
N    -2.0528    -1.5868    -0.2765
O    -1.5211     1.5133    -0.3608
H    -2.0767     0.7191    -0.1351
H    -0.0751    -0.5886    -1.4896
H    -0.9128    -0.6715     1.2482
H     0.7049     0.9540     0.3786
H    -2.6715    -1.9758     0.4399
H    -1.9384    -2.2387    -1.0589
H    -0.2821     2.8237     0.6025
H    -1.1264     1.6056     1.7589
H     2.6643     0.1028     1.6337
H     1.6645     0.9275    -1.9251
H     2.5040    -1.4876     0.8477
H     1.2480    -0.9092     1.9608
H     2.9753     1.0870    -0.7429
H     2.6532    -0.4901    -1.5011
22
Frame 17: 17
C    -0.9125    -1.0437     0.2271
C     1.2223     0.0538     0.0192
C    -0.7964     1.8709     0.7387
C     1.9558    -0.6064     1.1817
C     2.1840     0.4123    -1.1078
N     0.1751    -0.8746    -0.5318
N    -2.0558    -1.5863    -0.2670
O    -1.5154     1.5159    -0.3665
H    -2.0839     0.7279    -0.1347
H    -0.0820    -0.5854    -1.4870
H    -0.9138    -0.6627     1.2525
H     0.7120     0.9522     0.3777
H    -2.6717    -1.9761     0.4516
H    -1.9421    -2.2376    -1.0499
H    -0.2723     2.8239     0.5950
H    -1.1337     1.6167     1.7573
H     2.6683     0.0957     1.6306
H     1.6654     0.9221    -1.9280
H     2.5036    -1.4935     0.8428
H     1.2506    -0.9141     1.9586
H     2.9796     1.0777    -0.7485
H     2.6497    -0.4990    -1.5051
22
Frame 18: 18
C    -0.9153    -1.0388     0.2322
C     1.2233     0.0516     0.0181
C    -0.7961     1.8751     0.7363
C     1.9576    -0.6115     1.1787
C     2.1847     0.4056    -1.1113
N     0.1708    -0.8729    -0.5302
N    -2.0588    -1.5858    -0.2575
O    -1.5096     1.5185    -0.3722
H    -2.0910     0.7367    -0.1343
H    -0.0889    -0.5822    -1.4844
H    -0.9148    -0.6540     1.2568
H     0.7191     0.9504     0.3767
H    -2.6720    -1.9763     0.4633
H    -1.9458    -2.2366    -1.0410
H    -0.2625     2.8241     0.5876
H    -1.1409     1.6278     1.7556
H     2.6722     0.0886     1.6274
H     1.6663     0.9167    -1.9308
H     2.5032    -1.4995     0.8379
H     1.2531    -0.9189     1.9564
H     2.9838     1.0685    -0.7541
H     2.6463    -0.5080    -1.5091
22
Frame 19: 19
C    -0.9181    -1.0340     0.2373
C     1.2243     0.0494     0.0170
C    -0.7957     1.8792     0.7339
C     1.9594    -0.6167     1.1757
C     2.1854     0.3989    -1.1148
N     0.1665    -0.8713    -0.5286
N    -2.0618    -1.5854    -0.2480
O    -1.5039     1.5211    -0.3779
H    -2.0981     0.7454    -0.1339
H    -0.0959    -0.5790    -1.4818
H    -0.9158    -0.6453     1.2611
H     0.7262     0.9486     0.3757
H    -2.6723    -1.9766     0.4750
H    -1.9495    -2.2355    -1.0321
H    -0.2527     2.8243     0.5801
H    -1.1481     1.6389     1.7540
H     2.6762     0.0816     1.6243
H     1.6673     0.9113    -1.9337
H     2.5029    -1.5055     0.8329
H     1.2556    -0.9238     1.9542
H     2.9881     1.0592    -0.7597
H     2.6428    -0.5170    -1.5131
22
Frame 20: 20
C    -0.9209    -1.0291     0.2424
C     1.2253     0.0472     0.0158
C    -0.7954     1.8834     0.7314
C     1.9612    -0.6218     1.1727
C     2.1860     0.3922    -1.1182
N     0.1622    -0.8697    -0.5270
N    -2.0648    -1.5849    -0.2385
O    -1.4982     1.5237    -0.3835
H    -2.1053     0.7542    -0.1335
H    -0.1028    -0.5757    -1.4792
H    -0.9168    -0.6366     1.2653
H     0.7333     0.9468     0.3748
H    -2.6725    -1.9768     0.4867
H    -1.9532    -2.2345    -1.0232
H    -0.2430     2.8245     0.5727
H    -1.1553     1.6500     1.7524
H     2.6802     0.0745     1.6212
H     1.6682     0.9059    -1.9366
H     2.5025    -1.5114     0.8280
H     1.2581    -0.9287     1.9520
H     2.9924     1.0499    -0.7653
H     2.6394    -0.5260    -1.5171
22
Frame 21: 21
C    -0.9237    -1.0243     0.2476
C     1.2263     0.0450     0.0147
C    -0.7951     1.8876     0.7290
C     1.9630    -0.6270     1.1697
C     2.1867     0.3855    -1.1217
N     0.1580    -0.8681    -0.5255
N    -2.0678    -1.5844    -0.2290
O    -1.4924     1.5263    -0.3892
H    -2.1124     0.7630    -0.1331
H    -0.1098    -0.5725    -1.4766
H    -0.9178    -0.6279     1.2696
H     0.7404     0.9450     0.3738
H    -2.6728    -1.9771     0.4983
H    -1.9569    -2.2334    -1.0143
H    -0.2332     2.8246     0.5652
H    -1.1626     1.6611     1.7508
H     2.6842     0.0674     1.6180
H     1.6692     0.9005    -1.9395
H     2.5021    -1.5174     0.8231
H     1.2607    -0.9335     1.9498
H     2.9967     1.0407    -0.7710
H     2.6359    -0.5350    -1.5212
22
Frame 22: 22
C    -0.9266    -1.0194     0.2527
C     1.2273     0.0428     0.0135
C    -0.7948     1.8918     0.7266
C     1.9648    -0.6322     1.1667
C     2.1873     0.3788    -1.1252
N     0.1537    -0.8664    -0.5239
N    -2.0708    -1.5840    -0.2195
O    -1.4867     1.5289    -0.3949
H    -2.1195     0.7718    -0.1327
H    -0.1167    -0.5693    -1.4740
H    -0.9188    -0.6192     1.2739
H     0.7474     0.9432     0.3729
H    -2.6731    -1.9773     0.5100
H    -1.9606    -2.2324    -1.0053
H    -0.2234     2.8248     0.5577
H    -1.1698     1.6722     1.7492
H     2.6881     0.0603     1.6149
H     1.6701     0.8951    -1.9424
H     2.5017    -1.5233     0.8182
H     1.2632    -0.9384     1.9476
H     3.0010     1.0314    -0.7766
H     2.6325    -0.5439    -1.5252
22
Frame 23: 23
C    -0.9294    -1.0146     0.2578
C     1.2283     0.0406     0.0124
C    -0.7945     1.8960     0.7241
C     1.9666    -0.6373     1.1637
C     2.1880     0.3721    -1.1287
N     0.1494    -0.8648    -0.5223
N    -2.0738    -1.5835    -0.2100
O    -1.4809     1.5315    -0.4006
H    -2.1267     0.7805    -0.1322
H    -0.1236    -0.5661    -1.4714
H    -0.9197    -0.6105     1.2781
H     0.7545     0.9414     0.3719
H    -2.6733    -1.9776     0.5217
H    -1.9643    -2.2313    -0.9964
H    -0.2136     2.8250     0.5503
H    -1.1770     1.6833     1.7475
H     2.6921     0.0533     1.6117
H     1.6711     0.8897    -1.9453
H     2.5014    -1.5293     0.8132
H     1.2657    -0.9432     1.9454
H     3.0052     1.0221    -0.7822
H     2.6290    -0.5529    -1.5292
22
Frame 24: 24
C    -0.9322    -1.0097     0.2629
C     1.2293     0.0385     0.0113
C    -0.7942     1.9002     0.7217
C     1.9684    -0.6425     1.1607
C     2.1887     0.3654    -1.1322
N     0.1451    -0.8632    -0.5207
N    -2.0767    -1.5831    -0.2005
O    -1.4752     1.5341    -0.4062
H    -2.1338     0.7893    -0.1318
H    -0.1306    -0.5629    -1.4688
H    -0.9207    -0.6018     1.2824
H     0.7616     0.9397     0.3709
H    -2.6736    -1.9778     0.5334
H    -1.9680    -2.2303    -0.9875
H    -0.2038     2.8252     0.5428
H    -1.1842     1.6944     1.7459
H     2.6961     0.0462     1.6086
H     1.6720     0.8843    -1.9482
H     2.5010    -1.5353     0.8083
H     1.2683    -0.9481     1.9432
H     3.0095     1.0128    -0.7878
H     2.6256    -0.5619    -1.5332
22
Frame 25: 25
C    -0.9350    -1.0049     0.2681
C     1.2303     0.0363     0.0101
C    -0.7939     1.9043     0.7193
C     1.9702    -0.6477     1.1576
C     2.1893     0.3587    -1.1357
N     0.1408    -0.8616    -0.5191
N    -2.0797    -1.5826    -0.1910
O    -1.4694     1.5366    -0.4119
H    -2.1409     0.7981    -0.1314
H    -0.1375    -0.5596    -1.4662
H    -0.9217    -0.5931     1.2867
H     0.7687     0.9379     0.3700
H    -2.6739    -1.9781     0.5451
H    -1.9717    -2.2292    -0.9786
H    -0.1940     2.8254     0.5353
H    -1.1915     1.7055     1.7443
H     2.7001     0.0391     1.6054
H     1.6730     0.8789    -1.9510
H     2.5006    -1.5412     0.8034
H     1.2708    -0.9530     1.9411
H     3.0138     1.0036    -0.7934
H     2.6221    -0.5709    -1.5372
22
Frame 26: 26
C    -0.9350    -1.0049     0.2681
C     1.2303     0.0363     0.0101
C    -0.7939     1.9043     0.7193
C     1.9702    -0.6477     1.1576
C     2.1893     0.3587    -1.1357
N     0.1408    -0.8616    -0.5191
N    -2.0797    -1.5826    -0.1910
O    -1.4694     1.5366    -0.4119
H    -2.1409     0.7981    -0.1314
H    -0.1375    -0.5596    -1.4662
H    -0.9217    -0.5931     1.2867
H     0.7687     0.9379     0.3700
H    -2.6739    -1.9781     0.5451
H    -1.9717    -2.2292    -0.9786
H    -0.1940     2.8254     0.5353
H    -1.1915     1.7055     1.7443
H     2.7001     0.0391     1.6054
H     1.6730     0.8789    -1.9510
H     2.5006    -1.5412     0.8034
H     1.2708    -0.9530     1.9411
H     3.0138     1.0036    -0.7934
H     2.6221    -0.5709    -1.5372
22
Frame 27: 27
C    -0.9350    -1.0049     0.2681
C     1.2303     0.0363     0.0101
C    -0.7939     1.9043     0.7193
C     1.9702    -0.6477     1.1576
C     2.1893     0.3587    -1.1357
N     0.1408    -0.8616    -0.5191
N    -2.0797    -1.5826    -0.1910
O    -1.4694     1.5366    -0.4119
H    -2.1409     0.7981    -0.1314
H    -0.1375    -0.5596    -1.4662
H    -0.9217    -0.5931     1.2867
H     0.7687     0.9379     0.3700
H    -2.6739    -1.9781     0.5451
H    -1.9717    -2.2292    -0.9786
H    -0.1940     2.8254     0.5353
H    -1.1915     1.7055     1.7443
H     2.7001     0.0391     1.6054
H     1.6730     0.8789    -1.9510
H     2.5006    -1.5412     0.8034
H     1.2708    -0.9530     1.9411
H     3.0138     1.0036    -0.7934
H     2.6221    -0.5709    -1.5372
22
Frame 28: 28
C    -0.9322    -1.0097     0.2629
C     1.2293     0.0385     0.0113
C    -0.7942     1.9002     0.7217
C     1.9684    -0.6425     1.1607
C     2.1887     0.3654    -1.1322
N     0.1451    -0.8632    -0.5207
N    -2.0767    -1.5831    -0.2005
O    -1.4752     1.5341    -0.4062
H    -2.1338     0.7893    -0.1318
H    -0.1306    -0.5629    -1.4688
H    -0.9207    -0.6018     1.2824
H     0.7616     0.9397     0.3709
H    -2.6736    -1.9778     0.5334
H    -1.9680    -2.2303    -0.9875
H    -0.2038     2.8252     0.5428
H    -1.1842     1.6944     1.7459
H     2.6961     0.0462     1.6086
H     1.6720     0.8843    -1.9482
H     2.5010    -1.5353     0.8083
H     1.2683    -0.9481     1.9432
H     3.0095     1.0128    -0.7878
H     2.6256    -0.5619    -1.5332
22
Frame 29: 29
C    -0.9294    -1.0146     0.2578
C     1.2283     0.0406     0.0124
C    -0.7945     1.8960     0.7241
C     1.9666    -0.6373     1.1637
C     2.1880     0.3721    -1.1287
N     0.1494    -0.8648    -0.5223
N    -2.0738    -1.5835    -0.2100
O    -1.4809     1.5315    -0.4006
H    -2.1267     0.7805    -0.1322
H    -0.1236    -0.5661    -1.4714
H    -0.9197    -0.6105     1.2781
H     0.7545     0.9414     0.3719
H    -2.6733    -1.9776     0.5217
H    -1.9643    -2.2313    -0.9964
H    -0.2136     2.8250     0.5503
H    -1.1770     1.6833     1.7475
H     2.6921     0.0533     1.6117
H     1.6711     0.8897    -1.9453
H     2.5014    -1.5293     0.8132
H     1.2657    -0.9432     1.9454
H     3.0052     1.0221    -0.7822
H     2.6290    -0.5529    -1.5292
22
Frame 30: 30
C    -0.9266    -1.0194     0.2527
C     1.2273     0.0428     0.0135
C    -0.7948     1.8918     0.7266
C     1.9648    -0.6322     1.1667
C     2.1873     0.3788    -1.1252
N     0.1537    -0.8664    -0.5239
N    -2.0708    -1.5840    -0.2195
O    -1.4867     1.5289    -0.3949
H    -2.1195     0.7718    -0.1327
H    -0.1167    -0.5693    -1.4740
H    -0.9188    -0.6192     1.2739
H     0.7474     0.9432     0.3729
H    -2.6731    -1.9773     0.5100
H    -1.9606    -2.2324    -1.0053
H    -0.2234     2.8248     0.5577
H    -1.1698     1.6722     1.7492
H     2.6881     0.0603     1.6149
H     1.6701     0.8951    -1.9424
H     2.5017    -1.5233     0.8182
H     1.2632    -0.9384     1.9476
H     3.0010     1.0314    -0.7766
H     2.6325    -0.5439    -1.5252
22
Frame 31: 31
C    -0.9237    -1.0243     0.2476
C     1.2263     0.0450     0.0147
C    -0.7951     1.8876     0.7290
C     1.9630    -0.6270     1.1697
C     2.1867     0.3855    -1.1217
N     0.1580    -0.8681    -0.5255
N    -2.0678    -1.5844    -0.2290
O    -1.4924     1.5263    -0.3892
H    -2.1124     0.7630    -0.1331
H    -0.1098    -0.5725    -1.4766
H    -0.9178    -0.6279     1.2696
H     0.7404     0.9450     0.3738
H    -2.6728    -1.9771     0.4983
H    -1.9569    -2.2334    -1.0143
H    -0.2332     2.8246     0.5652
H    -1.1626     1.6611     1.7508
H     2.6842     0.0674     1.6180
H     1.6692     0.9005    -1.9395
H     2.5021    -1.5174     0.8231
H     1.2607    -0.9335     1.9498
H     2.9967     1.0407    -0.7710
H     2.6359    -0.5350    -1.5212
22
Frame 32: 32
C    -0.9209    -1.0291     0.2424
C     1.2253     0.0472     0.0158
C    -0.7954     1.8834     0.7314
C     1.9612    -0.6218     1.1727
C     2.1860     0.3922    -1.1182
N     0.1622    -0.8697    -0.5270
N    -2.0648    -1.5849    -0.2385
O    -1.4982     1.5237    -0.3835
H    -2.1053     0.7542    -0.1335
H    -0.1028    -0.5757    -1.4792
H    -0.9168    -0.6366     1.2653
H     0.7333     0.9468     0.3748
H    -2.6725    -1.9768     0.4867
H    -1.9532    -2.2345    -1.0232
H    -0.2430     2.8245     0.5727
H    -1.1553     1.6500     1.7524
H     2.6802     0.0745     1.6212
H     1.6682     0.9059    -1.9366
H     2.5025    -1.5114     0.8280
H     1.2581    -0.9287     1.9520
H     2.9924     1.0499    -0.7653
H     2.6394    -0.5260    -1.5171
22
Frame 33: 33
C    -0.9181    -1.0340     0.2373
C     1.2243     0.0494     0.0170
C    -0.7957     1.8792     0.7339
C     1.9594    -0.6167     1.1757
C     2.1854     0.3989    -1.1148
N     0.1665    -0.8713    -0.5286
N    -2.0618    -1.5854    -0.2480
O    -1.5039     1.5211    -0.3779
H    -2.0981     0.7454    -0.1339
H    -0.0959    -0.5790    -1.4818
H    -0.9158    -0.6453     1.2611
H     0.7262     0.9486     0.3757
H    -2.6723    -1.9766     0.4750
H    -1.9495    -2.2355    -1.0321
H    -0.2527     2.8243     0.5801
H    -1.1481     1.6389     1.7540
H     2.6762     0.0816     1.6243
H     1.6673     0.9113    -1.9337
H     2.5029    -1.5055     0.8329
H     1.2556    -0.9238     1.9542
H     2.9881     1.0592    -0.7597
H     2.6428    -0.5170    -1.5131
22
Frame 34: 34
C    -0.9153    -1.0388     0.2322
C     1.2233     0.0516     0.0181
C    -0.7961     1.8751     0.7363
C     1.9576    -0.6115     1.1787
C     2.1847     0.4056    -1.1113
N     0.1708    -0.8729    -0.5302
N    -2.0588    -1.5858    -0.2575
O    -1.5096     1.5185    -0.3722
H    -2.0910     0.7367    -0.1343
H    -0.0889    -0.5822    -1.4844
H    -0.9148    -0.6540     1.2568
H     0.7191     0.9504     0.3767
H    -2.6720    -1.9763     0.4633
H    -1.9458    -2.2366    -1.0410
H    -0.2625     2.8241     0.5876
H    -1.1409     1.6278     1.7556
H     2.6722     0.0886     1.6274
H     1.6663     0.9167    -1.9308
H     2.5032    -1.4995     0.8379
H     1.2531    -0.9189     1.9564
H     2.9838     1.0685    -0.7541
H     2.6463    -0.5080    -1.5091
22
Frame 35: 35
C    -0.9125    -1.0437     0.2271
C     1.2223     0.0538     0.0192
C    -0.7964     1.8709     0.7387
C     1.9558    -0.6064     1.1817
C     2.1840     0.4123    -1.1078
N     0.1751    -0.8746    -0.5318
N    -2.0558    -1.5863    -0.2670
O    -1.5154     1.5159    -0.3665
H    -2.0839     0.7279    -0.1347
H    -0.0820    -0.5854    -1.4870
H    -0.9138    -0.6627     1.2525
H     0.7120     0.9522     0.3777
H    -2.6717    -1.9761     0.4516
H    -1.9421    -2.2376    -1.0499
H    -0.2723     2.8239     0.5950
H    -1.1337     1.6167     1.7573
H     2.6683     0.0957     1.6306
H     1.6654     0.9221    -1.9280
H     2.5036    -1.4935     0.8428
H     1.2506    -0.9141     1.9586
H     2.9796     1.0777    -0.7485
H     2.6497    -0.4990    -1.5051
22
Frame 36: 36
C    -0.9097    -1.0485     0.2219
C     1.2213     0.0560     0.0204
C    -0.7967     1.8667     0.7412
C     1.9540    -0.6012     1.1847
C     2.1834     0.4190    -1.1043
N     0.1794    -0.8762    -0.5333
N    -2.0528    -1.5868    -0.2765
O    -1.5211     1.5133    -0.3608
H    -2.0767     0.7191    -0.1351
H    -0.0751    -0.5886    -1.4896
H    -0.9128    -0.6715     1.2482
H     0.7049     0.9540     0.3786
H    -2.6715    -1.9758     0.4399
H    -1.9384    -2.2387    -1.0589
H    -0.2821     2.8237     0.6025
H    -1.1264     1.6056     1.7589
H     2.6643     0.1028     1.6337
H     1.6645     0.9275    -1.9251
H     2.5040    -1.4876     0.8477
H     1.2480    -0.9092     1.9608
H     2.9753     1.0870    -0.7429
H     2.6532    -0.4901    -1.5011
22
Frame 37: 37
C    -0.9069    -1.0534     0.2168
C     1.2203     0.0582     0.0215
C    -0.7970     1.8625     0.7436
C     1.9522    -0.5960     1.1877
C     2.1827     0.4257    -1.1008
N     0.1837    -0.8778    -0.5349
N    -2.0498    -1.5872    -0.2860
O    -1.5269     1.5107    -0.3552
H    -2.0696     0.7103    -0.1355
H    -0.0681    -0.5919    -1.4922
H    -0.9118    -0.6802     1.2440
H     0.6978     0.9558     0.3796
H    -2.6712    -1.9756     0.4282
H    -1.9347    -2.2397    -1.0678
H    -0.2919     2.8235     0.6100
H    -1.1192     1.5945     1.7605
H     2.6603     0.1099     1.6369
H     1.6635     0.9329    -1.9222
H     2.5044    -1.4816     0.8527
H     1.2455    -0.9044     1.9630
H     2.9710     1.0963    -0.7373
H     2.6567    -0.4811    -1.4971
22
Frame 38: 38
C    -0.9041    -1.0582     0.2117
C     1.2193     0.0603     0.0227
C    -0.7973     1.8583     0.7460
C     1.9504    -0.5909     1.1908
C     2.1821     0.4324    -1.0973
N     0.1879    -0.8795    -0.5365
N    -2.0469    -1.5877    -0.2955
O    -1.5326     1.5081    -0.3495
H    -2.0625     0.7016    -0.1359
H    -0.0612    -0.5951    -1.4948
H    -0.9108    -0.6889     1.2397
H     0.6907     0.9576     0.3805
H    -2.6709    -1.9753     0.4166
H    -1.9310    -2.2408    -1.0767
H    -0.3016     2.8234     0.6174
H    -1.1120     1.5835     1.7621
H     2.6563     0.1169     1.6400
H     1.6626     0.9382    -1.9193
H     2.5047    -1.4757     0.8576
H     1.2430    -0.8995     1.9652
H     2.9667     1.1056    -0.7317
H     2.6601    -0.4721    -1.4930
22
Frame 39: 39
C    -0.9012    -1.0630     0.2066
C     1.2183     0.0625     0.0238
C    -0.7976     1.8541     0.7485
C     1.9486    -0.5857     1.1938
C     2.1814     0.4391    -1.0938
N     0.1922    -0.8811    -0.5381
N    -2.0439    -1.5881    -0.3050
O    -1.5384     1.5055    -0.3438
H    -2.0554     0.6928    -0.1363
H    -0.0543    -0.5983    -1.4974
H    -0.9098    -0.6976     1.2354
H     0.6836     0.9594     0.3815
H    -2.6707    -1.9751     0.4049
H    -1.9273    -2.2419    -1.0856
H    -0.3114     2.8232     0.6249
H    -1.1048     1.5724     1.7637
H     2.6523     0.1240     1.6432
H     1.6616     0.9436    -1.9164
H     2.5051    -1.4697     0.8625
H     1.2404    -0.8946     1.9674
H     2.9625     1.1148    -0.7261
H     2.6636    -0.4631    -1.4890
22
Frame 40: 40
C    -0.8984    -1.0679     0.2015
C     1.2173     0.0647     0.0249
C    -0.7979     1.8499     0.7509
C     1.9468    -0.5806     1.1968
C     2.1808     0.4458    -1.0903
N     0.1965    -0.8827    -0.5396
N    -2.0409    -1.5886    -0.3145
O    -1.5441     1.5029    -0.3381
H    -2.0482     0.6840    -0.1367
H    -0.0473    -0.6015    -1.5000
H    -0.9088    -0.7063     1.2312
H     0.6765     0.9612     0.3824
H    -2.6704    -1.9748     0.3932
H    -1.9236    -2.2429    -1.0946
H    -0.3212     2.8230     0.6324
H    -1.0976     1.5613     1.7654
H     2.6484     0.1311     1.6463
H     1.6607     0.9490    -1.9135
H     2.5055    -1.4638     0.8675
H     1.2379    -0.8898     1.9696
H     2.9582     1.1241    -0.7204
H     2.6670    -0.4542    -1.4850
22
Frame 41: 41
C    -0.8956    -1.0727     0.1963
C     1.2163     0.0669     0.0261
C    -0.7982     1.8458     0.7534
C     1.9450    -0.5754     1.1998
C     2.1801     0.4525    -1.0869
N     0.2008    -0.8843    -0.5412
N    -2.0379    -1.5891    -0.3240
O    -1.5499     1.5003    -0.3325
H    -2.0411     0.6752    -0.1371
H    -0.0404    -0.6048    -1.5026
H    -0.9078    -0.7150     1.2269
H     0.6694     0.9630     0.3834
H    -2.6701    -1.9746     0.3815
H    -1.9199    -2.2440    -1.1035
H    -0.3310     2.8228     0.6398
H    -1.0903     1.5502     1.7670
H     2.6444     0.1382     1.6495
H     1.6597     0.9544    -1.9106
H     2.5059    -1.4578     0.8724
H     1.2354    -0.8849     1.9718
H     2.9539     1.1334    -0.7148
H     2.6705    -0.4452    -1.4810
22
Frame 42: 42
C    -0.8928    -1.0776     0.1912
C     1.2153     0.0691     0.0272
C    -0.7985     1.8416     0.7558
C     1.9432    -0.5702     1.2028
C     2.1794     0.4592    -1.0834
N     0.2051    -0.8860    -0.5428
N    -2.0349    -1.5895    -0.3335
O    -1.5556     1.4977    -0.3268
H    -2.0340     0.6665    -0.1375
H    -0.0334    -0.6080    -1.5053
H    -0.9068    -0.7237     1.2226
H     0.6623     0.9648     0.3844
H    -2.6699    -1.9743     0.3698
H    -1.9162    -2.2450    -1.1124
H    -0.3408     2.8226     0.6473
H    -1.0831     1.5391     1.7686
H     2.6404     0.1452     1.6526
H     1.6588     0.9598    -1.9078
H     2.5062    -1.4518     0.8773
H     1.2329    -0.8801     1.9740
H     2.9496     1.1427    -0.7092
H     2.6739    -0.4362    -1.4770
22
Frame 43: 43
C    -0.8900    -1.0824     0.1861
C     1.2143     0.0713     0.0284
C    -0.7988     1.8374     0.7582
C     1.9414    -0.5651     1.2058
C     2.1788     0.4658    -1.0799
N     0.2093    -0.8876    -0.5444
N    -2.0319    -1.5900    -0.3431
O    -1.5613     1.4951    -0.3211
H    -2.0268     0.6577    -0.1379
H    -0.0265    -0.6112    -1.5079
H    -0.9058    -0.7324     1.2184
H     0.6552     0.9666     0.3853
H    -2.6696    -1.9741     0.3582
H    -1.9125    -2.2461    -1.1213
H    -0.3505     2.8225     0.6548
H    -1.0759     1.5280     1.7702
H     2.6364     0.1523     1.6557
H     1.6579     0.9652    -1.9049
H     2.5066    -1.4459     0.8823
H     1.2303    -0.8752     1.9762
H     2.9453     1.1519    -0.7036
H     2.6774    -0.4272    -1.4729
22
Frame 44: 44
C    -0.8872    -1.0873     0.1810
C     1.2133     0.0735     0.0295
C    -0.7991     1.8332     0.7607
C     1.9396    -0.5599     1.2088
C     2.1781     0.4725    -1.0764
N     0.2136    -0.8892    -0.5460
N    -2.0289    -1.5905    -0.3526
O    -1.5671     1.4925    -0.3154
H    -2.0197     0.6489    -0.1383
H    -0.0196    -0.6144    -1.5105
H    -0.9048    -0.7411     1.2141
H     0.6481     0.9683     0.3863
H    -2.6694    -1.9738     0.3465
H    -1.9088    -2.2471    -1.1302
H    -0.3603     2.8223     0.6622
H    -1.0687     1.5169     1.7719
H     2.6324     0.1594     1.6589
H     1.6569     0.9706    -1.9020
H     2.5070    -1.4399     0.8872
H     1.2278    -0.8703     1.9783
H     2.9411     1.1612    -0.6980
H     2.6808    -0.4182    -1.4689
22
Frame 45: 45
C    -0.8844    -1.0921     0.1758
C     1.2123     0.0757     0.0307
C    -0.7994     1.8290     0.7631
C     1.9378    -0.5548     1.2118
C     2.1775     0.4792    -1.0729
N     0.2179    -0.8908    -0.5475
N    -2.0259    -1.5909    -0.3621
O    -1.5728     1.4899    -0.3098
H    -2.0126     0.6401    -0.1387
H    -0.0126    -0.6177    -1.5131
H    -0.9038    -0.7498     1.2098
H     0.6411     0.9701     0.3872
H    -2.6691    -1.9736     0.3348
H    -1.9051    -2.2482    -1.1392
H    -0.3701     2.8221     0.6697
H    -1.0614     1.5058     1.7735
H     2.6285     0.1665     1.6620
H     1.6560     0.9760    -1.8991
H     2.5074    -1.4340     0.8921
H     1.2253    -0.8655     1.9805
H     2.9368     1.1705    -0.6924
H     2.6843    -0.4093    -1.4649
22
Frame 46: 46
C    -0.8816    -1.0970     0.1707
C     1.2113     0.0779     0.0318
C    -0.7997     1.8248     0.7655
C     1.9360    -0.5496     1.2148
C     2.1768     0.4859    -1.0694
N     0.2222    -0.8925    -0.5491
N    -2.0229    -1.5914    -0.3716
O    -1.5786     1.4873    -0.3041
H    -2.0054     0.6314    -0.1391
H    -0.0057    -0.6209    -1.5157
H    -0.9028    -0.7586     1.2055
H     0.6340     0.9719     0.3882
H    -2.6688    -1.9733     0.3231
H    -1.9014    -2.2492    -1.1481
H    -0.3799     2.8219     0.6772
H    -1.0542     1.4947     1.7751
H     2.6245     0.1735     1.6652
H     1.6550     0.9814    -1.8962
H     2.5077    -1.4280     0.8970
H     1.2227    -0.8606     1.9827
H     2.9325     1.1797    -0.6868
H     2.6877    -0.4003    -1.4609
22
Frame 47: 47
C    -0.8787    -1.1018     0.1656
C     1.2103     0.0800     0.0329
C    -0.8000     1.8206     0.7680
C     1.9342    -0.5444     1.2179
C     2.1761     0.4926    -1.0659
N     0.2265    -0.8941    -0.5507
N    -2.0200    -1.5918    -0.3811
O    -1.5843     1.4847    -0.2984
H    -1.9983     0.6226    -0.1395
H     0.0012    -0.6241    -1.5183
H    -0.9018    -0.7673     1.2013
H     0.6269     0.9737     0.3892
H    -2.6686    -1.9731     0.3114
H    -1.8977    -2.2503    -1.1570
H    -0.3897     2.8217     0.6846
H    -1.0470     1.4836     1.7767
H     2.6205     0.1806     1.6683
H     1.6541     0.9868    -1.8933
H     2.5081    -1.4220     0.9020
H     1.2202    -0.8557     1.9849
H     2.9282     1.1890    -0.6812
H     2.6912    -0.3913    -1.4569
22
Frame 48: 48
C    -0.8759    -1.1067     0.1605
C     1.2093     0.0822     0.0341
C    -0.8003     1.8165     0.7704
C     1.9324    -0.5393     1.2209
C     2.1755     0.4993    -1.0625
N     0.2308    -0.8957    -0.5523
N    -2.0170    -1.5923    -0.3906
O    -1.5901     1.4821    -0.2927
H    -1.9912     0.6138    -0.1399
H     0.0082    -0.6273    -1.5209
H    -0.9008    -0.7760     1.1970
H     0.6198     0.9755     0.3901
H    -2.6683    -1.9728     0.2997
H    -1.8940    -2.2513    -1.1659
H    -0.3995     2.8215     0.6921
H    -1.0398     1.4725     1.7783
H     2.6165     0.1877     1.6715
H     1.6531     0.9922    -1.8905
H     2.5085    -1.4161     0.9069
H     1.2177    -0.8509     1.9871
H     2.9239     1.1983    -0.6755
H     2.6946    -0.3823    -1.4529
22
Frame 49: 49
C    -0.8731    -1.1115     0.1553
C     1.2083     0.0844     0.0352
C    -0.8006     1.8123     0.7728
C     1.9306    -0.5341     1.2239
C     2.1748     0.5060    -1.0590
N     0.2350    -0.8973    -0.5538
N    -2.0140    -1.5928    -0.4001
O    -1.5958     1.4795    -0.2871
H    -1.9841     0.6050    -0.1403
H     0.0151    -0.6306    -1.5235
H    -0.8998    -0.7847     1.1927
H     0.6127     0.9773     0.3911
H    -2.6680    -1.9726     0.2881
H    -1.8903    -2.2524    -1.1749
H    -0.4092     2.8214     0.6996
H    -1.0325     1.4614     1.7800
H     2.6126     0.1948     1.6746
H     1.6522     0.9976    -1.8876
H     2.5089    -1.4101     0.9118
H     1.2152    -0.8460     1.9893
H     2.9197     1.2076    -0.6699
H     2.6981    -0.3734    -1.4488
22
Frame 50: 50
C    -0.8703    -1.1164     0.1502
C     1.2073     0.0866     0.0364
C    -0.8009     1.8081     0.7753
C     1.9288    -0.5290     1.2269
C     2.1742     0.5127    -1.0555
N     0.2393    -0.8990    -0.5554
N    -2.0110    -1.5932    -0.4096
O    -1.6016     1.4769    -0.2814
H    -1.9769     0.5963    -0.1407
H     0.0221    -0.6338    -1.5261
H    -0.8988    -0.7934     1.1885
H     0.6056     0.9791     0.3920
H    -2.6678    -1.9723     0.2764
H    -1.8866    -2.2534    -1.1838
H    -0.4190     2.8212     0.7070
H    -1.0253     1.4503     1.7816
H     2.6086     0.2018     1.6778
H     1.6512     1.0030    -1.8847
H     2.5092    -1.4042     0.9168
H     1.2126    -0.8412     1.9915
H     2.9154     1.2168    -0.6643
H     2.7015    -0.3644    -1.4448
22
Frame 51: 51
C    -0.8675    -1.1212     0.1451
C     1.2063     0.0888     0.0375
C    -0.8012     1.8039     0.7777
C     1.9270    -0.5238     1.2299
C     2.1735     0.5194    -1.0520
N     0.2436    -0.9006    -0.5570
N    -2.0080    -1.5937    -0.4191
O    -1.6073     1.4743    -0.2757
H    -1.9698     0.5875    -0.1411
H     0.0290    -0.6370    -1.5287
H    -0.8978    -0.8021     1.1842
H     0.5985     0.9809     0.3930
H    -2.6675    -1.9721     0.2647
H    -1.8829    -2.2545    -1.1927
H    -0.4288     2.8210     0.7145
H    -1.0181     1.4392     1.7832
H     2.6046     0.2089     1.6809
H     1.6503     1.0084    -1.8818
H     2.5096    -1.3982     0.9217
H     1.2101    -0.8363     1.9937
H     2.9111     1.2261    -0.6587
H     2.7050    -0.3554    -1.4408
