23
Image 0  Energy = -756.5743474895
Al -1.8003100000  1.7367500000 -0.0279900000
O  -0.3629600000  1.2533000000 -1.1251800000
H  -0.0951600000  2.0429800000 -1.6610700000
O  -2.0737800000  3.2555800000 -1.0860300000
H  -1.8694200000  4.0695000000 -0.5593600000
O  -2.9435300000  0.7881900000 -1.1771200000
H  -2.4836900000 -0.0366700000 -1.4778800000
O  -1.5435900000  0.2053000000  1.0333900000
H  -0.5862000000 -0.0479000000  1.0513500000
O  -3.2213600000  2.2136100000  1.0966900000
H  -3.7364800000  2.9812400000  0.7446800000
O  -0.6672100000  2.7084800000  1.0952100000
H  -0.1384700000  2.0974900000  1.6644600000
H  -3.0352900000  3.3298900000 -1.3092100000
H  -3.8709600000  1.4738200000  1.1831700000
H  -3.7558400000  0.4701600000 -0.7145700000
H  -1.9963900000 -0.5784300000  0.6382600000
H   0.4314400000  1.0693300000 -0.5641300000
H   0.0063800000  3.1738000000  0.5357100000
N   2.5738800000  3.9537900000 -1.0958100000
H   3.6179500000  3.9363600000 -1.0723800000
H   2.2384900000  4.3284500000 -0.1804200000
H   2.2382200000  2.9685200000 -1.1816800000
23
Image 1  Energy = -756.5736527200
Al -1.8001058763  1.7365779615 -0.0280632163
O  -0.3635775264  1.2528593852 -1.1254251159
H  -0.0952330732  2.0433504926 -1.6607951104
O  -2.0733217763  3.2551079390 -1.0865645330
H  -1.8693674151  4.0694353117 -0.5588719056
O  -2.9434375592  0.7889670922 -1.1775325978
H  -2.4833680917 -0.0369297877 -1.4774841910
O  -1.5440334597  0.2057895065  1.0338317108
H  -0.5857853345 -0.0476249750  1.0509995372
O  -3.2206502217  2.2137758209  1.0971795179
H  -3.7364456005  2.9814247903  0.7441371459
O  -0.6679954533  2.7087207188  1.0955064967
H  -0.1383658579  2.0969344463  1.6641957387
H  -3.0356668075  3.3297010717 -1.3087964854
H  -3.8709731330  1.4733845551  1.1827099672
H  -3.7558278038  0.4701359803 -0.7140024080
H  -1.9965834050 -0.5783933177  0.6377663547
H   0.4314525365  1.0694745126 -0.5635366174
H   0.0063765068  3.1736528588  0.5351990289
N   2.5741873937  3.9541049859 -1.0962671011
H   3.6185553756  3.9363962357 -1.0723929606
H   2.2381058825  4.3286143216 -0.1799519576
H   2.2377807003  2.9680800938 -1.1817512977
23
Image 2  Energy = -756.6042071549
Al -1.8147835101  1.7485607271 -0.0217238337
O  -0.3339539661  1.2885309984 -1.1093173792
H  -0.0825962820  2.0181829448 -1.6933538896
O  -2.1031480379  3.2770161358 -1.0442518961
H  -1.8717953583  4.0943941146 -0.5944849157
O  -2.9404835754  0.7435682513 -1.1428685781
H  -2.5066591642 -0.0295248967 -1.5202996413
O  -1.5183468624  0.1828520354  0.9983639404
H  -0.6024756874 -0.0806274406  1.0847100333
O  -3.2585279642  2.1994180417  1.0566014893
H  -3.7516409078  2.9786750905  0.7890189874
O  -0.6226731907  2.6870917890  1.0701059334
H  -0.1374718720  2.1399431935  1.6987859303
H  -3.0160410230  3.3511451507 -1.3514377478
H  -3.8864009498  1.4981430781  1.2287561990
H  -3.7743898899  0.4633341352 -0.7586704525
H  -1.9850428559 -0.5958947990  0.6779301171
H   0.4495295482  1.0526396265 -0.6074731045
H   0.0224005505  3.1962257594  0.5729335549
N   2.5557792062  3.9343242248 -1.0701637431
H   3.5666266556  3.9343190519 -1.0724691541
H   2.2660656547  4.3192746032 -0.2055279814
H   2.2717483151  2.9919480019 -1.1750748389
23
Image 3  Energy = -756.6234703947
Al -1.8208760308  1.7534203612 -0.0175247473
O  -0.3209626996  1.3169657121 -1.0971186328
H  -0.0661745753  2.0015428343 -1.7316596085
O  -2.1256412912  3.2877454825 -1.0086001330
H  -1.8717317816  4.1305567102 -0.6244036357
O  -2.9336701886  0.7136120385 -1.1115612969
H  -2.5249070591 -0.0318325828 -1.5669100922
O  -1.5021550532  0.1727388607  0.9683819235
H  -0.6028926012 -0.1160730062  1.1203902041
O  -3.2826792617  2.1851980525  1.0218548529
H  -3.7731481277  2.9876166462  0.8297943848
O  -0.5946902829  2.6663698690  1.0511527085
H  -0.1319217494  2.1775962316  1.7391910781
H  -3.0058728898  3.3741452366 -1.3967808258
H  -3.9105970753  1.5114663470  1.2782165300
H  -3.8018860451  0.4528666205 -0.7993212243
H  -1.9805307533 -0.6215771939  0.7133045254
H   0.4762303526  1.0338659973 -0.6452054794
H   0.0479500805  3.2249281514  0.6027227189
N   2.5401264652  3.9330541881 -1.0695481270
H   3.5386453802  3.9349604723 -1.0753610766
H   2.2807543153  4.3212542414 -0.2010691907
H   2.2923493581  2.9831185089 -1.1698561181
23
Image 4  Energy = -756.6455207029
Al -1.7892006622  1.7233510565 -0.0153848537
O  -0.2834573479  1.4198656372 -1.1149982597
H  -0.0076786736  1.9321529967 -1.8664893572
O  -2.2158415185  3.3497353171 -0.9115991002
H  -1.8673347809  4.2654665316 -0.7415254491
O  -2.9041873984  0.5880354630 -1.0447780407
H  -2.6002568579 -0.0206253371 -1.7322106006
O  -1.4188861804  0.1047995555  0.8915268734
H  -0.5974199936 -0.2245707730  1.2668977395
O  -3.4156847005  2.1411948129  0.9297734584
H  -3.8367711888  3.0280863826  0.9822266323
O  -0.4827348242  2.6350074264  1.0186852978
H  -0.1186115507  2.3153913803  1.9000917561
H  -2.9578631434  3.4575384597 -1.5635232826
H  -3.9895369554  1.5475357438  1.4782165300
H  -3.9083674887  0.4204463368 -0.9534856754
H  -1.9879014404 -0.7073888349  0.8363539721
H   0.5659708839  0.9627843194 -0.7832304036
H   0.1220026744  3.3128381120  0.7170984305
N   2.4184325576  3.9425816306 -1.1134064891
H   3.5572875328  3.9625965520 -1.1114804475
H   2.3041740893  4.3273986330 -0.1326194557
H   2.3395843468  2.9093180408 -1.1260514915
23
Image 5  Energy = -756.6601260015
Al -1.7895740370  1.7264133862 -0.0161211053
O  -0.2672110293  1.3873546120 -1.1045212700
H  -0.0001294299  1.9484112543 -1.8919587461
O  -2.2168472747  3.3618758572 -0.9252524183
H  -1.8698212785  4.2603089859 -0.7435570340
O  -2.9410918167  0.5909624756 -1.0489204255
H  -2.5948178670 -0.0296748418 -1.7433821061
O  -1.4344271335  0.0945855102  0.8979609239
H  -0.5789191011 -0.2289336709  1.2773537618
O  -3.4206589093  2.1343245071  0.9463017290
H  -3.8363921488  3.0285333922  0.9821222654
O  -0.4937418736  2.6171750235  1.0615319727
H  -0.1266211817  2.3263265155  1.8885589888
H  -2.9513158089  3.4579096985 -1.5600807454
H  -3.9863311535  1.5501188021  1.4781509405
H  -3.8830283858  0.4261660135 -0.9573451338
H  -1.9849299389 -0.7001938513  0.8360510841
H   0.5447437094  0.9739011389 -0.7939385343
H   0.1395363028  3.3286613807  0.7073724438
N   2.4800049089  3.9468249753 -1.1009877963
H   3.5048805753  3.9693604101 -1.1212904472
H   2.2985750967  4.3160017246 -0.1414450162
H   2.3338350733  2.9071261441 -1.1165156162
23
Image 6  Energy = -756.6655240629
Al -1.7914287325  1.7258170006 -0.0153943901
O  -0.2690451343  1.3921960758 -1.1228462117
H  -0.0037092851  1.9440736070 -1.8838678294
O  -2.2133192755  3.3632247602 -0.9293784660
H  -1.8704318261  4.2562564230 -0.7432907418
O  -2.9335179856  0.5893012529 -1.0621696057
H  -2.5968091785 -0.0249764288 -1.7366353161
O  -1.4258491380  0.0913157111  0.9072589167
H  -0.5838408308 -0.2236815870  1.2750479150
O  -3.4208833093  2.1387784185  0.9518542138
H  -3.8320343019  3.0232970643  0.9800664415
O  -0.4918732637  2.6333141677  1.0550436749
H  -0.1250710753  2.3229178169  1.8969110306
H  -2.9509101533  3.4567452089 -1.5579528407
H  -3.9841032897  1.5487883583  1.4773707056
H  -3.8862815404  0.4274862169 -0.9553928741
H  -1.9875511103 -0.6994697675  0.8335539623
H   0.5454666530  0.9725724439 -0.7911566246
H   0.1300340184  3.3169191520  0.7101681422
N   2.4813246693  3.9374430210 -1.0920759282
H   3.5036742786  3.9729320376 -1.1251627383
H   2.2983218024  4.3100483836 -0.1494191659
H   2.3335551989  2.9182400853 -1.1124446514
23
Image 7  Energy = -756.6682758741
Al -1.7913283799  1.7232218385 -0.0140513695
O  -0.2596968975  1.4042950827 -1.1399908644
H   0.0051707172  1.9332361016 -1.9085304373
O  -2.2241671169  3.3750527092 -0.9184707106
H  -1.8703784678  4.2747370599 -0.7645490255
O  -2.9316155998  0.5701240949 -1.0619213481
H  -2.6094781749 -0.0231555083 -1.7649784084
O  -1.4086419658  0.0753382785  0.9039049739
H  -0.5818102201 -0.2394781988  1.3029137043
O  -3.4411126477  2.1312793109  0.9440983161
H  -3.8385287633  3.0251871916  1.0050614396
O  -0.4734839551  2.6376388564  1.0566916143
H  -0.1254419980  2.3487793754  1.9290693415
H  -2.9407816677  3.4703561087 -1.5850972702
H  -3.9945160602  1.5548465119  1.5126671378
H  -3.8997849299  0.4259252598 -0.9824481877
H  -1.9895263323 -0.7112096083  0.8529419657
H   0.5536743883  0.9622942680 -0.8173018004
H   0.1373777542  3.3236405912  0.7306925900
N   2.4758247391  3.9269077566 -1.0828661133
H   3.4897062074  3.9845340925 -1.1396569104
H   2.3023695586  4.2996028027 -0.1518555320
H   2.3418866624  2.9203853705 -1.0962357777
23
Image 8  Energy = -756.6709282925
Al -1.7897093476  1.7188669820 -0.0136549266
O  -0.2524029569  1.4083430425 -1.1685105568
H   0.0137440373  1.9257296867 -1.9380875160
O  -2.2362843294  3.3910901571 -0.9213576718
H  -1.8699169437  4.2870308827 -0.7865869433
O  -2.9347351322  0.5514411750 -1.0772151749
H  -2.6223926094 -0.0183173991 -1.7910345517
O  -1.3910972566  0.0539214536  0.9106855352
H  -0.5778955609 -0.2511229028  1.3349142708
O  -3.4662986842  2.1224624893  0.9526060311
H  -3.8376972724  3.0204477420  1.0279345839
O  -0.4597287325  2.6433867881  1.0788442100
H  -0.1331267264  2.3801465596  1.9582687026
H  -2.9227641489  3.4813291761 -1.6057459023
H  -3.9959718300  1.5631630465  1.5456157791
H  -3.9049838742  0.4300755135 -1.0104176148
H  -1.9908362727 -0.7168126293  0.8703974628
H   0.5535091610  0.9538222495 -0.8469064532
H   0.1434120408  3.3268239025  0.7487617639
N   2.4677783989  3.9140483996 -1.0736410169
H   3.4843921154  4.0057631026 -1.1655219268
H   2.3018935242  4.2843251048 -0.1492404132
H   2.3468289403  2.9175747464 -1.0700206115
23
Image 9  Energy = -756.6733203125
Al -1.7891482807  1.7152111492 -0.0134560216
O  -0.2517657976  1.4078113886 -1.1923629149
H   0.0229427986  1.9226251433 -1.9749093157
O  -2.2410417023  3.4038537169 -0.9208801026
H  -1.8683792826  4.2956005189 -0.8089874832
O  -2.9381820555  0.5423073126 -1.0891215082
H  -2.6323462637 -0.0171937056 -1.8236967980
O  -1.3776776196  0.0391679124  0.9162082294
H  -0.5725855147 -0.2630696436  1.3712314325
O  -3.4803534892  2.1129714323  0.9598670208
H  -3.8348917690  3.0147787800  1.0505021548
O  -0.4585908244  2.6456112013  1.0961890153
H  -0.1418745747  2.4128637233  1.9963231908
H  -2.9075576652  3.4910117379 -1.6304130452
H  -3.9970295474  1.5682340268  1.5828599389
H  -3.9076432826  0.4373947450 -1.0394946814
H  -1.9895308213 -0.7214611041  0.8882906784
H   0.5495195169  0.9452533578 -0.8802604978
H   0.1514369353  3.3306504371  0.7655003229
N   2.4669711234  3.9071370400 -1.0681871992
H   3.4688208697  4.0307481120 -1.1972813583
H   2.3011796037  4.2695840602 -0.1394456857
H   2.3534439247  2.9024478527 -1.0383885495
23
Image 10  Energy = -756.6762524400
Al -1.7887638130  1.7112160485 -0.0149692323
O  -0.2639137860  1.4039045489 -1.2280350932
H   0.0252614005  1.9220520444 -2.0092160752
O  -2.2401080990  3.3989682996 -0.9312821925
H  -1.8591767658  4.3015040608 -0.8267024827
O  -2.9351575209  0.5506742332 -1.1123445346
H  -2.6374537194 -0.0153527556 -1.8553327654
O  -1.3683560597  0.0376031862  0.9288426503
H  -0.5698798559 -0.2678757286  1.4107514905
O  -3.4716379404  2.0947613365  0.9784063242
H  -3.8249067251  3.0089967156  1.0674114362
O  -0.4713950014  2.6463304432  1.1304072445
H  -0.1656809531  2.4512476320  2.0276805713
H  -2.8903747396  3.4934993490 -1.6501599751
H  -3.9873879664  1.5689691189  1.6188736538
H  -3.9049205859  0.4542231666 -1.0663475284
H  -1.9838486895 -0.7211412147  0.9028671772
H   0.5339475820  0.9366113992 -0.9175591162
H   0.1528726646  3.3241230157  0.7777710476
N   2.4535323234  3.8888316926 -1.0592433594
H   3.4535917256  4.0670957678 -1.2451074475
H   2.3019607035  4.2533476569 -0.1222686880
H   2.3675118921  2.8839491058 -0.9943564883
23
Image 11  Energy = -756.6798966150
Al -1.7878162582  1.7080084739 -0.0180640972
O  -0.2869973052  1.3911455363 -1.2566302392
H   0.0179150150  1.9297815608 -2.0320754957
O  -2.2219039060  3.3889965768 -0.9474903870
H  -1.8490416175  4.2852533467 -0.8325429655
O  -2.9301846002  0.5777668220 -1.1434940013
H  -2.6334203857 -0.0116308773 -1.8715681660
O  -1.3687599576  0.0500425757  0.9478668951
H  -0.5735899227 -0.2587802119  1.4375619029
O  -3.4410543721  2.0856809426  1.0073097327
H  -3.8033784388  2.9923869461  1.0682208584
O  -0.5006732840  2.6515009533  1.1531953014
H  -0.1972741473  2.4790303832  2.0534796410
H  -2.8800537498  3.4839026357 -1.6587584659
H  -3.9649929687  1.5624163513  1.6390530684
H  -3.8904305815  0.4788771223 -1.0800372860
H  -1.9724450309 -0.7111513611  0.9070451541
H   0.5050514845  0.9324007283 -0.9478291952
H   0.1417864507  3.3023164274  0.7814715311
N   2.4430239595  3.8744507726 -1.0473181808
H   3.4257328666  4.1013496544 -1.2939777702
H   2.3060790028  4.2402227412 -0.1053276654
H   2.3881437349  2.8595709711 -0.9500036545
23
Image 12  Energy = -756.6853153891
Al -1.7817517567  1.7035186949 -0.0244213214
O  -0.3417063828  1.3842830834 -1.3100230922
H  -0.0088204411  1.9411508920 -2.0593160909
O  -2.1917759083  3.3574335676 -0.9784296225
H  -1.8232159956  4.2557946393 -0.8378215025
O  -2.9065500012  0.6341003628 -1.1988449493
H  -2.6223287949  0.0020554761 -1.8949130172
O  -1.3715476316  0.0832661843  0.9797954229
H  -0.5862037526 -0.2327541464  1.4817431116
O  -3.3713153348  2.0664741690  1.0566470908
H  -3.7612199027  2.9639255041  1.0663090995
O  -0.5623794916  2.6519007482  1.1765746638
H  -0.2663370517  2.5288983727  2.1031282101
H  -2.8591278979  3.4591720465 -1.6706166869
H  -3.9145971256  1.5460425902  1.6736591278
H  -3.8711358051  0.5275596472 -1.1029146638
H  -1.9511285404 -0.6949483623  0.9126080090
H   0.4606403791  0.9131606820 -1.0002287143
H   0.1210628955  3.2634094793  0.7842710561
N   2.4191946896  3.8399392486 -1.0231940163
H   3.3466749427  4.1547061120 -1.3779771696
H   2.3243575419  4.2241396635 -0.0733688281
H   2.4449272023  2.8203103324 -0.8725797835
23
Image 13  Energy = -756.6887411170
Al -1.7725935227  1.7022898634 -0.0340695807
O  -0.3751391303  1.3653209196 -1.3290474019
H  -0.0569535963  1.9617728662 -2.0644182898
O  -2.1414574505  3.3143812179 -0.9937855610
H  -1.7938670272  4.2089381146 -0.8293819149
O  -2.8946619712  0.7077016391 -1.2384250649
H  -2.5965580940  0.0209595923 -1.9038794117
O  -1.3890619589  0.1276973051  1.0058459702
H  -0.6045148611 -0.1848700092  1.5073245054
O  -3.2758020832  2.0561101242  1.0967716488
H  -3.7134244042  2.9353420695  1.0504052439
O  -0.6063542543  2.6573014908  1.1879977972
H  -0.3616816945  2.5659636641  2.1150297320
H  -2.8560521205  3.4217593447 -1.6818541688
H  -3.8501351797  1.5168087027  1.6926167433
H  -3.8353159739  0.5818205208 -1.1133419031
H  -1.9276358099 -0.6747354227  0.9060883168
H   0.3915976893  0.9011767916 -1.0508983613
H   0.0798701437  3.2086652210  0.7809175430
N   2.3822328181  3.7947378335 -0.9805283073
H   3.2364716526  4.1841123849 -1.4436303774
H   2.3587520228  4.2196262848 -0.0562930213
H   2.5280006457  2.8006584135 -0.8133578497
23
Image 14  Energy = -756.6950829208
Al -1.7667397627  1.7022621973 -0.0341796717
O  -0.3773841185  1.3819786589 -1.3255252234
H  -0.0684566645  1.9592131821 -2.0591947568
O  -2.1514604419  3.3204103767 -0.9939743004
H  -1.7904843207  4.2063212185 -0.8316901197
O  -2.8886115475  0.6972428563 -1.2394616898
H  -2.5978715033  0.0371554418 -1.9000796396
O  -1.3882145493  0.1200396265  1.0005491115
H  -0.6082774690 -0.1755890966  1.5098816773
O  -3.2862548536  2.0602898768  1.0956759500
H  -3.7086055801  2.9288654722  1.0549812241
O  -0.5980290217  2.6536409857  1.1703241965
H  -0.3782394003  2.5718223490  2.1198350791
H  -2.8459517762  3.4174185990 -1.6818272909
H  -3.8364522903  1.5173340043  1.6943971739
H  -3.8416987772  0.5844334597 -1.1192706901
H  -1.9271703503 -0.6772409656  0.9084035811
H   0.4039918205  0.8845717795 -1.0571620234
H   0.0828733754  3.2121134896  0.7833408420
N   2.3747229354  3.7911252327 -0.9737081994
H   3.2004562407  4.1715193849 -1.4380638055
H   2.3712287508  4.2244192916 -0.0584808109
H   2.5523450902  2.8041914991 -0.8146843599
23
Image 15  Energy = -756.6997875796
Al -1.7563049739  1.7002041655 -0.0372135583
O  -0.3878208573  1.3961202999 -1.3350693031
H  -0.0973563710  1.9626760878 -2.0669916475
O  -2.1539959170  3.3138356149 -1.0002574306
H  -1.7732216551  4.1961606779 -0.8405558337
O  -2.8771410872  0.7076039709 -1.2538952974
H  -2.5935352955  0.0640396451 -1.9138165195
O  -1.3842481273  0.1212966287  1.0033973714
H  -0.6174374943 -0.1496295381  1.5367716264
O  -3.2690174351  2.0510849296  1.1082290615
H  -3.6896114573  2.9171066695  1.0654021918
O  -0.6061354853  2.6466641201  1.1625939238
H  -0.4391248889  2.6054620400  2.1413662761
H  -2.8237351340  3.4030086207 -1.6944918428
H  -3.7960568337  1.5092782710  1.7189539433
H  -3.8426031487  0.6086155270 -1.1430554357
H  -1.9218703774 -0.6809177821  0.9155492895
H   0.3956117150  0.8541147994 -1.0973749411
H   0.0852835051  3.2058036734  0.7879055868
N   2.3394422052  3.7614081027 -0.9461052460
H   3.1148260708  4.1780617902 -1.4714999635
H   2.4005772927  4.2247351741 -0.0476529080
H   2.6191913698  2.7968053538 -0.7821032434
23
Image 16  Energy = -756.7062868141
Al -1.7389088319  1.6982414398 -0.0404929749
O  -0.3828798439  1.4162335689 -1.3161292942
H  -0.1465990142  1.9732400052 -2.0681455919
O  -2.1644629575  3.3102634437 -0.9925960012
H  -1.7489012447  4.1839916027 -0.8524550383
O  -2.8710087855  0.7163327869 -1.2460254950
H  -2.5822243207  0.1077500012 -1.9332597332
O  -1.3828669585  0.1133356022  0.9897614844
H  -0.6294773622 -0.1021894193  1.5679706980
O  -3.2529426304  2.0413511624  1.1066154299
H  -3.6711040968  2.9098944981  1.0834284379
O  -0.5992034238  2.6305270301  1.1410739139
H  -0.5392290392  2.6473852790  2.1447379766
H  -2.7949208255  3.3816098059 -1.7159601239
H  -3.7325673260  1.4949129829  1.7496478803
H  -3.8488836022  0.6375107178 -1.1773894731
H  -1.9190606835 -0.6946951670  0.9235354741
H   0.3937612141  0.8037918670 -1.1543892056
H   0.1034183777  3.2103645629  0.7904366873
N   2.2821416922  3.7142836825 -0.9030314325
H   2.9600373232  4.1608649290 -1.4995846118
H   2.4552775741  4.2360746952 -0.0358294615
H   2.7363201771  2.8024636757 -0.7518336456
23
Image 17  Energy = -756.7098750543
Al -1.7292061074  1.6930688289 -0.0391891100
O  -0.3708583171  1.4161866122 -1.3065694706
H  -0.1992404315  1.9894256197 -2.0683108635
O  -2.1725043258  3.3091045776 -0.9876059197
H  -1.7237585307  4.1656862554 -0.8677203347
O  -2.8665527343  0.7255336857 -1.2472085888
H  -2.5682523418  0.1621312306 -1.9537797708
O  -1.3770068600  0.1031054345  0.9785290320
H  -0.6490043071 -0.0438759364  1.6018947955
O  -3.2334370900  2.0289708251  1.1114573081
H  -3.6501312787  2.8994255820  1.1045031775
O  -0.5988248324  2.6258661634  1.1373131903
H  -0.6514637495  2.6957260266  2.1282140651
H  -2.7585984738  3.3571874533 -1.7383531972
H  -3.6513955223  1.4804475166  1.7809097119
H  -3.8547443158  0.6731680480 -1.2129109124
H  -1.9121833482 -0.7097330233  0.9305897319
H   0.3841496256  0.7600816626 -1.2180945968
H   0.1289581353  3.2070691240  0.7935309114
N   2.2261187056  3.6403295414 -0.8153273752
H   2.7863616025  4.1641690178 -1.5710403940
H   2.5093698208  4.2332286141 -0.0259110201
H   2.8579198543  2.8172358099 -0.7048346559
23
Image 18  Energy = -756.7136348140
Al -1.7373562168  1.6916185295 -0.0301538965
O  -0.3231013833  1.4073882029 -1.2798706018
H  -0.1877827156  1.9849129116 -2.0529503204
O  -2.1991687589  3.3309347840 -0.9629518955
H  -1.7353662461  4.1899506025 -0.8751175940
O  -2.8899875252  0.6897949147 -1.2048905721
H  -2.5718596886  0.1642567174 -1.9583664090
O  -1.3655316663  0.0749816723  0.9516573972
H  -0.6469817516 -0.0481804030  1.5885025059
O  -3.2771234858  2.0327656848  1.0752695810
H  -3.6814053488  2.9225763407  1.1198948529
O  -0.5643057655  2.6299467814  1.1297389759
H  -0.6296909336  2.6824326720  2.0874087412
H  -2.7573939006  3.3727861358 -1.7434980583
H  -3.6633224134  1.4886641757  1.7763573733
H  -3.8715145216  0.6488697098 -1.2119271536
H  -1.9249826746 -0.7325906589  0.9321926287
H   0.4123304871  0.7692978302 -1.2046175473
H   0.1663039469  3.2348841633  0.7951523842
N   2.2508383394  3.6413552629 -0.8079854763
H   2.7765250243  4.1315841052 -1.5439756091
H   2.5055243924  4.2332922613 -0.0378149193
H   2.8410679497  2.8520162781 -0.7319686357
23
Image 19  Energy = -756.7167830406
Al -1.7324396153  1.6886257828 -0.0305065500
O  -0.3189841297  1.4075127728 -1.2774510731
H  -0.2063750652  1.9879278755 -2.0531920610
O  -2.1946859700  3.3301427502 -0.9513833098
H  -1.7259004455  4.1827644202 -0.8850615321
O  -2.8963833331  0.6943240823 -1.2034791300
H  -2.5661013571  0.1865883891 -1.9742458851
O  -1.3673197616  0.0698951786  0.9421722947
H  -0.6538844182 -0.0266943293  1.6097164325
O  -3.2669558031  2.0322764836  1.0729126476
H  -3.6731265402  2.9147828829  1.1329926612
O  -0.5534290123  2.6359777820  1.1109716048
H  -0.6791728963  2.7113887071  2.0931242783
H  -2.7457682897  3.3651546062 -1.7646989446
H  -3.6305909596  1.4802944966  1.7992159924
H  -3.8679360501  0.6650581170 -1.2304442367
H  -1.9167270911 -0.7381814731  0.9383660949
H   0.4060343065  0.7528574300 -1.2388424457
H   0.1708279780  3.2228230516  0.8042322529
N   2.2312297343  3.6252566531 -0.7886364802
H   2.6786400330  4.1259732724 -1.5684290703
H   2.5317565552  4.2342906486 -0.0235264864
H   2.9030071280  2.8444990325 -0.7037214137
23
Image 20  Energy = -756.7184653612
Al -1.7341951014  1.6880600984 -0.0320442404
O  -0.3308480346  1.4020124819 -1.2865593006
H  -0.1990526431  1.9869077787 -2.0547957024
O  -2.1881655858  3.3268067489 -0.9602398562
H  -1.7269285091  4.1792120763 -0.8842020050
O  -2.8924130678  0.6986045799 -1.2165441117
H  -2.5677521930  0.1849917642 -1.9715857623
O  -1.3679186168  0.0760779058  0.9491487909
H  -0.6568670552 -0.0307975964  1.6093407358
O  -3.2605260257  2.0309025557  1.0837917849
H  -3.6705586008  2.9099835291  1.1307619971
O  -0.5637612179  2.6401079224  1.1215913395
H  -0.6732682721  2.7154080230  2.0914484555
H  -2.7457470053  3.3655115914 -1.7606842416
H  -3.6304602776  1.4824119913  1.7969148026
H  -3.8644960551  0.6678045517 -1.2278178085
H  -1.9105272835 -0.7329310317  0.9380981524
H   0.4000150162  0.7594713369 -1.2398852663
H   0.1672192990  3.2128729402  0.8049911906
N   2.2414062242  3.6272261398 -0.7895762721
H   2.6796632508  4.1356700322 -1.5794915156
H   2.5264917252  4.2303923676 -0.0180728478
H   2.8944050295  2.8368308352 -0.6945026740
23
Image 21  Energy = -756.7201908946
Al -1.7355661287  1.6865064680 -0.0333508991
O  -0.3407465692  1.3950050418 -1.2898114414
H  -0.1914651689  1.9859784757 -2.0519120815
O  -2.1859098501  3.3231875265 -0.9662475553
H  -1.7256524923  4.1794233930 -0.8876652905
O  -2.8916088350  0.7016375294 -1.2197635382
H  -2.5677163655  0.1907597135 -1.9783101879
O  -1.3661667298  0.0797416025  0.9482594224
H  -0.6643168163 -0.0288183884  1.6132461642
O  -3.2546801092  2.0293248366  1.0883359033
H  -3.6727200948  2.9068548543  1.1368860082
O  -0.5707039401  2.6439539702  1.1237930142
H  -0.6806867404  2.7328604039  2.0817434052
H  -2.7393284598  3.3665483092 -1.7616741142
H  -3.6194853909  1.4830841698  1.8027013914
H  -3.8658177907  0.6719807684 -1.2311757629
H  -1.9011835287 -0.7356373481  0.9399526995
H   0.3991771655  0.7611464046 -1.2526371273
H   0.1791562652  3.2018223235  0.8082690954
N   2.2544969035  3.6195582245 -0.7785824182
H   2.6329341159  4.1360862810 -1.5963509283
H   2.5302560204  4.2273427012 -0.0073052983
H   2.9034495010  2.8351913587 -0.6783148479
23
Image 22  Energy = -756.7218740562
Al -1.7386344495  1.6858534682 -0.0354542526
O  -0.3480250831  1.3836496494 -1.2957005120
H  -0.1736944571  1.9823782285 -2.0405900363
O  -2.1794919752  3.3251003023 -0.9709942534
H  -1.7286445258  4.1801487660 -0.8928132111
O  -2.8933815612  0.6981155311 -1.2229224303
H  -2.5714056950  0.2009771361 -1.9852949445
O  -1.3643721058  0.0795022688  0.9436001615
H  -0.6740564588 -0.0287353157  1.6165880505
O  -3.2543213187  2.0313346099  1.0926530955
H  -3.6818923558  2.9028135430  1.1482172418
O  -0.5721898368  2.6515863354  1.1123037442
H  -0.6860161734  2.7623010468  2.0694446178
H  -2.7339621075  3.3719457468 -1.7665613020
H  -3.6063855019  1.4860084242  1.8100526814
H  -3.8695003046  0.6731020295 -1.2344554710
H  -1.8858909322 -0.7415831218  0.9412616499
H   0.4012616016  0.7662181770 -1.2676216921
H   0.2037012201  3.1827505273  0.8134553699
N   2.2737830474  3.6144195102 -0.7595665053
H   2.5579071747  4.1241367115 -1.6079885901
H   2.5351425072  4.2250870592  0.0049040510
H   2.9157841569  2.8364279629 -0.6624318904
23
Image 23  Energy = -756.7232886186
Al -1.7407306283  1.6877558872 -0.0412661990
O  -0.3575663858  1.3690966075 -1.3035365913
H  -0.1524957565  1.9863241079 -2.0293384306
O  -2.1756221501  3.3179636814 -0.9837271577
H  -1.7262462883  4.1884426339 -0.8951718387
O  -2.9024916825  0.7021547928 -1.2189079119
H  -2.5737529155  0.2095716243 -2.0014577638
O  -1.3637596041  0.0814497311  0.9387191171
H  -0.6816053457 -0.0255949876  1.6237076258
O  -3.2487390082  2.0358704303  1.0970883910
H  -3.6943625943  2.8989576293  1.1614862590
O  -0.5727350075  2.6616035968  1.1049870620
H  -0.6963400466  2.8031440547  2.0476456287
H  -2.7281926211  3.3775257652 -1.7716135997
H  -3.5900349364  1.4850624668  1.8237382344
H  -3.8695307874  0.6744212654 -1.2385967978
H  -1.8690776527 -0.7524455503  0.9384544944
H   0.4052111743  0.7640635697 -1.2822800620
H   0.2382439795  3.1538200755  0.8129639689
N   2.2718206653  3.6031369939 -0.7313458619
H   2.4600748107  4.1016523274 -1.6126759405
H   2.5488873049  4.2341245551  0.0211567327
H   2.9447602129  2.8354373133 -0.6499438562
23
Image 24  Energy = -756.7251005075
Al -1.7426520750  1.6909719372 -0.0449386427
O  -0.3592323325  1.3598725962 -1.3108783532
H  -0.1350247319  1.9911062082 -2.0197215998
O  -2.1675537352  3.3196666352 -0.9893043407
H  -1.7290053500  4.1914350364 -0.8940190300
O  -2.9026492694  0.7010835928 -1.2180642828
H  -2.5788564755  0.2137836735 -2.0059747267
O  -1.3638582371  0.0808715825  0.9368967560
H  -0.6830096638 -0.0257840012  1.6247451436
O  -3.2482199252  2.0399166305  1.1001110386
H  -3.7066241611  2.8991731077  1.1682481436
O  -0.5672020550  2.6682407849  1.0913321121
H  -0.6959897543  2.8287749015  2.0380308328
H  -2.7317177820  3.3833396030 -1.7772936041
H  -3.5851318959  1.4853116483  1.8290903303
H  -3.8754605318  0.6706014540 -1.2374459651
H  -1.8601919321 -0.7600579226  0.9324918106
H   0.4098296514  0.7620377517 -1.2820859357
H   0.2624045492  3.1326203194  0.8083865893
N   2.2666024829  3.5958417209 -0.7117259119
H   2.4087058937  4.0797073677 -1.6004056121
H   2.5558801359  4.2439136688  0.0256369144
H   2.9546718733  2.8411102712 -0.6530261998
23
Image 25  Energy = -756.7290222539
Al -1.7462349479  1.7022088021 -0.0561313733
O  -0.3592697938  1.3305249911 -1.3422684793
H  -0.0783692442  2.0100102892 -1.9854477909
O  -2.1447401813  3.3253959287 -1.0180809025
H  -1.7369592328  4.2012349672 -0.8873176291
O  -2.9134824593  0.6993360793 -1.2190258880
H  -2.5958341185  0.2276025044 -2.0194743048
O  -1.3661915401  0.0760220073  0.9343336952
H  -0.6852168858 -0.0234788768  1.6282641473
O  -3.2477647833  2.0576670440  1.1152123044
H  -3.7449199425  2.8952722184  1.1882913257
O  -0.5475690846  2.6923951185  1.0510423596
H  -0.6951690532  2.9159024338  2.0011097466
H  -2.7411288407  3.4018729309 -1.7904250488
H  -3.5674166918  1.4856809286  1.8452220981
H  -3.8859467200  0.6579595473 -1.2311172287
H  -1.8300756367 -0.7822798936  0.9075841188
H   0.4218642299  0.7512406816 -1.2755532765
H   0.3454172566  3.0562746598  0.7855924378
N   2.2393811801  3.5667209069 -0.6288001760
H   2.2388128107  4.0079587393 -1.5586665865
H   2.5791978328  4.2744523833  0.0315011223
H   2.9873303233  2.8635641662 -0.6657593492
23
Image 26  Energy = -756.7267281199
Al -1.7419889593  1.7155162127 -0.0648537708
O  -0.3399682514  1.3153208294 -1.3770657636
H  -0.0205664014  2.0317267151 -1.9423540885
O  -2.1303305354  3.3305949922 -1.0570286090
H  -1.7478256647  4.2173351877 -0.8702749794
O  -2.9224327093  0.6953541238 -1.2221838220
H  -2.6185155522  0.2358334113 -2.0186725987
O  -1.3665158579  0.0708022194  0.9393105629
H  -0.6803001195 -0.0216324909  1.6186757729
O  -3.2546165009  2.0756027689  1.1364731089
H  -3.7880219923  2.8942667063  1.1989968034
O  -0.5084636375  2.7243794451  1.0264718105
H  -0.6713095040  2.9909643303  1.9327544003
H  -2.7572964383  3.4245784290 -1.7949377951
H  -3.5600352108  1.4915827670  1.8450496289
H  -3.8996836576  0.6341087395 -1.2119293801
H  -1.8078370339 -0.8029146913  0.8665294972
H   0.4319641059  0.7311213230 -1.2396619419
H   0.4249264354  2.9693629910  0.7419044847
N   2.1952623201  3.5460617483 -0.5668125607
H   2.0983435632  3.9086743089 -1.4426820322
H   2.5970032205  4.3087320044  0.0115836095
H   2.9939226890  2.9061664585 -0.6992070646
23
Image 27  Energy = -756.7305636159
Al -1.7433195033  1.7158915926 -0.0675379443
O  -0.3476583240  1.3024681304 -1.3826338576
H  -0.0024433447  2.0354662695 -1.9336220687
O  -2.1229472325  3.3311060271 -1.0649436468
H  -1.7494066703  4.2175576847 -0.8735264406
O  -2.9253814097  0.6968138530 -1.2237083762
H  -2.6216456924  0.2454855299 -2.0287298092
O  -1.3663648042  0.0716754821  0.9351574809
H  -0.6871340253 -0.0183382164  1.6246704214
O  -3.2496730940  2.0793339771  1.1409142456
H  -3.7972635394  2.8897679573  1.2095369588
O  -0.5078510206  2.7306472400  1.0119552438
H  -0.6797509808  3.0271203541  1.9203273293
H  -2.7528603930  3.4295120069 -1.8007426830
H  -3.5451697843  1.4914086218  1.8557130589
H  -3.9025914334  0.6355659979 -1.2143712499
H  -1.7926194830 -0.8092168437  0.8634481932
H   0.4333890998  0.7297078522 -1.2515968813
H   0.4529986398  2.9444404740  0.7407632465
N   2.2023128176  3.5263606530 -0.5215249215
H   2.0150378068  3.9021283591 -1.4663994321
H   2.6047746372  4.3098961057  0.0211534260
H   3.0112819432  2.9087394117 -0.6842170809
23
Image 28  Energy = -756.7302467570
Al -1.7405004161  1.7038429493 -0.0538146555
O  -0.3480227125  1.3338776740 -1.3472040419
H  -0.0661296558  2.0153159397 -1.9742951322
O  -2.1412237095  3.3313143610 -1.0270855979
H  -1.7437290412  4.1994157839 -0.8818530050
O  -2.9164656321  0.7005909126 -1.2209249327
H  -2.6014154991  0.2274633631 -2.0156768679
O  -1.3683909382  0.0749886990  0.9356015147
H  -0.6810009707 -0.0218082035  1.6238151611
O  -3.2483438406  2.0647397610  1.1193174108
H  -3.7524330319  2.8923151330  1.1859774778
O  -0.5297705967  2.6962500425  1.0372701770
H  -0.6812803167  2.9320979896  1.9820204604
H  -2.7461042519  3.4084448693 -1.7894029010
H  -3.5680867569  1.4871820796  1.8417314901
H  -3.8875591104  0.6500448015 -1.2207888763
H  -1.8255728347 -0.7805108027  0.8915215550
H   0.4192351239  0.7428420927 -1.2577948946
H   0.3579351575  3.0330131482  0.7676281045
N   2.2334160894  3.5538525964 -0.5972113564
H   2.2150378068  3.9934376607 -1.5301268842
H   2.5746135609  4.2727648824  0.0122699486
H   2.9715060338  2.8820628202 -0.6708888176
23
Image 29  Energy = -756.7326015221
Al -1.7379415260  1.7092556657 -0.0583339589
O  -0.3451520977  1.3241523950 -1.3556649237
H  -0.0379080665  2.0276301802 -1.9583594231
O  -2.1341392992  3.3286833964 -1.0432690267
H  -1.7472756534  4.2077154808 -0.8755417263
O  -2.9202200107  0.7025978083 -1.2206034015
H  -2.6102986345  0.2327600910 -2.0196696621
O  -1.3677794615  0.0771647276  0.9358193428
H  -0.6809781755 -0.0192034486  1.6221022213
O  -3.2451114466  2.0711470550  1.1273860686
H  -3.7714858749  2.8917011331  1.1919649950
O  -0.5186608802  2.7048206857  1.0221640659
H  -0.6735064009  2.9733132581  1.9508234499
H  -2.7514563957  3.4187801286 -1.7935926283
H  -3.5602953599  1.4884984405  1.8454607899
H  -3.8931483405  0.6415116709 -1.2129718031
H  -1.8132163032 -0.7903391086  0.8729992870
H   0.4222660513  0.7324490662 -1.2470245153
H   0.4008174321  2.9937224949  0.7462458365
N   2.2043428770  3.5397374368 -0.5656876345
H   2.1344497493  3.9544981364 -1.4901797210
H   2.5860944823  4.2909658833  0.0124060011
H   2.9863176951  2.8919759645 -0.6763883521
23
Image 30  Energy = -756.7332841654
Al -1.7352213628  1.7123865548 -0.0606599991
O  -0.3408861653  1.3218965297 -1.3606875222
H  -0.0202740436  2.0335436100 -1.9458208145
O  -2.1296093965  3.3288502359 -1.0543522032
H  -1.7511191098  4.2105635529 -0.8709812012
O  -2.9224335070  0.7041657050 -1.2223188781
H  -2.6166191882  0.2369446610 -2.0199241475
O  -1.3679611712  0.0781931015  0.9360869279
H  -0.6808789708 -0.0165986671  1.6201364504
O  -3.2428651122  2.0763120890  1.1337522196
H  -3.7819982342  2.8892056689  1.1939001737
O  -0.5078024492  2.7100761883  1.0117582962
H  -0.6660025629  3.0003883838  1.9265570796
H  -2.7545182944  3.4255858078 -1.7951863052
H  -3.5543937874  1.4899500810  1.8461234738
H  -3.8957312040  0.6356290669 -1.2056788869
H  -1.8042990475 -0.7934440780  0.8585208275
H   0.4219383248  0.7243222673 -1.2378764977
H   0.4274918579  2.9661240179  0.7282019821
N   2.1877381556  3.5274333403 -0.5383061545
H   2.0807928751  3.9320833075 -1.4649528783
H   2.5904517160  4.2987308279  0.0088264838
H   2.9899149649  2.9011962821 -0.6770331721
23
Image 31  Energy = -756.7343550930
Al -1.7302579918  1.7149205729 -0.0615950944
O  -0.3354960754  1.3234873586 -1.3546665384
H  -0.0039825363  2.0393392195 -1.9361043066
O  -2.1263578146  3.3266993882 -1.0625818782
H  -1.7560167043  4.2113638762 -0.8655715297
O  -2.9239906544  0.7108906367 -1.2219939500
H  -2.6213774463  0.2393718115 -2.0200169779
O  -1.3679264838  0.0843338981  0.9351312853
H  -0.6803474530 -0.0122177465  1.6173238621
O  -3.2344333550  2.0805918597  1.1376921256
H  -3.7881757234  2.8857146510  1.1906853048
O  -0.4940210517  2.7069998417  0.9955948730
H  -0.6532473017  3.0270317752  1.9001267107
H  -2.7574480627  3.4319632715 -1.7958210369
H  -3.5479618046  1.4904375714  1.8454180725
H  -3.8955658725  0.6299445412 -1.1939188588
H  -1.7962293161 -0.7914294782  0.8397905425
H   0.4151187133  0.7142640466 -1.2260304227
H   0.4515303156  2.9404809384  0.7009525523
N   2.1675174400  3.5148352842 -0.5123357156
H   2.0297149664  3.9170720582 -1.4387745101
H   2.5886769891  4.3007757860  0.0049294527
H   2.9859914553  2.9066673495 -0.6681487324
23
Image 32  Energy = -756.7366753720
Al -1.7134144546  1.7211729415 -0.0601150427
O  -0.3202556175  1.3582825933 -1.3183828361
H   0.0260883927  2.0382760962 -1.9105356692
O  -2.1221067331  3.3209439907 -1.0730844709
H  -1.7723789520  4.2027832765 -0.8498010309
O  -2.9150602794  0.7346621015 -1.2290512351
H  -2.6330499813  0.2474181594 -2.0060462893
O  -1.3689077179  0.1078980368  0.9284135222
H  -0.6779344417  0.0046627388  1.6071109447
O  -3.2004895277  2.0888803213  1.1456985363
H  -3.7847788387  2.8707506729  1.1637277453
O  -0.4515701749  2.6771823665  0.9554809024
H  -0.5997209243  3.0856227155  1.8118001304
H  -2.7645211628  3.4441753777 -1.7931751161
H  -3.5274432855  1.4914834453  1.8342797608
H  -3.8904939128  0.6169688086 -1.1487762214
H  -1.7767559036 -0.7636889343  0.7806813560
H   0.3853623588  0.6773709761 -1.1867108036
H   0.5043042787  2.8876219689  0.6006126813
N   2.1059173228  3.4843315679 -0.4525527306
H   1.9151837588  3.9023590994 -1.3759007633
H   2.5610742836  4.2910190748  0.0035664108
H   2.9466655931  2.9033611044 -0.6171545925
23
Image 33  Energy = -756.7386320045
Al -1.7085778741  1.7262696416 -0.0581498478
O  -0.3067959523  1.3601361168 -1.2897016155
H   0.0365656109  2.0383181243 -1.9083805138
O  -2.1255147045  3.3183020610 -1.0739549731
H  -1.7781262351  4.1984477097 -0.8425593351
O  -2.9218655873  0.7507446853 -1.2218920864
H  -2.6328691223  0.2449049503 -2.0066276024
O  -1.3657869458  0.1212362199  0.9252551033
H  -0.6789790804  0.0134416876  1.6013415032
O  -3.1829524136  2.0916684763  1.1459001926
H  -3.7744614344  2.8633455148  1.1456649298
O  -0.4253775686  2.6563003700  0.9335232343
H  -0.5718492677  3.1066743942  1.7777091284
H  -2.7655196876  3.4450461184 -1.7891332196
H  -3.5174060454  1.4902341761  1.8285360012
H  -3.8753397089  0.6147868359 -1.1273884365
H  -1.7712191885 -0.7480155473  0.7552602965
H   0.3591627499  0.6708307464 -1.1732972222
H   0.5174348130  2.8759244760  0.5525494602
N   2.0804062112  3.4803337107 -0.4384584323
H   1.8829761085  3.9012842490 -1.3508714205
H   2.5373922522  4.2800785115  0.0124312619
H   2.9144170876  2.8932452804 -0.5876712101
23
Image 34  Energy = -756.7396493455
Al -1.7105653037  1.7283242314 -0.0564285639
O  -0.3077925810  1.3647799617 -1.2840721282
H   0.0312155069  2.0314075360 -1.9117453634
O  -2.1272356647  3.3185820843 -1.0661905592
H  -1.7775761238  4.1967807196 -0.8425628820
O  -2.9171961690  0.7524846862 -1.2214882013
H  -2.6311150040  0.2442266803 -2.0044667475
O  -1.3658020434  0.1237733400  0.9216922134
H  -0.6784797654  0.0144461656  1.6022905240
O  -3.1780861666  2.0899135766  1.1416600755
H  -3.7665894479  2.8639126007  1.1389329930
O  -0.4205625984  2.6490788823  0.9314752422
H  -0.5649359877  3.1008199654  1.7785356761
H  -2.7662850928  3.4411615907 -1.7891523222
H  -3.5165314827  1.4882386277  1.8280953736
H  -3.8732776451  0.6167855854 -1.1237690776
H  -1.7732897608 -0.7426770979  0.7554813091
H   0.3558321406  0.6698248571 -1.1746761765
H   0.5102261111  2.8882450610  0.5464921699
N   2.0800090377  3.4869922724 -0.4462306565
H   1.8996310411  3.9085353651 -1.3568389331
H   2.5252020084  4.2747361126  0.0231636809
H   2.8989190209  2.8831657152 -0.5801124378
23
Image 35  Energy = -756.7413797854
Al -1.7136224258  1.7377917614 -0.0545364875
O  -0.3072650987  1.3708156179 -1.2760774172
H   0.0338560961  2.0165941716 -1.9108637390
O  -2.1315801636  3.3213278164 -1.0572466232
H  -1.7787226170  4.1973208020 -0.8384145196
O  -2.9101620540  0.7576790952 -1.2191548741
H  -2.6312737239  0.2457491968 -2.0012843996
O  -1.3623935158  0.1313464503  0.9137016354
H  -0.6799165090  0.0195045579  1.6016601362
O  -3.1657841094  2.0883916350  1.1377205942
H  -3.7540789861  2.8639130767  1.1223189993
O  -0.3949796379  2.6382487688  0.9146112667
H  -0.5369667084  3.1091060241  1.7610031469
H  -2.7685416270  3.4349040502 -1.7880976762
H  -3.5064712823  1.4860483098  1.8266621425
H  -3.8671717631  0.6176566629 -1.1077360487
H  -1.7711847210 -0.7340061804  0.7441374711
H   0.3472769474  0.6604350579 -1.1726884896
H   0.5156583268  2.8993980354  0.5134147391
N   2.0635106903  3.4919420550 -0.4385393743
H   1.8968274949  3.9067373481 -1.3550291770
H   2.4936164940  4.2697965429  0.0558339520
H   2.8550828844  2.8628376755 -0.5613100388
23
Image 36  Energy = -756.7434079487
Al -1.7154487205  1.7537942491 -0.0520340422
O  -0.3081260895  1.3683158647 -1.2648008995
H   0.0391220826  1.9931354573 -1.9170056398
O  -2.1417260423  3.3281283506 -1.0405787365
H  -1.7794859975  4.2011140942 -0.8329949753
O  -2.8993485907  0.7628139454 -1.2152659576
H  -2.6311322468  0.2494398560 -1.9956395698
O  -1.3567555964  0.1391051732  0.8991404720
H  -0.6832569984  0.0274302140  1.6014659868
O  -3.1498149576  2.0866669167  1.1313645769
H  -3.7306359426  2.8638642645  1.0951035075
O  -0.3617946780  2.6286109792  0.9008196688
H  -0.4855048100  3.1141897134  1.7267480420
H  -2.7708833486  3.4223110028 -1.7852143168
H  -3.4882370998  1.4837970697  1.8247707641
H  -3.8556279891  0.6204777914 -1.0825414271
H  -1.7673355050 -0.7193957257  0.7296886666
H   0.3328066063  0.6480074091 -1.1736796888
H   0.5310289447  2.9282238410  0.4571863214
N   2.0284536245  3.5066469262 -0.4294576534
H   1.9029167294  3.9036205849 -1.3539885549
H   2.4363957263  4.2603764941  0.1175232932
H   2.7801048362  2.8228640910 -0.5305246106
23
Image 37  Energy = -756.7458586021
Al -1.6970331140  1.7760399437 -0.0484298407
O  -0.3065343177  1.3667959140 -1.2609473690
H   0.0656637928  1.9620484949 -1.9157686474
O  -2.1548142679  3.3381358125 -1.0272144994
H  -1.7872266530  4.2129688432 -0.8219502657
O  -2.8896663101  0.7764678213 -1.2053600360
H  -2.6366991102  0.2577726292 -1.9906610160
O  -1.3425859857  0.1575797937  0.8815998465
H  -0.6911373885  0.0437169186  1.5955367572
O  -3.1213663537  2.0880436617  1.1289608152
H  -3.7087722057  2.8625230096  1.0569356351
O  -0.3003377799  2.6127992071  0.8443322009
H  -0.3933202539  3.1613376113  1.6643303516
H  -2.7756700089  3.4130194920 -1.7797599262
H  -3.4526915668  1.4863007158  1.8222465385
H  -3.8386582833  0.6173543954 -1.0349445413
H  -1.7532877802 -0.7049613317  0.6889474247
H   0.3118395482  0.6098321381 -1.1616213570
H   0.5925467176  2.9461622959  0.3411728522
N   1.9442901421  3.5008522373 -0.3762749234
H   1.8541066403  3.8856986942 -1.3219614064
H   2.3481239323  4.2453271395  0.2017706818
H   2.6589444386  2.7777231419 -0.4708540481
23
Image 38  Energy = -756.7495858733
Al -1.6758452685  1.7874840437 -0.0464467775
O  -0.3039684594  1.3460300431 -1.2829038891
H   0.0861419114  1.9443407011 -1.9189895369
O  -2.1607716057  3.3500554443 -1.0208542626
H  -1.7933409891  4.2254647988 -0.8198287732
O  -2.8865371650  0.7775580172 -1.1986550131
H  -2.6426079548  0.2661647255 -1.9895450734
O  -1.3361453840  0.1574868601  0.8700967744
H  -0.6952879638  0.0506792965  1.5955846989
O  -3.1130678681  2.0934778763  1.1274695869
H  -3.7033763391  2.8627993815  1.0447756386
O  -0.2713206746  2.6281195437  0.8186915508
H  -0.3385003861  3.1856493155  1.6273231337
H  -2.7779303507  3.4100412989 -1.7771375938
H  -3.4316899867  1.4916873452  1.8266527118
H  -3.8315986681  0.6145497089 -1.0127923370
H  -1.7411482315 -0.7035319670  0.6718403401
H   0.3047987471  0.5896407492 -1.1594917384
H   0.6463292870  2.9616996326  0.2763424606
N   1.8877262507  3.4902549044 -0.3381704351
H   1.8213048560  3.8694072161 -1.2960300914
H   2.2958345227  4.2349018998  0.2500064916
H   2.5867154982  2.7595777391 -0.4378526493
23
Image 39  Energy = -756.7501773946
Al -1.5913017314  1.8165969877 -0.0352808552
O  -0.3207565888  1.2459047217 -1.3856221501
H   0.1536803015  1.9036859269 -1.9602865073
O  -2.1772892812  3.3819924223 -1.0097943207
H  -1.8124818571  4.2795460569 -0.8284046533
O  -2.8834535580  0.7694903792 -1.1706031748
H  -2.6623317748  0.2926353243 -1.9957294785
O  -1.3042685328  0.1452691594  0.8516691761
H  -0.7128076441  0.0600636197  1.5980090208
O  -3.1048300410  2.1032345819  1.1228521627
H  -3.7099703337  2.8715030638  1.0429307012
O  -0.2499495985  2.7001085225  0.7554141155
H  -0.2027560448  3.2380978399  1.5581488632
H  -2.7764591941  3.4098172061 -1.7654963063
H  -3.3785371628  1.5263205051  1.8476301956
H  -3.8172505149  0.6071381536 -0.9740016699
H  -1.7101044269 -0.7318529482  0.6479495387
H   0.3123413970  0.5305344452 -1.1737019148
H   0.8463292870  3.0465474042  0.1183944120
N   1.7212557723  3.4710521070 -0.2539647548
H   1.7419899147  3.8277058864 -1.2013435967
H   2.1493748697  4.1862994616  0.3653474033
H   2.4152905094  2.7118476998 -0.3440310662
23
Image 40  Energy = -756.7509108208
Al -1.6097476454  1.7757770130 -0.0416190411
O  -0.3237601369  1.2407559983 -1.4282369047
H   0.1032588686  1.9453215548 -1.9658867756
O  -2.1623289259  3.3715900123 -1.0364890966
H  -1.7981689794  4.2706291812 -0.8518327257
O  -2.9037965638  0.7374716619 -1.1861560467
H  -2.6532758776  0.2819421281 -2.0063555475
O  -1.3207840214  0.1056224460  0.8842339284
H  -0.7046619051  0.0300137553  1.6093932221
O  -3.1685578851  2.0990259417  1.1326594719
H  -3.7497195304  2.8768690251  1.1165818751
O  -0.3854816694  2.7357686939  0.8584763421
H  -0.3570718423  3.1581491323  1.6844175332
H  -2.7628224269  3.4235516140 -1.7702006678
H  -3.4337603222  1.5321049851  1.8528886296
H  -3.8468338279  0.6136940337 -1.0609425486
H  -1.7344459768 -0.7690910256  0.7278045575
H   0.3599949431  0.5888316266 -1.2027638085
H   0.7488811459  3.0301551919  0.3174772576
N   1.8819105059  3.4678919632 -0.3370901256
H   1.8349476249  3.8672416496 -1.2788240355
H   2.2966479219  4.2192246544  0.2385752187
H   2.6152905094  2.7909972379 -0.4460255668
23
Image 41  Energy = -756.7521314687
Al -1.6378023329  1.7858332370 -0.0388856731
O  -0.2998375228  1.2774083557 -1.3893008580
H   0.0989838284  1.9180486881 -1.9512636754
O  -2.1367766253  3.3786187750 -1.0068199630
H  -1.8128507706  4.2439074890 -0.8450431177
O  -2.8785539215  0.7594338912 -1.1875560194
H  -2.6546337088  0.2828013611 -1.9981061566
O  -1.3398168903  0.1157251448  0.8531357189
H  -0.6876750480  0.0367778615  1.6253811236
O  -3.1332365556  2.1130887025  1.1099094313
H  -3.7275344278  2.8649381929  1.0892372460
O  -0.3401924556  2.6831379313  0.8000092572
H  -0.3272929392  3.1913763071  1.6731685791
H  -2.7846042690  3.4230668943 -1.7889912704
H  -3.4279435631  1.5157812046  1.8619956230
H  -3.8474180889  0.6112247926 -1.0275536835
H  -1.7220573506 -0.7291900232  0.6998122805
H   0.3275210659  0.5788183291 -1.1906865366
H   0.7611701464  3.0265879024  0.2402107392
N   1.8618946225  3.4778449897 -0.3106562748
H   1.7946358816  3.8737506832 -1.2629751103
H   2.2608332185  4.2070860102  0.2600869188
H   2.5789015707  2.7574717924 -0.4050234196
23
Image 42  Energy = -756.7655810612
Al -1.6189331031  1.7936096368 -0.0364153553
O  -0.3152992124  1.2529442702 -1.4038439379
H   0.1189750936  1.9145198960 -1.9683674704
O  -2.1533285629  3.3738501544 -1.0169103782
H  -1.8128023397  4.2668245827 -0.8446528202
O  -2.8838116985  0.7585425300 -1.1786178524
H  -2.6581750823  0.2876907090 -2.0010359663
O  -1.3184783184  0.1238287252  0.8614754012
H  -0.6994888594  0.0394075926  1.6165674784
O  -3.1306010434  2.1043374476  1.1163020575
H  -3.7311812445  2.8711020760  1.0882335735
O  -0.3350752601  2.7028385982  0.7963922887
H  -0.2987000828  3.1953983593  1.6470299415
H  -2.7764048338  3.4227066325 -1.7766890630
H  -3.4136363530  1.5294453511  1.8594531546
H  -3.8380421518  0.6108284426 -1.0197001005
H  -1.7206501541 -0.7460759383  0.6925263685
H   0.3334570689  0.5615645377 -1.1946216176
H   0.8111563944  3.0515163196  0.2038560213
N   1.8213605678  3.4730413716 -0.3007952040
H   1.7786155561  3.8639383450 -1.2362093122
H   2.2272790939  4.1962095333  0.2879570366
H   2.5394783993  2.7454693272 -0.3818490982
23
Image 43  Energy = -756.7680171702
Al -1.6091627466  1.8012208809 -0.0329215657
O  -0.3184044297  1.2403618724 -1.4206377093
H   0.1303821698  1.8983013477 -1.9786822912
O  -2.1593828987  3.3792429889 -1.0220387221
H  -1.8190300603  4.2758373341 -0.8457100581
O  -2.8839342338  0.7587161170 -1.1735303277
H  -2.6623448623  0.2945822232 -2.0005597382
O  -1.3072273026  0.1214488955  0.8613116730
H  -0.7051621201  0.0411639031  1.6150718523
O  -3.1290741621  2.1033707662  1.1186452676
H  -3.7291390975  2.8707111449  1.0869040761
O  -0.3321021863  2.7151133741  0.7911574829
H  -0.2750053468  3.1995659085  1.6226868893
H  -2.7730989714  3.4232649866 -1.7694729509
H  -3.4003500724  1.5407859897  1.8605329813
H  -3.8305777728  0.6105564449 -1.0090734613
H  -1.7130341525 -0.7482174467  0.6859271054
H   0.3333097912  0.5457936620 -1.1996491253
H   0.8675143390  3.0798408127  0.1548146324
N   1.7932704811  3.4609966341 -0.2816837218
H   1.7540947861  3.8615889553 -1.2163034459
H   2.1936885180  4.1864046101  0.3161628367
H   2.5004841894  2.7328870828 -0.3528665466
23
Image 44  Energy = -756.7705562819
Al -1.6214401866  1.7972339170 -0.0325314132
O  -0.3176857779  1.2434615296 -1.4172066704
H   0.1219582756  1.8978070175 -1.9844514501
O  -2.1553759154  3.3758871533 -1.0288355771
H  -1.8193192271  4.2723509475 -0.8475776471
O  -2.8852460813  0.7570427651 -1.1759574213
H  -2.6605976382  0.2943564711 -2.0013031934
O  -1.3064237701  0.1185378075  0.8664029944
H  -0.7038671274  0.0362560171  1.6177952107
O  -3.1374075873  2.1014072674  1.1202445817
H  -3.7317527261  2.8707385154  1.0957916495
O  -0.3481235808  2.7131180700  0.8001610057
H  -0.3024474320  3.1867134662  1.6405910312
H  -2.7732135815  3.4259497500 -1.7712664118
H  -3.4063917489  1.5425242568  1.8623873587
H  -3.8325855314  0.6127320505 -1.0176236622
H  -1.7153901067 -0.7510992144  0.6951858733
H   0.3353836512  0.5523299258 -1.2073604345
H   0.8675891613  3.0857083755  0.1649156737
N   1.8188069875  3.4600553357 -0.2904737327
H   1.7573317367  3.8711420013 -1.2260513137
H   2.2127200443  4.1936600176  0.3058107988
H   2.5291920377  2.7356250359 -0.3585621192
23
Image 45  Energy = -756.7754337218
Al -1.6559536745  1.7944310937 -0.0243696770
O  -0.3183267218  1.2530222895 -1.3974204389
H   0.1020258962  1.8812106869 -2.0169412326
O  -2.1429963108  3.3613140732 -1.0511806601
H  -1.8258579721  4.2662369978 -0.8487197058
O  -2.8847510912  0.7612015303 -1.1776876615
H  -2.6557444156  0.2975609041 -2.0043496417
O  -1.3025475424  0.1152298452  0.8710415236
H  -0.6961679619  0.0232140947  1.6338568678
O  -3.1525319402  2.0956462532  1.1177245919
H  -3.7355677642  2.8734565598  1.1155336889
O  -0.3911509991  2.7006092700  0.8170054200
H  -0.3747281762  3.1481469122  1.6685053921
H  -2.7804018520  3.4353237019 -1.7803684859
H  -3.4160017664  1.5473116508  1.8784495553
H  -3.8335483725  0.6197336548 -1.0271436611
H  -1.7152001452 -0.7538291911  0.7127639441
H   0.3327191145  0.5545790389 -1.2333381223
H   0.9241024976  3.1248546334  0.1351652289
N   1.8746075212  3.4735677940 -0.3083622315
H   1.7414831261  3.8933384020 -1.2239863145
H   2.2429844282  4.2055849391  0.2994815585
H   2.5892679944  2.7217933201 -0.3455748136
23
Image 46  Energy = -756.7771350027
Al -1.6707510875  1.7921559132 -0.0124062045
O  -0.3151625053  1.2701744563 -1.3932187281
H   0.0698819651  1.8542779892 -2.0515150386
O  -2.1326148091  3.3619445697 -1.0810208748
H  -1.8355936682  4.2494677782 -0.8496381029
O  -2.8855296549  0.7617031657 -1.1840619806
H  -2.6500877914  0.3052031442 -2.0037630623
O  -1.2880034341  0.1059454292  0.8918240433
H  -0.6990716069  0.0136788469  1.6371293498
O  -3.1848308040  2.0839853970  1.1284613586
H  -3.7410629607  2.8807041991  1.1370484318
O  -0.4382079898  2.6868823797  0.8202497744
H  -0.4574545205  3.1074739996  1.7064324757
H  -2.7884477841  3.4431233234 -1.7903876131
H  -3.4212819490  1.5564494734  1.8923146257
H  -3.8370080985  0.6275392985 -1.0365618048
H  -1.7152292988 -0.7606446641  0.7323266587
H   0.3307896220  0.5473060254 -1.2602634982
H   1.0004967326  3.1659156054  0.1037929892
N   1.9354146078  3.4726146944 -0.3087662705
H   1.7370067970  3.9137307072 -1.2284973197
H   2.2804336436  4.2233495282  0.2987452467
H   2.6320284846  2.7305571545 -0.3381393587
23
Image 47  Energy = -756.7791778155
Al -1.6710148366  1.7899659471 -0.0133326308
O  -0.3114095348  1.2688338311 -1.3886815371
H   0.0647756084  1.8538100773 -2.0569285178
O  -2.1339906339  3.3590910348 -1.0847390163
H  -1.8354136982  4.2488871908 -0.8477025779
O  -2.8865710773  0.7636190574 -1.1825928983
H  -2.6484850636  0.3049131733 -2.0046709047
O  -1.2955311116  0.1027894169  0.8859942930
H  -0.6941483223  0.0135867053  1.6428850564
O  -3.1880222055  2.0863587096  1.1253147878
H  -3.7405117303  2.8809002022  1.1376826634
O  -0.4364972810  2.6902483901  0.8287045134
H  -0.4660822858  3.0998105655  1.7008104194
H  -2.7899345458  3.4432612727 -1.7921213185
H  -3.4232038629  1.5529035838  1.8980138907
H  -3.8370512547  0.6282104116 -1.0365123295
H  -1.7136836366 -0.7568472377  0.7338969028
H   0.3255527062  0.5481120629 -1.2613012440
H   1.0066037953  3.1636099914  0.1031842423
N   1.9335664748  3.4817872585 -0.3090384938
H   1.7444308095  3.9113328454 -1.2262983879
H   2.2871274841  4.2255228220  0.2982551507
H   2.6352080873  2.7328311046 -0.3407369673
23
Image 48  Energy = -756.7805337094
Al -1.6712882167  1.7858997795 -0.0132125888
O  -0.3075491098  1.2733350848 -1.3812998717
H   0.0498000977  1.8509834813 -2.0694642319
O  -2.1337719985  3.3546953448 -1.0934124992
H  -1.8357801418  4.2440963611 -0.8447569009
O  -2.8878829050  0.7657587956 -1.1828769267
H  -2.6449005079  0.3053829079 -2.0050700208
O  -1.2994306936  0.1010680768  0.8872976167
H  -0.6911038362  0.0130751892  1.6462054322
O  -3.1982738185  2.0835708200  1.1251392955
H  -3.7428278646  2.8851055472  1.1422604312
O  -0.4406434904  2.6896927747  0.8351119904
H  -0.4946696175  3.0842932213  1.7068303183
H  -2.7944164169  3.4443808868 -1.7979147210
H  -3.4277040744  1.5495354558  1.9059492810
H  -3.8393759435  0.6303056060 -1.0392230078
H  -1.7150568736 -0.7577010920  0.7391687901
H   0.3198942870  0.5465923184 -1.2654093219
H   1.0211402263  3.1616603801  0.1059032475
N   1.9422367303  3.4947740787 -0.3097866172
H   1.7614189384  3.9100644923 -1.2266551570
H   2.3080582050  4.2336050818  0.2943408704
H   2.6478409136  2.7433638192 -0.3490403172
23
Image 49  Energy = -756.7825591039
Al -1.6758774866  1.7763450717 -0.0118246671
O  -0.2997333965  1.2861117921 -1.3650886123
H   0.0065201183  1.8380705261 -2.1088223498
O  -2.1325786553  3.3423858891 -1.1194086147
H  -1.8392045487  4.2303927581 -0.8387363675
O  -2.8916339407  0.7695628092 -1.1847939470
H  -2.6363706340  0.3090532618 -2.0045215019
O  -1.3046259676  0.0967273264  0.8955012069
H  -0.6854318383  0.0106828923  1.6536317675
O  -3.2294597620  2.0735622257  1.1271694862
H  -3.7493815541  2.8944111167  1.1594106478
O  -0.4588848225  2.6867669926  0.8481065998
H  -0.5793363804  3.0405945865  1.7319959897
H  -2.8054561279  3.4488753333 -1.8125786027
H  -3.4396977520  1.5467148173  1.9256295246
H  -3.8443735327  0.6369407615 -1.0481754996
H  -1.7195912528 -0.7650143281  0.7559700073
H   0.3073240326  0.5391281056 -1.2813438926
H   1.0752885782  3.1674013370  0.1079625763
N   1.9758776517  3.5199912471 -0.3070094715
H   1.8032886261  3.9134101427 -1.2314671567
H   2.3653382229  4.2580228604  0.2861270063
H   2.6837143215  2.7734008801 -0.3676490529
23
Image 50  Energy = -756.7828412664
Al -1.6835700529  1.7699444819 -0.0141350073
O  -0.2869267022  1.3053205551 -1.3681063916
H  -0.0498844630  1.8102820244 -2.1410376120
O  -2.1298657184  3.3357399214 -1.1357976179
H  -1.8483057281  4.2065328414 -0.8381275488
O  -2.8919335203  0.7714449994 -1.1852096023
H  -2.6313275873  0.3142178499 -2.0010739571
O  -1.3075658120  0.0894824214  0.9094026568
H  -0.6862046802  0.0128987502  1.6524739893
O  -3.2581653786  2.0596020481  1.1296748343
H  -3.7557194872  2.8970374190  1.1809520967
O  -0.4764229909  2.6913635373  0.8684999622
H  -0.6629481671  2.9940320038  1.7486193389
H  -2.8157831578  3.4532179167 -1.8267159963
H  -3.4531906417  1.5529887641  1.9382702025
H  -3.8500920431  0.6430711124 -1.0570524998
H  -1.7249988269 -0.7753965881  0.7737775860
H   0.2928263448  0.5265178154 -1.2992300599
H   1.1316321326  3.1741233528  0.1205319624
N   2.0199625595  3.5544744010 -0.3083345301
H   1.8546916752  3.9187350021 -1.2318472653
H   2.4208467782  4.2835642456  0.2797196920
H   2.7186593960  2.8043435011 -0.3851692093
23
Image 51  Energy = -756.7838542265
Al -1.6856943455  1.7696230298 -0.0121354387
O  -0.2866235573  1.3034075496 -1.3599140205
H  -0.0609646775  1.8061531347 -2.1586923032
O  -2.1321454843  3.3297455526 -1.1457940214
H  -1.8495539273  4.2055500389 -0.8368053353
O  -2.8937046762  0.7716895543 -1.1850673726
H  -2.6297487315  0.3156126186 -2.0012872765
O  -1.3086315283  0.0873884975  0.9111495110
H  -0.6848374880  0.0116654160  1.6551348236
O  -3.2668285675  2.0575865206  1.1299086728
H  -3.7572007756  2.8974295032  1.1875015439
O  -0.4867151508  2.6874594473  0.8661279372
H  -0.6880615808  2.9830349768  1.7616298301
H  -2.8161178812  3.4546332235 -1.8279231866
H  -3.4564411367  1.5544829776  1.9433637755
H  -3.8501230640  0.6453215710 -1.0599528935
H  -1.7255319615 -0.7779214307  0.7798609639
H   0.2890616797  0.5256275475 -1.3069758605
H   1.1536196882  3.1834811054  0.1173255849
N   2.0341300466  3.5537914169 -0.3045314334
H   1.8611727446  3.9253234161 -1.2361688291
H   2.4354829277  4.2918674272  0.2795501294
H   2.7311713788  2.8105852753 -0.3862197878
23
Image 52  Energy = -756.7841138889
Al -1.6844639737  1.7729044071 -0.0125324233
O  -0.2897679079  1.2989098079 -1.3637219023
H  -0.0524062576  1.8072941602 -2.1521618386
O  -2.1340694924  3.3308880207 -1.1392868938
H  -1.8490023833  4.2098756293 -0.8385394741
O  -2.8931250074  0.7700433953 -1.1839339817
H  -2.6325511753  0.3148424241 -2.0012646289
O  -1.3080597731  0.0891765582  0.9083850480
H  -0.6863633267  0.0128142145  1.6531536693
O  -3.2588538129  2.0601051299  1.1288807012
H  -3.7556749536  2.8936942502  1.1843236777
O  -0.4850786760  2.6874357160  0.8617431825
H  -0.6676411012  2.9938983620  1.7563828647
H  -2.8124710425  3.4532820611 -1.8233948401
H  -3.4538980598  1.5563373721  1.9380664522
H  -3.8482862940  0.6438812387 -1.0578517823
H  -1.7247326663 -0.7776471745  0.7765635017
H   0.2916868423  0.5266837398 -1.3047441047
H   1.1436439719  3.1851197866  0.1176704250
N   2.0283133292  3.5454772570 -0.3038925159
H   1.8517409256  3.9276291886 -1.2360619139
H   2.4222527665  4.2877926120  0.2827633180
H   2.7245219961  2.8031002123 -0.3804615258
23
Image 53  Energy = -756.7845604563
Al -1.6852642363  1.7756761294 -0.0148724769
O  -0.2943170653  1.2952860831 -1.3659273746
H  -0.0609227073  1.7989245963 -2.1609456606
O  -2.1368141579  3.3291716512 -1.1315818508
H  -1.8515205735  4.2083969402 -0.8413376604
O  -2.8920776041  0.7671990758 -1.1812961471
H  -2.6360777484  0.3149680942 -2.0000620428
O  -1.3115679844  0.0889991007  0.9063196101
H  -0.6886477614  0.0168628973  1.6495514886
O  -3.2544949419  2.0590754458  1.1259273577
H  -3.7563857459  2.8885497721  1.1871701249
O  -0.4901339684  2.6874927163  0.8581306466
H  -0.6640601029  2.9968397775  1.7569402675
H  -2.8110324433  3.4517154018 -1.8217943366
H  -3.4553162952  1.5607521553  1.9345788306
H  -3.8477700248  0.6437936314 -1.0572549146
H  -1.7252341023 -0.7807408192  0.7786857770
H   0.2904546811  0.5223922573 -1.3093363442
H   1.1488369823  3.1921389933  0.1260677213
N   2.0358872330  3.5471688643 -0.3034013227
H   1.8583870662  3.9357990483 -1.2346539094
H   2.4226474290  4.2919993744  0.2859957816
H   2.7311380051  2.8010771727 -0.3768185474
23
Image 54  Energy = -756.7852312887
Al -1.6903163009  1.7760081204 -0.0217537605
O  -0.2988176126  1.2887183299 -1.3729981860
H  -0.1029518689  1.7673128453 -2.1943107252
O  -2.1506005935  3.3187433843 -1.1250417834
H  -1.8572562722  4.2035042144 -0.8442769633
O  -2.8927401244  0.7610275449 -1.1736193411
H  -2.6420419134  0.3150599299 -1.9983774564
O  -1.3239728911  0.0857501587  0.9034263143
H  -0.6934020373  0.0282680849  1.6412755677
O  -3.2557319472  2.0554686820  1.1192048670
H  -3.7599381402  2.8784442639  1.1982673569
O  -0.5064816016  2.6919274429  0.8623090033
H  -0.6810320986  2.9879249412  1.7587860941
H  -2.8083658533  3.4466179494 -1.8195557769
H  -3.4624660456  1.5678390424  1.9329952299
H  -3.8482485009  0.6459578451 -1.0577619567
H  -1.7280528199 -0.7901428564  0.7902060347
H   0.2785734707  0.5112526414 -1.3272117810
H   1.1839016929  3.2135887332  0.1480690288
N   2.0658485042  3.5610043103 -0.2970680335
H   1.8934466022  3.9580716265 -1.2304704914
H   2.4459812198  4.3113366948  0.2911664163
H   2.7603790782  2.8098543925 -0.3731746513
23
Image 55  Energy = -756.7858688266
Al -1.6926555265  1.7715798289 -0.0255447202
O  -0.3035432237  1.2856119271 -1.3821404405
H  -0.1457662841  1.7347671961 -2.2243966392
O  -2.1588407140  3.3159232869 -1.1150886838
H  -1.8617235884  4.1948514107 -0.8453335754
O  -2.8940747290  0.7533395100 -1.1709599596
H  -2.6468465024  0.3143636476 -1.9962478827
O  -1.3352114113  0.0851129064  0.9009693512
H  -0.6976802682  0.0397256398  1.6333311586
O  -3.2622233452  2.0512142647  1.1188263165
H  -3.7644026664  2.8761545280  1.2030894787
O  -0.5176925635  2.6930589555  0.8597951657
H  -0.6985729496  2.9818467078  1.7660977735
H  -2.8135906210  3.4396539448 -1.8247101681
H  -3.4664081118  1.5669717007  1.9317262598
H  -3.8523371026  0.6482733920 -1.0561434111
H  -1.7321753452 -0.7989883079  0.8006088519
H   0.2658763417  0.5001575717 -1.3437729805
H   1.2182609676  3.2330739292  0.1643747406
N   2.0940888446  3.5753068534 -0.2880358503
H   1.9286625821  3.9758700137 -1.2221624480
H   2.4754156016  4.3295312900  0.2951211720
H   2.7871545710  2.8261380859 -0.3693185193
23
Image 56  Energy = -756.7866214584
Al -1.6943278231  1.7651200354 -0.0275614314
O  -0.3094889174  1.2817711567 -1.3901375106
H  -0.1875519262  1.7031502890 -2.2548469288
O  -2.1713421773  3.3129315302 -1.1101874151
H  -1.8637249878  4.1896445125 -0.8437744993
O  -2.8980092275  0.7461794714 -1.1684841232
H  -2.6509909405  0.3114058111 -1.9964178423
O  -1.3459763508  0.0831440230  0.8990699078
H  -0.7019607590  0.0514707432  1.6252550414
O  -3.2705071935  2.0486199290  1.1196816595
H  -3.7688238612  2.8773360698  1.2036860215
O  -0.5259434485  2.6946324326  0.8608434389
H  -0.7125729758  2.9763514300  1.7684087604
H  -2.8181531753  3.4308253902 -1.8282125930
H  -3.4688089525  1.5602262597  1.9321387821
H  -3.8572344839  0.6504540757 -1.0532583240
H  -1.7361606086 -0.8047426596  0.8099637565
H   0.2525657266  0.4896019456 -1.3594986708
H   1.2492648462  3.2506801439  0.1773404859
N   2.1223026322  3.5942481534 -0.2790242667
H   1.9621846028  3.9904266014 -1.2100445711
H   2.5074862026  4.3459424460  0.2991451653
H   2.8134877569  2.8441184605 -0.3639998686
23
Image 57  Energy = -756.7879321418
Al -1.7033959435  1.7530124730 -0.0294115180
O  -0.3326636612  1.2625023413 -1.4231979080
H  -0.2879304835  1.6180479120 -2.3239255023
O  -2.2051374313  3.3072841305 -1.0880901961
H  -1.8682705526  4.1815727809 -0.8408163635
O  -2.9096110988  0.7265961146 -1.1640776262
H  -2.6699027934  0.2963704840 -1.9990039172
O  -1.3721986296  0.0783914173  0.8906470888
H  -0.7119035881  0.0837233862  1.6059450111
O  -3.2810647732  2.0463891746  1.1183118943
H  -3.7790535276  2.8814613926  1.1927293431
O  -0.5337451978  2.6950430911  0.8580905599
H  -0.7133760088  2.9807100581  1.7589677885
H  -2.8325286786  3.4054705547 -1.8340802909
H  -3.4704973976  1.5329062523  1.9306599871
H  -3.8742850354  0.6521081035 -1.0398292120
H  -1.7470317130 -0.8124082353  0.8270042674
H   0.2165887318  0.4644583239 -1.3964911373
H   1.3169592245  3.2992838225  0.1982991691
N   2.1846172366  3.6390406642 -0.2436146929
H   2.0308805949  4.0301546567 -1.1781052498
H   2.5897137444  4.3885165538  0.3245698412
H   2.8795510144  2.8829027005 -0.3344964287
23
Image 58  Energy = -756.7884114430
Al -1.7106081072  1.7464916574 -0.0290261302
O  -0.3556066676  1.2484153576 -1.4511161238
H  -0.3668413953  1.5496125533 -2.3770113488
O  -2.2396406008  3.3028632171 -1.0807557092
H  -1.8722338536  4.1760302050 -0.8383790099
O  -2.9276125544  0.7114256869 -1.1627253751
H  -2.6883904157  0.2818848728 -2.0001736430
O  -1.3838122178  0.0825897843  0.8896053107
H  -0.7220908155  0.1073768326  1.5892435026
O  -3.2932066684  2.0409224241  1.1275373623
H  -3.7845810239  2.8810320795  1.1812583653
O  -0.5348483700  2.6887468870  0.8478162059
H  -0.7092331526  2.9884035981  1.7520877605
H  -2.8387554670  3.3853076301 -1.8297904011
H  -3.4695907094  1.5158577962  1.9190386474
H  -3.8833771510  0.6522710070 -1.0293301231
H  -1.7588391532 -0.8217127580  0.8381582430
H   0.1882283285  0.4429025616 -1.4247148622
H   1.3629322092  3.3361059620  0.2138295114
N   2.2497268747  3.6751349941 -0.2204840652
H   2.0814363035  4.0598802234 -1.1483554368
H   2.6569091495  4.4212833660  0.3487889828
H   2.9257495438  2.9207121459 -0.3054168023
23
Image 59  Energy = -756.7890850091
Al -1.7107892059  1.7520508744 -0.0276210337
O  -0.3548842569  1.2491519581 -1.4476149665
H  -0.3382741171  1.5698609297 -2.3556925988
O  -2.2296966891  3.3060529474 -1.0809386544
H  -1.8722050757  4.1783285292 -0.8403962038
O  -2.9247238884  0.7169102571 -1.1651793340
H  -2.6884215443  0.2817641649 -1.9999518480
O  -1.3779995162  0.0815479419  0.8894418620
H  -0.7173794066  0.0991687665  1.5970172151
O  -3.2851975905  2.0441907911  1.1238388017
H  -3.7813481393  2.8792677677  1.1791067612
O  -0.5262653624  2.6863051308  0.8470846017
H  -0.6934851303  2.9945220769  1.7452879719
H  -2.8379354831  3.3915498866 -1.8283889963
H  -3.4684084736  1.5180090248  1.9200117682
H  -3.8826115298  0.6494704234 -1.0303834705
H  -1.7552756259 -0.8131119118  0.8307883640
H   0.1963668706  0.4500283481 -1.4135869969
H   1.3417460513  3.3252387657  0.2027204420
N   2.2284852437  3.6664347021 -0.2244691193
H   2.0572333087  4.0500016740 -1.1544994750
H   2.6368306963  4.4097861967  0.3490442521
H   2.9099529497  2.9070088628 -0.3055344689
23
Image 60  Energy = -756.7895553032
Al -1.7144615660  1.7556911212 -0.0281964432
O  -0.3638739183  1.2414904954 -1.4486889088
H  -0.3450530285  1.5625482956 -2.3646336268
O  -2.2310293657  3.3053357672 -1.0747848849
H  -1.8758266406  4.1764117421 -0.8430069694
O  -2.9271218473  0.7170650750 -1.1663692727
H  -2.6973097996  0.2761990163 -1.9988506753
O  -1.3784003871  0.0823609436  0.8881056110
H  -0.7158781256  0.1000016493  1.5992790045
O  -3.2801543127  2.0437588785  1.1199227978
H  -3.7813363098  2.8751654256  1.1761351999
O  -0.5202029109  2.6808858601  0.8418608240
H  -0.6800155166  3.0013549460  1.7363376451
H  -2.8417356883  3.3913606117 -1.8277830694
H  -3.4695861943  1.5161789390  1.9176770563
H  -3.8871236788  0.6463600390 -1.0282613613
H  -1.7563503079 -0.8088350647  0.8294174551
H   0.1916814852  0.4482447163 -1.4154355123
H   1.3465218183  3.3322157945  0.2003676142
N   2.2325490103  3.6717007994 -0.2167931895
H   2.0584594223  4.0553843514 -1.1506017129
H   2.6454501223  4.4139909788  0.3592905064
H   2.9165118501  2.9086677110 -0.2949032251
23
Image 61  Energy = -756.7900952355
Al -1.7195956349  1.7608283416 -0.0288033082
O  -0.3807954474  1.2317449532 -1.4572761983
H  -0.3554779838  1.5487789941 -2.3728318964
O  -2.2374024083  3.3035237819 -1.0697653779
H  -1.8808137450  4.1756752066 -0.8464924131
O  -2.9351653456  0.7179180881 -1.1685216855
H  -2.7129552893  0.2654888188 -1.9973424995
O  -1.3752282941  0.0866547952  0.8884419446
H  -0.7148610524  0.1004615329  1.6018567403
O  -3.2727333483  2.0417585593  1.1166175334
H  -3.7809950839  2.8685032757  1.1695367668
O  -0.5073489302  2.6706386846  0.8315988137
H  -0.6543740085  3.0143579212  1.7198114901
H  -2.8462350326  3.3906330596 -1.8231218308
H  -3.4704655039  1.5134658848  1.9110333811
H  -3.8933024970  0.6406369509 -1.0244648848
H  -1.7590175936 -0.8023120242  0.8260470450
H   0.1844592418  0.4440468550 -1.4171823730
H   1.3513385095  3.3428464872  0.1963532759
N   2.2428907160  3.6814417118 -0.2060231619
H   2.0600038970  4.0630528104 -1.1410024029
H   2.6591553993  4.4196282456  0.3770706597
H   2.9246335874  2.9137651382 -0.2754547790
23
Image 62  Energy = -756.7909243397
Al -1.7199027491  1.7577670308 -0.0381041338
O  -0.4233850219  1.2012554646 -1.4823187320
H  -0.4053018976  1.5011831662 -2.4097794460
O  -2.2591517282  3.3020398021 -1.0620797736
H  -1.8952456204  4.1698244967 -0.8545091463
O  -2.9632757167  0.7183916970 -1.1750748650
H  -2.7553875415  0.2376186985 -1.9877494589
O  -1.3745425382  0.0945226277  0.8888685850
H  -0.7127612539  0.1020802000  1.6074741896
O  -3.2655436174  2.0365995093  1.1099752112
H  -3.7826804274  2.8482856994  1.1574558635
O  -0.4773325621  2.6482646320  0.8055850482
H  -0.6028313453  3.0367256613  1.6740012250
H  -2.8657796192  3.3863502974 -1.8159495506
H  -3.4764137155  1.5064623776  1.8967148952
H  -3.9153410465  0.6260525878 -1.0142978783
H  -1.7641528566 -0.7826813704  0.8243931938
H   0.1537760177  0.4329971558 -1.4259770924
H   1.3838189253  3.3766158168  0.2088148209
N   2.2891121608  3.7186665103 -0.1786455842
H   2.1024973132  4.0916979614 -1.1044051525
H   2.7010088189  4.4392991896  0.4161876811
H   2.9545302480  2.9435187908 -0.2304951009
23
Image 63  Energy = -756.7919636551
Al -1.7167265929  1.7527572143 -0.0480425891
O  -0.4618572283  1.1828811690 -1.5061153160
H  -0.4481177999  1.4613700675 -2.4378200097
O  -2.2780782400  3.2969610194 -1.0590555427
H  -1.9058766687  4.1684118473 -0.8603189531
O  -2.9876627081  0.7206938689 -1.1781070520
H  -2.7892110641  0.2136623190 -1.9807461970
O  -1.3684595625  0.1072915587  0.8932692997
H  -0.7135452628  0.1020517966  1.6096237774
O  -3.2581568489  2.0267493138  1.1042225188
H  -3.7880240607  2.8368208114  1.1494464354
O  -0.4530252340  2.6292385551  0.7793570569
H  -0.5654078903  3.0528971108  1.6393309465
H  -2.8837475971  3.3836285613 -1.8110347111
H  -3.4822519174  1.5013816178  1.8866192179
H  -3.9358231701  0.6142345518 -1.0058181771
H  -1.7708284058 -0.7732203781  0.8236555005
H   0.1315280463  0.4187703843 -1.4324222177
H   1.4180757094  3.4062677968  0.2224963819
N   2.3196549242  3.7422914297 -0.1494981060
H   2.1448373533  4.1199814811 -1.0804697832
H   2.7361453891  4.4604558570  0.4487069423
H   2.9822731235  2.9679599922 -0.1971946527
23
Image 64  Energy = -756.7926011579
Al -1.7092764382  1.7441932208 -0.0578174306
O  -0.4811538800  1.1722945229 -1.5213495256
H  -0.4812789202  1.4353116904 -2.4575166690
O  -2.2902487699  3.2943863993 -1.0619068058
H  -1.9117634182  4.1669360333 -0.8628074893
O  -3.0046993610  0.7204409303 -1.1795437003
H  -2.8066244002  0.2011942177 -1.9745528847
O  -1.3681421510  0.1114154820  0.8956660401
H  -0.7139663101  0.1022202853  1.6103530290
O  -3.2601187973  2.0212400871  1.1023950952
H  -3.7927107999  2.8314938263  1.1474410990
O  -0.4426052989  2.6227904213  0.7647350557
H  -0.5554318535  3.0533307791  1.6193490895
H  -2.8972959381  3.3813999733 -1.8103845442
H  -3.4867599789  1.4977813558  1.8843314906
H  -3.9500629000  0.6090896246 -1.0003287847
H  -1.7740171170 -0.7691227347  0.8268765367
H   0.1153498591  0.4103031646 -1.4377558482
H   1.4446752233  3.4241361510  0.2425146484
N   2.3426363895  3.7578565154 -0.1330472863
H   2.1869460652  4.1414420580 -1.0667417613
H   2.7579938284  4.4781018432  0.4643652513
H   3.0042692894  2.9853020577 -0.1841898432
23
Image 65  Energy = -756.7930598866
Al -1.7012657309  1.7340481571 -0.0778381933
O  -0.5198695546  1.1506842928 -1.5563173446
H  -0.5441114657  1.3842752199 -2.4884224032
O  -2.3069237033  3.2931716252 -1.0644722786
H  -1.9263520296  4.1597958474 -0.8702618078
O  -3.0366953738  0.7190852347 -1.1815576493
H  -2.8417269934  0.1748772294 -1.9626154097
O  -1.3674798241  0.1139558451  0.8986794835
H  -0.7124465382  0.1023494345  1.6141456978
O  -3.2628876070  2.0136342402  1.0982987203
H  -3.8006908241  2.8216922994  1.1403974671
O  -0.4200380052  2.6086957035  0.7247534163
H  -0.5348328671  3.0551638546  1.5818773906
H  -2.9284091465  3.3780731624 -1.8106678036
H  -3.4939558669  1.4873166038  1.8822611598
H  -3.9826900219  0.5996290668 -0.9861406358
H  -1.7803546783 -0.7610956870  0.8324865934
H   0.0846622813  0.3938386801 -1.4482655245
H   1.4896045911  3.4574940562  0.2819065175
N   2.3916066201  3.7949142491 -0.1018689885
H   2.2683122119  4.1845281015 -1.0387038083
H   2.7996842083  4.5144665563  0.4992953661
H   3.0525747084  3.0129440629 -0.1568852409
23
Image 66  Energy = -756.7934913488
Al -1.7025296780  1.7334915180 -0.0837097699
O  -0.5233671804  1.1435202962 -1.5551735977
H  -0.5560898862  1.3775455434 -2.4984020342
O  -2.3110978654  3.2901734871 -1.0710594185
H  -1.9280379794  4.1608787133 -0.8716284164
O  -3.0445183615  0.7165573377 -1.1810408699
H  -2.8465294955  0.1714369388 -1.9588620037
O  -1.3672630439  0.1115648488  0.8986318065
H  -0.7117178546  0.1020031092  1.6147838791
O  -3.2656804196  2.0123498819  1.1001132552
H  -3.8023625008  2.8218523742  1.1394200531
O  -0.4184880297  2.6123424325  0.7197902768
H  -0.5375111985  3.0468341078  1.5707014195
H  -2.9341037978  3.3779102557 -1.8088143306
H  -3.4940311416  1.4854248699  1.8832461715
H  -3.9883577049  0.6001739570 -0.9823933754
H  -1.7817506271 -0.7631056868  0.8350418621
H   0.0783155563  0.3929548675 -1.4517952640
H   1.5006121114  3.4639022280  0.2907624347
N   2.4013549383  3.7978404056 -0.0952831481
H   2.2879209609  4.1947915235 -1.0354000552
H   2.8070094453  4.5247352402  0.5059795919
H   3.0639381558  3.0183595759 -0.1548237505
23
Image 67  Energy = -756.7936721556
Al -1.7067649083  1.7367246922 -0.0832408509
O  -0.5225520868  1.1436441938 -1.5532886928
H  -0.5525617758  1.3802612520 -2.4956137482
O  -2.3090004727  3.2901910088 -1.0726858981
H  -1.9281643926  4.1609076447 -0.8725142768
O  -3.0442490307  0.7152744533 -1.1801395003
H  -2.8457884702  0.1721287751 -1.9584328778
O  -1.3668646971  0.1090737600  0.8974998505
H  -0.7111687835  0.1016441543  1.6150011112
O  -3.2656010218  2.0138975995  1.1013611133
H  -3.8013726986  2.8224141789  1.1386229474
O  -0.4200146743  2.6144859274  0.7182040822
H  -0.5392428651  3.0440822310  1.5700610342
H  -2.9341798941  3.3785967568 -1.8078306073
H  -3.4923689895  1.4853084114  1.8836705483
H  -3.9875228742  0.6015947147 -0.9814635716
H  -1.7815799611 -0.7647258857  0.8351412255
H   0.0805923565  0.3933693582 -1.4521129279
H   1.4988087486  3.4630254712  0.2875112716
N   2.4017726090  3.7969117344 -0.0963268140
H   2.2847094511  4.1936315522 -1.0349799075
H   2.8051560870  4.5240896381  0.5064852571
H   3.0636727450  3.0170062053 -0.1548440553
23
Image 68  Energy = -756.7943028944
Al -1.7254338821  1.7459844772 -0.0894740188
O  -0.5380284085  1.1287694764 -1.5565735289
H  -0.5655795869  1.3695818185 -2.5006771885
O  -2.3074759833  3.2884431618 -1.0836758859
H  -1.9356823361  4.1588865678 -0.8817141190
O  -3.0575170319  0.7090266127 -1.1739310631
H  -2.8617610591  0.1611193062 -1.9499272071
O  -1.3627871031  0.1001705547  0.8928466247
H  -0.7096210030  0.0991339475  1.6153840294
O  -3.2629366648  2.0164876753  1.1049741254
H  -3.8017277188  2.8215151073  1.1316493268
O  -0.4192388222  2.6178027948  0.6860830206
H  -0.5375702247  3.0304483715  1.5477736467
H  -2.9519282736  3.3807387841 -1.8027136800
H  -3.4867185644  1.4807378427  1.8840819728
H  -4.0010277447  0.6040726790 -0.9689306979
H  -1.7839723209 -0.7710356465  0.8393017134
H   0.0755303602  0.3893477391 -1.4601136650
H   1.5177382836  3.4777021344  0.2849141755
N   2.4281530166  3.8111040657 -0.0822053723
H   2.3082402956  4.2093131393 -1.0164355909
H   2.8180199913  4.5367421639  0.5275092402
H   3.0870392433  3.0274450429 -0.1380611429
23
Image 69  Energy = -756.7947279431
Al -1.7448577810  1.7462079141 -0.1041298148
O  -0.5759768571  1.1072438768 -1.5780837917
H  -0.6021257168  1.3387815694 -2.5120964217
O  -2.3169363257  3.2823521737 -1.1058958362
H  -1.9475543401  4.1582007488 -0.8964872433
O  -3.0871107097  0.6997809532 -1.1635448793
H  -2.8959126518  0.1392374458 -1.9319894169
O  -1.3584805346  0.0910859493  0.8863602769
H  -0.7091927540  0.0946563915  1.6134607125
O  -3.2584533947  2.0174982564  1.1084875295
H  -3.8057165686  2.8168878921  1.1231531038
O  -0.4176815064  2.6222309511  0.6359167360
H  -0.5310595917  3.0073712541  1.5017543483
H  -2.9853309573  3.3826187978 -1.7942382022
H  -3.4807186726  1.4748054421  1.8830985337
H  -4.0265904631  0.6052402630 -0.9485467470
H  -1.7876521200 -0.7781296013  0.8487222741
H   0.0631885729  0.3745615873 -1.4740122570
H   1.5621786356  3.5087287498  0.2904982619
N   2.4775708979  3.8376481968 -0.0531316514
H   2.3665950550  4.2452806736 -0.9840263148
H   2.8525744004  4.5661746003  0.5696569196
H   3.1349579230  3.0550736726 -0.1048414345
23
Image 70  Energy = -756.7952371042
Al -1.7478227642  1.7404000392 -0.1135330782
O  -0.5952978152  1.0895467250 -1.5880768683
H  -0.6279333205  1.3189103981 -2.5271521264
O  -2.3231526477  3.2816998977 -1.1137752332
H  -1.9550844708  4.1547893691 -0.9044704504
O  -3.1035132451  0.6963125095 -1.1591498832
H  -2.9167974075  0.1261949818 -1.9218242196
O  -1.3574127118  0.0893892711  0.8841592049
H  -0.7097852754  0.0926062737  1.6116295443
O  -3.2562428114  2.0166374800  1.1085600163
H  -3.8090940910  2.8126067230  1.1200666499
O  -0.4156133110  2.6193666816  0.6065078745
H  -0.5249526565  3.0002076049  1.4804409751
H  -3.0059687969  3.3829450423 -1.7928018873
H  -3.4797443326  1.4722157946  1.8818032789
H  -4.0428450686  0.6036303862 -0.9383569673
H  -1.7894904324 -0.7789872242  0.8539156723
H   0.0495953689  0.3694390297 -1.4818134673
H   1.5886108210  3.5266669757  0.2989559963
N   2.5063374556  3.8572626293 -0.0355035792
H   2.4045735506  4.2670274733 -0.9659301885
H   2.8744986526  4.5819985564  0.5920109087
H   3.1628498822  3.0726711027 -0.0855775084
23
Image 71  Energy = -756.7958359503
Al -1.7500604640  1.7233563357 -0.1335396094
O  -0.6359740580  1.0561570878 -1.6122670833
H  -0.6797085784  1.2785950123 -2.5554919367
O  -2.3402590280  3.2785100514 -1.1312360002
H  -1.9687576448  4.1489923900 -0.9204918716
O  -3.1355536955  0.6900721999 -1.1495344449
H  -2.9594428390  0.1006315193 -1.9007853724
O  -1.3572110354  0.0874899766  0.8797584425
H  -0.7114935783  0.0886314173  1.6063015268
O  -3.2506484301  2.0147517616  1.1075092006
H  -3.8163881177  2.8034158795  1.1162038377
O  -0.4144217112  2.6138814436  0.5534175166
H  -0.5122781252  2.9858610845  1.4369422268
H  -3.0459910813  3.3835898988 -1.7895255421
H  -3.4783244136  1.4691001278  1.8788624722
H  -4.0749739422  0.5999560534 -0.9188650545
H  -1.7924292036 -0.7797847718  0.8644871539
H   0.0233912339  0.3576782062 -1.4969469009
H   1.6422170309  3.5620756361  0.3159986361
N   2.5628880477  3.8965056136 -0.0007274657
H   2.4814093218  4.3111016119 -0.9312716401
H   2.9205396186  4.6129794613  0.6372745274
H   3.2191853356  3.1099896326 -0.0459880140
23
Image 72  Energy = -756.7963358591
Al -1.7590384548  1.7043547475 -0.1610440546
O  -0.6889242410  1.0133972775 -1.6412374109
H  -0.7396801151  1.2320211360 -2.5887543155
O  -2.3630185361  3.2710013438 -1.1556263695
H  -1.9856783364  4.1408303528 -0.9436430238
O  -3.1768350528  0.6791013181 -1.1352533630
H  -3.0135372098  0.0699116580 -1.8725210926
O  -1.3582955203  0.0823189545  0.8728521673
H  -0.7121127207  0.0843300502  1.5981795646
O  -3.2423703055  2.0147486950  1.1074489473
H  -3.8238281459  2.7923852313  1.1121204351
O  -0.4178061046  2.6090333241  0.4901548043
H  -0.4982333971  2.9644018778  1.3803775648
H  -3.0963709299  3.3861527146 -1.7843549947
H  -3.4736682587  1.4671929605  1.8753750284
H  -4.1131162711  0.5977596981 -0.8929377525
H  -1.7965085448 -0.7837931758  0.8770334640
H  -0.0048787853  0.3424015999 -1.5170452275
H   1.7087971545  3.6059387123  0.3322990140
N   2.6346769661  3.9427257374  0.0413509448
H   2.5755699311  4.3669791042 -0.8885035856
H   2.9790659112  4.6521435087  0.6978534878
H   3.2915056728  3.1582007063  0.0059603171
23
Image 73  Energy = -756.7964149248
Al -1.7783913200  1.6733287586 -0.2101789766
O  -0.7815443417  0.9377050268 -1.7045312010
H  -0.8345273346  1.1555630530 -2.6338836972
O  -2.4126310872  3.2570740444 -1.1999558867
H  -2.0150951159  4.1160397780 -0.9897266309
O  -3.2420355076  0.6578432149 -1.1075659589
H  -3.1073129829  0.0182750512 -1.8244655917
O  -1.3651458248  0.0707403030  0.8624277328
H  -0.7113553969  0.0810972405  1.5776357854
O  -3.2260226749  2.0187315996  1.1058753057
H  -3.8334057328  2.7746881611  1.1093678759
O  -0.4342660071  2.5916613991  0.3864242990
H  -0.4760790515  2.9329932114  1.2951307506
H  -3.1771303648  3.3918099286 -1.7738032858
H  -3.4620495016  1.4681797517  1.8710157910
H  -4.1805004496  0.5961898123 -0.8461981332
H  -1.8043223944 -0.7920888180  0.8947770636
H  -0.0483364588  0.3181513863 -1.5533690787
H   1.8219626012  3.6788366563  0.3555305140
N   2.7587620846  4.0341066580  0.1135102977
H   2.7364128394  4.4618981833 -0.8145123126
H   3.0778623692  4.7103284580  0.7987732298
H   3.4208664797  3.2403845461  0.0978065522
23
Image 74  Energy = -756.7972329191
Al -1.7791271810  1.6783370903 -0.2040684820
O  -0.7665307092  0.9461555496 -1.6903247919
H  -0.8154097383  1.1716125542 -2.6293251507
O  -2.4071189583  3.2553581896 -1.1928278796
H  -2.0096312749  4.1179494551 -0.9850938052
O  -3.2325366240  0.6591100891 -1.1098402042
H  -3.0928053954  0.0275060187 -1.8315368485
O  -1.3663537997  0.0721776697  0.8633746266
H  -0.7101467439  0.0831119372  1.5784288086
O  -3.2275854610  2.0192710458  1.1066918679
H  -3.8305683615  2.7787515221  1.1114657265
O  -0.4362194877  2.5942626248  0.4111705000
H  -0.4805748307  2.9369487668  1.3071983969
H  -3.1647312714  3.3922176798 -1.7766034135
H  -3.4615413726  1.4704072684  1.8717843430
H  -4.1672489277  0.5981095979 -0.8530990670
H  -1.8036707096 -0.7927591362  0.8905625027
H  -0.0397492174  0.3236550340 -1.5493219475
H   1.8049946635  3.6672233208  0.3485361783
N   2.7384161260  4.0141640515  0.1000113002
H   2.7102226806  4.4476993851 -0.8273117273
H   3.0632197869  4.7017788897  0.7855616718
H   3.4004116087  3.2304888281  0.0846518609
23
Image 75  Energy = -756.7976446850
Al -1.7889932347  1.6749588117 -0.2133438105
O  -0.7822738998  0.9304287386 -1.6974642833
H  -0.8238403990  1.1648570627 -2.6375196375
O  -2.4172906869  3.2479266399 -1.1988888761
H  -2.0134416376  4.1095572741 -0.9967916361
O  -3.2430243496  0.6525172916 -1.1024848324
H  -3.1081125117  0.0204343287 -1.8236616764
O  -1.3708952759  0.0692023901  0.8607521807
H  -0.7079740205  0.0851310146  1.5711671288
O  -3.2239014632  2.0221456176  1.1072682208
H  -3.8297244800  2.7783708463  1.1131198634
O  -0.4455565091  2.5893948211  0.4033137446
H  -0.4789640961  2.9317714007  1.2951447686
H  -3.1790127636  3.3949387796 -1.7773469027
H  -3.4557552747  1.4734334368  1.8718536017
H  -4.1754198919  0.6005458484 -0.8441780042
H  -1.8059153728 -0.7971598294  0.8910217248
H  -0.0425286909  0.3212236096 -1.5576157245
H   1.8234898127  3.6782990401  0.3474072592
N   2.7584978947  4.0243256503  0.1095677999
H   2.7350138570  4.4637867208 -0.8163594605
H   3.0792737010  4.7109070150  0.8041943328
H   3.4220641064  3.2465409149  0.1009286759
23
Image 76  Energy = -756.7983418026
Al -1.8108694479  1.6745721392 -0.2221779103
O  -0.7972054238  0.9079147083 -1.7039815759
H  -0.8166422164  1.1696703428 -2.6424309817
O  -2.4350890026  3.2329290371 -1.2044082161
H  -2.0145785136  4.0895642544 -1.0169674912
O  -3.2496842182  0.6403129939 -1.0899194796
H  -3.1228329083  0.0156689754 -1.8172309026
O  -1.3825013142  0.0644387628  0.8573991680
H  -0.7029675448  0.0927671317  1.5535002208
O  -3.2187520828  2.0299842350  1.1087655520
H  -3.8237677078  2.7846332854  1.1194679591
O  -0.4686747648  2.5758175882  0.4086160005
H  -0.4823242084  2.9304788684  1.2956714891
H  -3.1925742754  3.3996674745 -1.7821540785
H  -3.4417186322  1.4816112555  1.8749594799
H  -4.1807974845  0.6082166745 -0.8319183328
H  -1.8096547839 -0.8070105260  0.8859878220
H  -0.0376335055  0.3236159188 -1.5705438140
H   1.8405717876  3.6861130512  0.3370762601
N   2.7774661751  4.0340544426  0.1166024315
H   2.7572436034  4.4796923346 -0.8066754834
H   3.0919198885  4.7153359685  0.8223028860
H   3.4467813917  3.2634885250  0.1181434504
23
Image 77  Energy = -756.7987932415
Al -1.8429262720  1.6562594714 -0.2396619355
O  -0.8498615746  0.8581447216 -1.7401813711
H  -0.8432304624  1.1466015469 -2.6638013017
O  -2.4697770246  3.2147606121 -1.2248323832
H  -2.0225713141  4.0537059554 -1.0560846007
O  -3.2847304628  0.6194322049 -1.0645640914
H  -3.1735101082 -0.0134409467 -1.7977544526
O  -1.4006412620  0.0575878506  0.8479447818
H  -0.7001382546  0.0994263712  1.5202819500
O  -3.2124090812  2.0380831541  1.1123286425
H  -3.8210904375  2.7945888387  1.1245801323
O  -0.4931326778  2.5551730674  0.3829279336
H  -0.4816369062  2.9164547672  1.2602625606
H  -3.2474282317  3.4019685315 -1.7928390625
H  -3.4179418486  1.4877186446  1.8807719132
H  -4.2149320890  0.6163341853 -0.7986069840
H  -1.8145935566 -0.8202124024  0.8869141065
H  -0.0471361416  0.3169281280 -1.5983092811
H   1.9046750605  3.7223866617  0.3383785793
N   2.8481531414  4.0747875753  0.1533643458
H   2.8506609144  4.5358629785 -0.7654649941
H   3.1377160539  4.7496626092  0.8788504303
H   3.5221973632  3.3113228781  0.1655795227
23
Image 78  Energy = -756.7994504407
Al -1.8524826247  1.6513855326 -0.2398357040
O  -0.8581964523  0.8431919269 -1.7465352739
H  -0.8438979709  1.1464584781 -2.6695071717
O  -2.4860653432  3.2070655932 -1.2329298834
H  -2.0205105626  4.0430350582 -1.0673895457
O  -3.2924602985  0.6102956147 -1.0599322466
H  -3.1854988336 -0.0180078122 -1.7923602116
O  -1.4090058581  0.0559334797  0.8444906128
H  -0.6991582696  0.1025674281  1.5073920115
O  -3.2138927473  2.0428597324  1.1136912421
H  -3.8173522759  2.8003560669  1.1277207766
O  -0.5016697920  2.5449147152  0.3782323496
H  -0.4847375333  2.9163564515  1.2600043248
H  -3.2572558495  3.4000994547 -1.7959218438
H  -3.4089064300  1.4901010044  1.8851057187
H  -4.2226144748  0.6196001469 -0.7894548619
H  -1.8152812869 -0.8244964979  0.8851339623
H  -0.0500946677  0.3193228892 -1.6064903429
H   1.9201205261  3.7293381660  0.3371107100
N   2.8643679398  4.0859647296  0.1614860158
H   2.8742740039  4.5489747781 -0.7545587346
H   3.1448974101  4.7573254296  0.8900122174
H   3.5411362134  3.3208950455  0.1746203265
23
Image 79  Energy = -756.7998367625
Al -1.8590351270  1.6432072646 -0.2368204084
O  -0.8662295145  0.8310722263 -1.7558379674
H  -0.8477341129  1.1442155531 -2.6744716401
O  -2.5006307305  3.2029078200 -1.2410209945
H  -2.0183797543  4.0309296482 -1.0782527457
O  -3.3028193502  0.6023262907 -1.0558373450
H  -3.1987365821 -0.0244990243 -1.7878456896
O  -1.4173346452  0.0557093486  0.8409343975
H  -0.7002052649  0.1043516892  1.4930320626
O  -3.2181273867  2.0452804731  1.1157112184
H  -3.8144444951  2.8084241880  1.1308367390
O  -0.5047666519  2.5357294046  0.3725562617
H  -0.4891897718  2.9153423222  1.2558711372
H  -3.2689144490  3.3950609648 -1.8005503184
H  -3.4002785108  1.4916639516  1.8906396293
H  -4.2320468860  0.6210634162 -0.7805360817
H  -1.8150252000 -0.8278742392  0.8840834860
H  -0.0556813607  0.3215387784 -1.6137290967
H   1.9384485210  3.7372073347  0.3394544405
N   2.8823934819  4.0987500673  0.1714624279
H   2.9032402604  4.5635153141 -0.7412060603
H   3.1505875080  4.7681349321  0.9002099468
H   3.5606248381  3.3294796814  0.1814010643
23
Image 80  Energy = -756.8000590298
Al -1.8668402621  1.6347114058 -0.2376715255
O  -0.8796761763  0.8191717956 -1.7652641002
H  -0.8534577073  1.1413771202 -2.6809189308
O  -2.5142066128  3.1955122401 -1.2481367819
H  -2.0181230341  4.0172347399 -1.0923437514
O  -3.3144042485  0.5946884243 -1.0494236135
H  -3.2157836673 -0.0326190745 -1.7819498365
O  -1.4272292251  0.0543795260  0.8368350994
H  -0.7000464792  0.1063130881  1.4777847897
O  -3.2214641042  2.0472672743  1.1170452107
H  -3.8112879196  2.8158003408  1.1357092096
O  -0.5091254585  2.5261532999  0.3654512785
H  -0.4942682737  2.9126484918  1.2479359827
H  -3.2831665436  3.3907049721 -1.8057893446
H  -3.3917874544  1.4954885269  1.8966018368
H  -4.2434666813  0.6216232336 -0.7708896560
H  -1.8154617401 -0.8324753182  0.8828560112
H  -0.0597393391  0.3219599579 -1.6215909086
H   1.9606836372  3.7471265054  0.3416381341
N   2.9046348283  4.1117546815  0.1823299580
H   2.9368826412  4.5813678990 -0.7264556795
H   3.1596309826  4.7811045811  0.9148800384
H   3.5834176509  3.3422436825  0.1914510453
23
Image 81  Energy = -756.8004263562
Al -1.8832397849  1.6164885716 -0.2408190364
O  -0.8966351037  0.8010654819 -1.7818839262
H  -0.8627423799  1.1436285108 -2.6896150163
O  -2.5391025174  3.1745500224 -1.2589799358
H  -2.0186256248  3.9823526993 -1.1285911737
O  -3.3418013020  0.5790719057 -1.0356250308
H  -3.2550043008 -0.0476542117 -1.7691796310
O  -1.4500966942  0.0515572695  0.8312115742
H  -0.7013166075  0.1102281688  1.4370416087
O  -3.2340145996  2.0478773918  1.1189306539
H  -3.8006287726  2.8349922642  1.1546981684
O  -0.5150016666  2.5040637876  0.3575017439
H  -0.5142423412  2.9062032188  1.2285716312
H  -3.3063408384  3.3748707372 -1.8190927915
H  -3.3753080770  1.5124313664  1.9147783450
H  -4.2653283233  0.6174484066 -0.7544734329
H  -1.8177098332 -0.8465469828  0.8765226184
H  -0.0745906142  0.3293814207 -1.6359716025
H   2.0099685950  3.7655426309  0.3458755655
N   2.9515221355  4.1386515594  0.2039082809
H   3.0112442335  4.6201124775 -0.6969705040
H   3.1737921812  4.8088736735  0.9433302968
H   3.6309170673  3.3683470278  0.2089160661
23
Image 82  Energy = -756.8009038700
Al -1.8811302668  1.6148329199 -0.2410011073
O  -0.8977449477  0.8161466695 -1.7806703910
H  -0.8609375697  1.1521701284 -2.6848432978
O  -2.5377307333  3.1672696666 -1.2566742576
H  -2.0182473684  3.9755112493 -1.1373003138
O  -3.3420613949  0.5793169295 -1.0360851238
H  -3.2612679176 -0.0473264348 -1.7688169256
O  -1.4592424125  0.0485044647  0.8301400874
H  -0.6991893365  0.1096830824  1.4288242140
O  -3.2419306211  2.0446758653  1.1174950005
H  -3.7953028442  2.8399647792  1.1652911469
O  -0.5121986800  2.4973972836  0.3569034019
H  -0.5257254497  2.9074710111  1.2294228258
H  -3.2996152816  3.3649015779 -1.8218291122
H  -3.3762704562  1.5223631184  1.9232409558
H  -4.2697721894  0.6109371527 -0.7561857650
H  -1.8176572275 -0.8490427712  0.8723750628
H  -0.0715832507  0.3302982826 -1.6321192957
H   2.0156542848  3.7640512528  0.3460043115
N   2.9547643432  4.1401342686  0.2022300829
H   3.0197648366  4.6232899115 -0.6956285610
H   3.1699431894  4.8117153627  0.9430721142
H   3.6331961319  3.3692716486  0.2062394177
23
Image 83  Energy = -756.8012628553
Al -1.8760684483  1.6187250869 -0.2418391060
O  -0.8877843444  0.8356629359 -1.7690414465
H  -0.8550943312  1.1648715177 -2.6793322604
O  -2.5273473227  3.1627313956 -1.2494370012
H  -2.0171982576  3.9776929677 -1.1380701457
O  -3.3368235331  0.5843945211 -1.0394800403
H  -3.2569084327 -0.0426735127 -1.7729880409
O  -1.4603552675  0.0477881202  0.8323958220
H  -0.6977897994  0.1077012237  1.4287815179
O  -3.2475429979  2.0406221467  1.1153826770
H  -3.7913714949  2.8406398251  1.1733132827
O  -0.5080010757  2.4971922109  0.3635759351
H  -0.5343138601  2.9094990724  1.2331173797
H  -3.2851130254  3.3572055979 -1.8222336515
H  -3.3822076410  1.5305418128  1.9284783300
H  -4.2663367936  0.6042728725 -0.7634762567
H  -1.8185482810 -0.8511489844  0.8686109984
H  -0.0685150166  0.3327465292 -1.6240655020
H   2.0070091626  3.7564126342  0.3431849520
N   2.9451012792  4.1328487681  0.1940201710
H   3.0067803668  4.6160171685 -0.7045965445
H   3.1619561398  4.8060861778  0.9349719204
H   3.6221878248  3.3637073600  0.1988114789
23
Image 84  Energy = -756.8016261513
Al -1.8805729360  1.6161935266 -0.2434068561
O  -0.8822431231  0.8528813791 -1.7637697535
H  -0.8534313166  1.1813097545 -2.6739832761
O  -2.5243282375  3.1502938176 -1.2480634492
H  -2.0124809850  3.9701382517 -1.1523475339
O  -3.3441924020  0.5821856293 -1.0411620694
H  -3.2651224848 -0.0442112773 -1.7746855142
O  -1.4702460253  0.0442468564  0.8311271894
H  -0.6944636458  0.1048870492  1.4153985322
O  -3.2583989307  2.0369177013  1.1152020730
H  -3.7821651126  2.8504818987  1.1887568588
O  -0.5088776628  2.4878018014  0.3683413573
H  -0.5511165935  2.9099460694  1.2290884101
H  -3.2790796758  3.3374328773 -1.8283851381
H  -3.3824222649  1.5453225547  1.9428327363
H  -4.2724419500  0.5960295814 -0.7621611193
H  -1.8213517744 -0.8591119544  0.8615377648
H  -0.0706026467  0.3385515398 -1.6194784033
H   2.0132316885  3.7551427007  0.3367561024
N   2.9525330436  4.1361444903  0.1935443104
H   3.0169817686  4.6231680976 -0.7068121763
H   3.1644045698  4.8080526837  0.9397480316
H   3.6321015606  3.3697324366  0.2020063986
23
Image 85  Energy = -756.8018669935
Al -1.8891445073  1.6125825496 -0.2434323446
O  -0.8722246787  0.8816609934 -1.7506377440
H  -0.8505016782  1.2103567504 -2.6665796982
O  -2.5127275186  3.1416898874 -1.2482005424
H  -2.0060970978  3.9558798893 -1.1732397457
O  -3.3555779215  0.5803254308 -1.0459722560
H  -3.2742519974 -0.0480188590 -1.7818143966
O  -1.4771453183  0.0368583282  0.8327168073
H  -0.6942533724  0.0969012447  1.3938431465
O  -3.2777236345  2.0336146431  1.1207941870
H  -3.7654800873  2.8642354678  1.2098297404
O  -0.5141557377  2.4721158805  0.3737099742
H  -0.5758466844  2.9137231609  1.2270514035
H  -3.2688081485  3.3016104871 -1.8376211406
H  -3.3826935251  1.5674119645  1.9627449411
H  -4.2823478862  0.5831660156 -0.7584915633
H  -1.8262902641 -0.8701460062  0.8503605827
H  -0.0730470202  0.3482054478 -1.6108622578
H   2.0211017850  3.7535994506  0.3215090381
N   2.9591879203  4.1420278972  0.1887810660
H   3.0247066757  4.6294653676 -0.7098666911
H   3.1715937954  4.8059427398  0.9458116040
H   3.6474417890  3.3803287621  0.2096503733
23
Image 86  Energy = -756.8021444597
Al -1.8961061810  1.6083842846 -0.2419818789
O  -0.8762167636  0.8770991822 -1.7549030303
H  -0.8533297205  1.2111819648 -2.6672247162
O  -2.5193710914  3.1372374762 -1.2546372743
H  -2.0022391471  3.9544764797 -1.1795312326
O  -3.3629148428  0.5762855069 -1.0456828247
H  -3.2805017756 -0.0520181423 -1.7808518159
O  -1.4815704110  0.0341324797  0.8286773881
H  -0.6924491948  0.0948440032  1.3893640045
O  -3.2788578806  2.0353878197  1.1233108235
H  -3.7632640679  2.8694944561  1.2105322365
O  -0.5197947466  2.4693333492  0.3747410511
H  -0.5771556227  2.9124209301  1.2211205024
H  -3.2747885184  3.2952805647 -1.8399485861
H  -3.3786848757  1.5677394092  1.9664526548
H  -4.2874349505  0.5832300816 -0.7522532934
H  -1.8269810079 -0.8716892653  0.8496764555
H  -0.0761003405  0.3501257500 -1.6139033067
H   2.0301227983  3.7589032909  0.3179374574
N   2.9695776990  4.1470443360  0.1945052262
H   3.0357868868  4.6366464564 -0.7047859173
H   3.1792154163  4.8085313128  0.9523092553
H   3.6587732264  3.3894657632  0.2171613046
23
Image 87  Energy = -756.8022413643
Al -1.9007141152  1.6056282023 -0.2401449464
O  -0.8803566040  0.8731393671 -1.7586985531
H  -0.8552938656  1.2106630926 -2.6673145253
O  -2.5216410590  3.1365448606 -1.2585452736
H  -2.0010607654  3.9525820235 -1.1832812263
O  -3.3673509194  0.5737774737 -1.0457616896
H  -3.2844152866 -0.0544972859 -1.7799584405
O  -1.4823270007  0.0332137483  0.8261335910
H  -0.6924697857  0.0927855379  1.3869285638
O  -3.2784165376  2.0369507538  1.1252399332
H  -3.7624713959  2.8729290003  1.2094342811
O  -0.5245324025  2.4671306049  0.3732670370
H  -0.5765367457  2.9129344239  1.2196520006
H  -3.2804789393  3.2922778043 -1.8421258188
H  -3.3758459897  1.5663987737  1.9680424598
H  -4.2904702706  0.5835324978 -0.7479319677
H  -1.8276670600 -0.8729792572  0.8498478623
H  -0.0775219496  0.3509492905 -1.6163774976
H   2.0361807254  3.7628043560  0.3157629038
N   2.9757945425  4.1508942154  0.1981250201
H   3.0426067224  4.6407666717 -0.7004621136
H   3.1842812090  4.8100900660  0.9561810144
H   3.6664223801  3.3950212649  0.2220718681
23
Image 88  Energy = -756.8023285960
Al -1.9070109340  1.6026140794 -0.2372626823
O  -0.8851030682  0.8732747336 -1.7593907346
H  -0.8559921232  1.2157779236 -2.6657329528
O  -2.5223001700  3.1339346267 -1.2639397903
H  -1.9999596576  3.9491333600 -1.1911070456
O  -3.3722809584  0.5727324280 -1.0465228386
H  -3.2901596518 -0.0570583503 -1.7802927821
O  -1.4835622982  0.0290778517  0.8225185403
H  -0.6926766769  0.0874163859  1.3827152814
O  -3.2797300033  2.0387029218  1.1284700917
H  -3.7589724458  2.8784891411  1.2102382871
O  -0.5319685844  2.4640190148  0.3741608544
H  -0.5780536612  2.9153456430  1.2194959902
H  -3.2826462816  3.2839860457 -1.8451557214
H  -3.3732741322  1.5674785244  1.9721012475
H  -4.2942966127  0.5805003489 -0.7435425635
H  -1.8291179027 -0.8750133120  0.8486592237
H  -0.0783331780  0.3537713338 -1.6177859386
H   2.0433865380  3.7663190661  0.3113635633
N   2.9823366794  4.1548387087  0.1999907925
H   3.0499140834  4.6451594213 -0.6959568769
H   3.1893336091  4.8116852739  0.9600482797
H   3.6761823428  3.4013523240  0.2270122581
23
Image 89  Energy = -756.8024209095
Al -1.9152754686  1.5993655995 -0.2330102003
O  -0.8906075280  0.8718111700 -1.7597856122
H  -0.8563104617  1.2241861741 -2.6620188741
O  -2.5203969814  3.1290655320 -1.2700503843
H  -2.0004266312  3.9442994673 -1.2029801783
O  -3.3785172331  0.5723558667 -1.0478975499
H  -3.2982578981 -0.0588986949 -1.7799088018
O  -1.4823482715  0.0246878734  0.8172916098
H  -0.6942621064  0.0780649109  1.3777526683
O  -3.2804508146  2.0414195610  1.1331396222
H  -3.7538334705  2.8851537075  1.2106432950
O  -0.5430728295  2.4622605446  0.3782584493
H  -0.5786692701  2.9194332896  1.2202482632
H  -3.2855733882  3.2739591881 -1.8507467205
H  -3.3704781423  1.5690765785  1.9764891642
H  -4.2980038076  0.5748139300 -0.7385760348
H  -1.8326085275 -0.8804316966  0.8472664765
H  -0.0809066575  0.3597592353 -1.6198754875
H   2.0522132201  3.7700583861  0.3062066207
N   2.9917716879  4.1584653549  0.2035751309
H   3.0596088525  4.6514230925 -0.6912810145
H   3.1940176597  4.8142122614  0.9636575927
H   3.6881030034  3.4089961680  0.2316864390
23
Image 90  Energy = -756.8025218095
Al -1.9186069011  1.5990724153 -0.2305879915
O  -0.8933041538  0.8755764557 -1.7576892720
H  -0.8550560134  1.2341741773 -2.6567379861
O  -2.5176232657  3.1236973831 -1.2735200877
H  -2.0015841530  3.9411583682 -1.2123880441
O  -3.3814070662  0.5742075211 -1.0490990911
H  -3.3029343222 -0.0584145918 -1.7805443275
O  -1.4826108396  0.0186173555  0.8135185302
H  -0.6944347650  0.0702378709  1.3754612548
O  -3.2815449871  2.0421735786  1.1352764634
H  -3.7490417655  2.8889991575  1.2131053477
O  -0.5497419559  2.4616845913  0.3825722863
H  -0.5805866830  2.9241353934  1.2240698387
H  -3.2823533279  3.2655496916 -1.8544585385
H  -3.3707201013  1.5729921386  1.9802678851
H  -4.2996049512  0.5682743111 -0.7371256771
H  -1.8355350613 -0.8840128176  0.8451527341
H  -0.0812379839  0.3647526561 -1.6189777853
H   2.0560000407  3.7697532024  0.3030816167
N   2.9950588755  4.1597124553  0.2025568235
H   3.0640943893  4.6542572635 -0.6904434267
H   3.1941962198  4.8158877315  0.9646149054
H   3.6942937214  3.4110511995  0.2319790093
23
Image 91  Energy = -756.8026569502
Al -1.9219523666  1.5989671299 -0.2267666473
O  -0.8973002378  0.8816670594 -1.7525164818
H  -0.8526772998  1.2539604518 -2.6472381698
O  -2.5136658116  3.1143524519 -1.2802727822
H  -2.0041587523  3.9358281163 -1.2287439875
O  -3.3856098970  0.5779606425 -1.0511459459
H  -3.3096064189 -0.0559751444 -1.7816963341
O  -1.4816668417  0.0078367059  0.8074089686
H  -0.6956906608  0.0556414526  1.3722337857
O  -3.2826172625  2.0428901991  1.1373728936
H  -3.7408179381  2.8944282654  1.2178666159
O  -0.5588877477  2.4643107974  0.3938294179
H  -0.5835964954  2.9319435094  1.2306756023
H  -3.2753159360  3.2513808756 -1.8613122160
H  -3.3726467200  1.5806085010  1.9865120144
H  -4.3026984225  0.5561756123 -0.7346925518
H  -1.8418728118 -0.8916963821  0.8410738270
H  -0.0817756307  0.3740663539 -1.6162829560
H   2.0618098043  3.7673066264  0.2991083834
N   3.0000863977  4.1610258900  0.2004237805
H   3.0717551805  4.6588365845 -0.6906294508
H   3.1919854785  4.8186648789  0.9647088481
H   3.7026353689  3.4133569541  0.2301678451
23
Image 92  Energy = -756.8027180370
Al -1.9214886274  1.5985932859 -0.2225448557
O  -0.8990363401  0.8855322861 -1.7492486573
H  -0.8514291717  1.2738597181 -2.6364932051
O  -2.5104140405  3.1051802397 -1.2867108281
H  -2.0051790750  3.9321056540 -1.2434570676
O  -3.3929593328  0.5808766303 -1.0509466408
H  -3.3134726476 -0.0530628884 -1.7837727609
O  -1.4829040222 -0.0038733906  0.8001485389
H  -0.6959768014  0.0410308136  1.3712815000
O  -3.2841530925  2.0432577112  1.1401871176
H  -3.7330202257  2.8979269020  1.2217009570
O  -0.5645075384  2.4679054078  0.4034303535
H  -0.5862181870  2.9402529782  1.2396488194
H  -3.2729350919  3.2384071741 -1.8712220852
H  -3.3749935078  1.5883210472  1.9902698193
H  -4.3047206326  0.5455404992 -0.7313231030
H  -1.8483627581 -0.8985125136  0.8367332368
H  -0.0836863447  0.3836162011 -1.6129004067
H   2.0684195793  3.7641122287  0.2963537442
N   3.0055710138  4.1609564297  0.1991036862
H   3.0801046955  4.6634689328 -0.6917901300
H   3.1889122978  4.8210114315  0.9641824381
H   3.7081648491  3.4170307791  0.2274539856
23
Image 93  Energy = -756.8027978387
Al -1.9192686070  1.5987616911 -0.2218902526
O  -0.8995024733  0.8867952084 -1.7488918137
H  -0.8512199686  1.2780307922 -2.6337226742
O  -2.5107286890  3.1047907554 -1.2883881408
H  -2.0055467225  3.9314325502 -1.2450726373
O  -3.3924868076  0.5807758928 -1.0515924939
H  -3.3125343124 -0.0508271748 -1.7835988285
O  -1.4814365260 -0.0047328535  0.7998665545
H  -0.6973708344  0.0382318616  1.3714071785
O  -3.2837505560  2.0427701832  1.1389236533
H  -3.7323365233  2.8979277062  1.2223178741
O  -0.5630233267  2.4703081921  0.4062359912
H  -0.5865590158  2.9413909921  1.2416889519
H  -3.2721637578  3.2367016957 -1.8731411558
H  -3.3764187149  1.5893565674  1.9910236779
H  -4.3061592354  0.5438999846 -0.7302484427
H  -1.8504068208 -0.9008849596  0.8356974393
H  -0.0828762253  0.3845736425 -1.6113658278
H   2.0688518006  3.7622182068  0.2968217085
N   3.0048704832  4.1616502122  0.1978332647
H   3.0809461622  4.6633034506 -0.6926099988
H   3.1870132101  4.8209320837  0.9631138338
H   3.7078224571  3.4161308833  0.2256765964
23
Image 94  Energy = -756.8028490072
Al -1.9161721989  1.5984709147 -0.2207416494
O  -0.8998332541  0.8863879649 -1.7483320135
H  -0.8514389150  1.2826541846 -2.6314767085
O  -2.5119607312  3.1055225302 -1.2909305869
H  -2.0054662978  3.9306841447 -1.2461544705
O  -3.3931427832  0.5803310033 -1.0507497012
H  -3.3105986074 -0.0487433840 -1.7840391229
O  -1.4804900391 -0.0060387962  0.7992170328
H  -0.6990311939  0.0350325479  1.3720812986
O  -3.2833043045  2.0422435142  1.1379405728
H  -3.7320615840  2.8978954739  1.2219786805
O  -0.5603231827  2.4731235740  0.4085742163
H  -0.5866247967  2.9423793451  1.2441023499
H  -3.2735199348  3.2350512070 -1.8761446555
H  -3.3776920246  1.5895976100  1.9911186324
H  -4.3075556085  0.5430655330 -0.7281986921
H  -1.8524844650 -0.9025572862  0.8344423155
H  -0.0824001256  0.3854513705 -1.6099662164
H   2.0700378660  3.7604374118  0.2972983496
N   3.0047119600  4.1623146208  0.1969857892
H   3.0823456226  4.6632646897 -0.6932584547
H   3.1854623297  4.8206856713  0.9621942765
H   3.7072572597  3.4162837249  0.2241432149
23
Image 95  Energy = -756.8028850354
Al -1.9133748387  1.5983773202 -0.2187676665
O  -0.9008662931  0.8865910581 -1.7473429786
H  -0.8513891479  1.2895762618 -2.6276794784
O  -2.5136133862  3.1052467330 -1.2945755553
H  -2.0053043855  3.9298072738 -1.2486657733
O  -3.3940930188  0.5799332667 -1.0488658591
H  -3.3087488677 -0.0461270411 -1.7847981983
O  -1.4804024961 -0.0089287534  0.7975179174
H  -0.7007916339  0.0297714504  1.3731848336
O  -3.2833165600  2.0420081479  1.1378604474
H  -3.7310986636  2.8984586217  1.2210036841
O  -0.5580208550  2.4756845059  0.4110387193
H  -0.5870768493  2.9440291913  1.2476444725
H  -3.2751648804  3.2318116854 -1.8804343238
H  -3.3789438958  1.5897079235  1.9913213018
H  -4.3090718541  0.5415506124 -0.7252687667
H  -1.8550773787 -0.9038143727  0.8322579434
H  -0.0815489947  0.3868648828 -1.6085015123
H   2.0718664460  3.7585670285  0.2966385006
N   3.0052000068  4.1627087122  0.1958383356
H   3.0842015961  4.6636406128 -0.6940474626
H   3.1844268020  4.8206442327  0.9617799237
H   3.7079241409  3.4174282258  0.2229459485
23
Image 96  Energy = -756.8029107948
Al -1.9113394908  1.5992805644 -0.2147987458
O  -0.9010202971  0.8868409044 -1.7437514740
H  -0.8503042601  1.3043145767 -2.6192715660
O  -2.5139820171  3.1034819922 -1.3001267988
H  -2.0071018030  3.9265181927 -1.2558245606
O  -3.3962849184  0.5793732541 -1.0437535251
H  -3.3069001725 -0.0406163853 -1.7856538636
O  -1.4791775382 -0.0132005615  0.7942952759
H  -0.7048983800  0.0178509052  1.3748283930
O  -3.2834716405  2.0419750222  1.1388993657
H  -3.7286257368  2.9007004791  1.2184637437
O  -0.5565553777  2.4792550581  0.4162757800
H  -0.5884132317  2.9466217297  1.2531285810
H  -3.2777859514  3.2245605763 -1.8892343544
H  -3.3809588607  1.5895857651  1.9921151686
H  -4.3094344929  0.5377576989 -0.7204178695
H  -1.8610782697 -0.9071147750  0.8270050853
H  -0.0820625039  0.3915273482 -1.6070344903
H   2.0748642340  3.7555895627  0.2929731506
N   3.0072174292  4.1638185543  0.1943416446
H   3.0870599023  4.6648851968 -0.6956863409
H   3.1838203059  4.8204090727  0.9613972291
H   3.7121480739  3.4201228699  0.2219146240
23
Image 97  Energy = -756.8029562857
Al -1.9113589218  1.5999088686 -0.2137445929
O  -0.9017241708  0.8877421893 -1.7433410472
H  -0.8497581944  1.3070624772 -2.6166676247
O  -2.5154634974  3.1025545152 -1.3016467698
H  -2.0074485536  3.9266071404 -1.2570729298
O  -3.3953116460  0.5788236723 -1.0419650832
H  -3.3062644845 -0.0388371757 -1.7854278861
O  -1.4799456849 -0.0143289250  0.7934952989
H  -0.7055114621  0.0151142617  1.3760929392
O  -3.2834981303  2.0422208360  1.1392818760
H  -3.7284649977  2.9010794781  1.2170015867
O  -0.5563066609  2.4793141266  0.4164227755
H  -0.5887178674  2.9465807907  1.2540326513
H  -3.2778726200  3.2231906733 -1.8904879219
H  -3.3813006259  1.5886414384  1.9919347368
H  -4.3093459777  0.5375007674 -0.7190615054
H  -1.8621237661 -0.9063145886  0.8252863000
H  -0.0812560810  0.3916751011 -1.6070589625
H   2.0752230500  3.7552543917  0.2913652548
N   3.0076048280  4.1635518930  0.1939499688
H   3.0868156979  4.6649121129 -0.6961009856
H   3.1843559514  4.8201564614  0.9615768756
H   3.7133888213  3.4211271015  0.2222194960
