23
Frame 1  Energy = -756.7015024020 Hartree
Al     -1.78038325      1.70039152     -0.03003387      0.000025    -0.000053     0.000146
O      -0.27993664      1.26760988     -1.17664482      0.000292    -0.000140     0.000073
H      -0.27749011      1.51012152     -2.11757706     -0.000659     0.000372    -0.000180
O      -2.13066316      3.28844126     -1.10571627     -0.000026     0.000022    -0.000013
H      -1.73217967      4.16075315     -1.00932888     -0.000061     0.000442    -0.000149
O      -2.98786815      0.73796357     -1.16040231      0.000023     0.000074     0.000023
H      -2.79562768      0.19028696     -1.96852994     -0.000001    -0.001105    -0.000234
O      -1.57679154      0.08795329      1.05346074     -0.000359    -0.000204    -0.000342
H      -0.91680323     -0.06607290      1.78121390     -0.001020    -0.000193    -0.000812
O      -3.26200274      2.17677301      1.14776997      0.000137     0.000333    -0.000126
H      -3.83962348      2.97525073      1.00742488     -0.000650     0.000601    -0.000408
O      -0.55246403      2.62584018      1.07098892     -0.000164    -0.000050     0.000087
H      -0.69140559      3.05751551      1.92863082     -0.000751     0.000806     0.000300
H      -2.80521189      3.33471943     -1.80287399      0.000471    -0.000619    -0.000953
H      -3.63994677      1.62173432      1.87922871      0.001192    -0.000683     0.001744
H      -3.97192766      0.65001247     -1.02049601     -0.000140     0.000358    -0.000595
H      -1.89468130     -0.80229995      0.78940280     -0.000439     0.000028    -0.002110
H       0.70752085      1.41446680     -0.94759661      0.000727     0.000261    -0.000863
H       0.39856332      2.77408219      0.84284906     -0.000109     0.000305     0.000043
N       2.51953175      2.40105158     -0.88366357      0.000141    -0.000032     0.000323
H       2.67132841      2.81490148     -1.78491406      0.000409     0.000070    -0.000022
H       3.00250618      3.02386814     -0.23485919      0.000213     0.000310     0.000134
H       3.12395146      1.59991399     -0.87146017     -0.000299     0.000359     0.000442
23
Frame 2  Energy = -756.6992458712 Hartree
Al     -1.77957445      1.69908376     -0.02687601      0.000049    -0.000066     0.000143
O      -0.27302345      1.26488706     -1.17494586      0.000341    -0.000108     0.000076
H      -0.29536431      1.51620463     -2.12113709     -0.000965     0.000157    -0.000050
O      -2.13160200      3.28845473     -1.10581010     -0.000059    -0.000012     0.000002
H      -1.73159360      4.17471584     -1.01280838      0.000041     0.000684    -0.000188
O      -2.98834458      0.73871834     -1.16087861     -0.000057    -0.000005    -0.000070
H      -2.79564081      0.17575688     -1.95921869      0.000008    -0.000214     0.001093
O      -1.58435922      0.08316383      1.04610896     -0.000351    -0.000231    -0.000349
H      -0.94570465     -0.06776068      1.75595414     -0.001412    -0.000037    -0.001261
O      -3.25973059      2.18421890      1.14527313      0.000071     0.000341    -0.000096
H      -3.84464511      2.97278863      1.00541940      0.000165    -0.000803     0.000230
O      -0.55531878      2.62510567      1.07305221     -0.000103    -0.000013     0.000112
H      -0.71088111      3.07406895      1.93457239     -0.000990     0.000636     0.000089
H      -2.79351973      3.32344203     -1.82384061      0.000655    -0.000411    -0.000911
H      -3.60750883      1.62049905      1.90281653      0.001803     0.000670     0.000303
H      -3.95963204      0.66035935     -1.03372716      0.001098     0.000585    -0.000582
H      -1.90172349     -0.79503196      0.74538615     -0.000191     0.000626    -0.001897
H       0.71836315      1.42303568     -0.96463926      0.000264     0.000528    -0.000687
H       0.38987840      2.77841989      0.84248568     -0.000643     0.000101    -0.000073
N       2.52180917      2.40042136     -0.87583112      0.000070    -0.000020     0.000382
H       2.67980890      2.82037868     -1.79296888      0.000341     0.000338    -0.000530
H       3.00201606      3.03240248     -0.23168493     -0.000259     0.000449     0.000152
H       3.12392205      1.59425568     -0.86320869      0.000286    -0.000843     0.000320
23
Frame 3  Energy = -756.6973493898 Hartree
Al     -1.77822270      1.69757050     -0.02382453      0.000075    -0.000072     0.000135
O      -0.26529206      1.26297771     -1.17348806      0.000360    -0.000067     0.000057
H      -0.31852665      1.51613773     -2.11746758     -0.001124    -0.000165     0.000379
O      -2.13310772      3.28829821     -1.10567989     -0.000076     0.000003     0.000010
H      -1.73323427      4.18419173     -1.01806592     -0.000227     0.000093    -0.000294
O      -2.98962968      0.73804040     -1.16317405     -0.000043    -0.000043    -0.000126
H      -2.79345942      0.17681024     -1.92737069      0.000257     0.000120     0.001545
O      -1.59265095      0.07834181      1.03754630     -0.000415    -0.000198    -0.000443
H      -0.96808931     -0.07102565      1.73772238     -0.000481    -0.000320    -0.000231
O      -3.25839053      2.19123819      1.14350760      0.000072     0.000293    -0.000077
H      -3.83812921      2.94824573      1.01597104      0.000214    -0.001132     0.000668
O      -0.55732980      2.62531756      1.07612491     -0.000091     0.000030     0.000170
H      -0.73271263      3.08333305      1.92869755     -0.000975     0.000218    -0.000622
H      -2.77561635      3.31686936     -1.84103547      0.000971    -0.000193    -0.000662
H      -3.56400536      1.64870684      1.89541930      0.002048     0.001709    -0.000720
H      -3.93707421      0.67470159     -1.04372992      0.000619     0.000704    -0.000288
H      -1.90358631     -0.77872271      0.70698213     -0.000014     0.000725    -0.001634
H       0.72041265      1.43767013     -0.97695448     -0.000016     0.000814    -0.000429
H       0.37496803      2.77942054      0.83950363     -0.000591     0.000020    -0.000207
N       2.52291648      2.40004172     -0.86768156      0.000040    -0.000025     0.000350
H       2.68504276      2.82527834     -1.79945161      0.000119     0.000031     0.000087
H       2.99183851      3.04248530     -0.22808827     -0.000642     0.000454     0.000189
H       3.13221624      1.57052595     -0.85726932      0.000329    -0.001084     0.000233
23
Frame 4  Energy = -756.6999338902 Hartree
Al     -1.77627455      1.69596165     -0.02099036      0.000102    -0.000074     0.000121
O      -0.25751294      1.26190927     -1.17230539      0.000340    -0.000031     0.000057
H      -0.34351538      1.50943912     -2.10712805     -0.001117    -0.000420     0.000461
O      -2.13484012      3.28858861     -1.10532200     -0.000081     0.000018     0.000024
H      -1.74119699      4.17879491     -1.02519757     -0.000443    -0.000489    -0.000328
O      -2.98984937      0.73742539     -1.16567824      0.000019    -0.000003    -0.000089
H      -2.78178369      0.17227320     -1.90334157      0.000821    -0.000668     0.000462
O      -1.60238353      0.07485665      1.02685579     -0.000454    -0.000115    -0.000511
H      -0.96799963     -0.08241293      1.74459155      0.000287    -0.000683     0.000628
O      -3.25564985      2.19700803      1.14112842      0.000189     0.000238    -0.000158
H      -3.84376629      2.93542207      1.03181383     -0.000817     0.000114     0.000722
O      -0.55957950      2.62621040      1.08024861     -0.000115     0.000044     0.000194
H      -0.75309590      3.08595298      1.91120244     -0.000878     0.000113    -0.000809
H      -2.75260276      3.31458713     -1.85429361      0.001059    -0.000029    -0.000595
H      -3.52397268      1.68352400      1.88692342      0.001461     0.001179     0.000311
H      -3.94100570      0.69057176     -1.04566776     -0.000927     0.000726     0.000083
H      -1.90381854     -0.76899233      0.67265296     -0.000025     0.000075    -0.001495
H       0.72050101      1.45900273     -0.98325791      0.000082     0.001124    -0.000149
H       0.36797877      2.78042090      0.83348695     -0.000019     0.000087    -0.000319
N       2.52383839      2.39884016     -0.86072836      0.000044    -0.000093     0.000283
H       2.68485468      2.82041377     -1.78710042     -0.000126    -0.000447     0.000967
H       2.97524246      3.05170219     -0.22265575     -0.000833     0.000369     0.000323
H       3.13346338      1.55536710     -0.85236354     -0.000271    -0.000177     0.000231
23
Frame 5  Energy = -756.6937038563 Hartree
Al     -1.77372037      1.69430406     -0.01848537      0.000133    -0.000078     0.000108
O      -0.25037648      1.26154475     -1.17069892      0.000314    -0.000002     0.000096
H      -0.36690410      1.49841709     -2.10086726     -0.001005    -0.000583     0.000064
O      -2.13673528      3.28876491     -1.10455606     -0.000096    -0.000010     0.000045
H      -1.74960079      4.16867254     -1.03127657     -0.000251    -0.000290    -0.000200
O      -2.98931491      0.73789129     -1.16703386      0.000016     0.000037    -0.000045
H      -2.75924722      0.14797814     -1.90552217      0.001135    -0.001399    -0.000437
O      -1.61211758      0.07308124      1.01564506     -0.000430    -0.000058    -0.000507
H      -0.96571563     -0.09919343      1.75376169     -0.000278    -0.000810    -0.000017
O      -3.25017792      2.20224096      1.13624013      0.000294     0.000252    -0.000279
H      -3.87068502      2.94989728      1.04746265     -0.001427     0.000953     0.000732
O      -0.56222304      2.62701237      1.08419664     -0.000121     0.000027     0.000160
H      -0.77185344      3.09219491      1.89923372     -0.000845     0.000521    -0.000202
H      -2.73093319      3.31477342     -1.86940692      0.000905     0.000025    -0.000818
H      -3.50055333      1.69670839      1.91448378      0.000773     0.000155     0.002029
H      -3.96725318      0.70641103     -1.04275066     -0.001134     0.000716     0.000106
H      -1.90426374     -0.77511099      0.64153220      0.000020    -0.000541    -0.001320
H       0.72533919      1.48743769     -0.98422161      0.000360     0.001485     0.000034
H       0.37186291      2.78341908      0.82708382      0.000265     0.000182    -0.000215
N       2.52464496      2.39578577     -0.85479937      0.000019    -0.000185     0.000276
H       2.68038982      2.80842828     -1.76321787     -0.000257    -0.000555     0.001016
H       2.95594005      3.05820408     -0.21326565     -0.000930     0.000212     0.000545
H       3.12111775      1.56262746     -0.84608233     -0.000766     0.000722     0.000370
23
Frame 6  Energy = -756.6990602844 Hartree
Al     -1.77056603      1.69258207     -0.01636329      0.000155    -0.000079     0.000085
O      -0.24390048      1.26188359     -1.16811486      0.000279     0.000035     0.000138
H      -0.38557827      1.48409812     -2.10380439     -0.000668    -0.000740    -0.000259
O      -2.13912189      3.28798346     -1.10346316     -0.000123    -0.000058     0.000051
H      -1.75017614      4.16967421     -1.03292310      0.000186     0.000348     0.000053
O      -2.98953448      0.73848798     -1.16819981     -0.000035     0.000008    -0.000073
H      -2.73845275      0.12098982     -1.91053523      0.000656    -0.000890     0.000195
O      -1.62084024      0.07186312      1.00510587     -0.000372    -0.000063    -0.000462
H      -0.98365635     -0.11597821      1.73944459     -0.001304    -0.000713    -0.001229
O      -3.24399256      2.20799811      1.13008183      0.000252     0.000272    -0.000257
H      -3.89462773      2.96453216      1.06393053     -0.000576     0.000186     0.000768
O      -0.56456661      2.62740033      1.08711581     -0.000091     0.000014     0.000113
H      -0.78857611      3.10831026      1.90157850     -0.000641     0.000883     0.000290
H      -2.71337521      3.31487795     -1.88898696      0.000732    -0.000030    -0.000921
H      -3.48498465      1.70034724      1.95825443      0.000775     0.000412     0.001573
H      -3.97823117      0.72073470     -1.04389885      0.000242     0.000574    -0.000246
H      -1.90134233     -0.78661861      0.61791250      0.000268    -0.000386    -0.000805
H       0.73474416      1.52269306     -0.98317128      0.000451     0.001716     0.000028
H       0.37459878      2.78788632      0.82638076     -0.000089     0.000218     0.000183
N       2.52407014      2.39121768     -0.84828843     -0.000085    -0.000218     0.000325
H       2.67484701      2.80024546     -1.75090680     -0.000235    -0.000150     0.000038
H       2.93525463      3.06018442     -0.19932072     -0.000959    -0.000039     0.000714
H       3.10679750      1.57781162     -0.83544980     -0.000381     0.000436     0.000615
23
Frame 7  Energy = -756.6947458372 Hartree
Al     -1.76690309      1.69087342     -0.01479961      0.000180    -0.000077     0.000056
O      -0.23800568      1.26321700     -1.16475776      0.000261     0.000090     0.000166
H      -0.39488289      1.46501493     -2.10853652     -0.000157    -0.001019    -0.000099
O      -2.14208753      3.28655502     -1.10246731     -0.000145    -0.000062     0.000038
H      -1.74369708      4.17893882     -1.02919237      0.000328     0.000335     0.000272
O      -2.99053635      0.73808136     -1.17047981     -0.000041    -0.000042    -0.000133
H      -2.73289001      0.11221373     -1.89313475     -0.000142     0.000045     0.001333
O      -1.62890755      0.07013101      0.99484620     -0.000378    -0.000093    -0.000491
H      -1.01605281     -0.13111276      1.70770230     -0.001408    -0.000704    -0.001382
O      -3.23951321      2.21401980      1.12569173      0.000160     0.000271    -0.000137
H      -3.89285672      2.95557666      1.08013192      0.000676    -0.000905     0.000669
O      -0.56631506      2.62785913      1.08955761     -0.000075     0.000033     0.000120
H      -0.79806265      3.12724908      1.90550950     -0.000193     0.000766    -0.000059
H      -2.69707573      3.31313047     -1.90736225      0.000790    -0.000132    -0.000707
H      -3.46324672      1.72043414      1.97292560      0.001228     0.001427    -0.000288
H      -3.95917450      0.73097709     -1.05380055      0.001259     0.000354    -0.000633
H      -1.89275719     -0.78944026      0.60615472      0.000475     0.000110    -0.000313
H       0.74322107      1.56197134     -0.98415299      0.000290     0.001848    -0.000135
H       0.36751430      2.79297066      0.83559804     -0.000497     0.000252     0.000641
N       2.52051764      2.38667982     -0.84067559     -0.000240    -0.000193     0.000359
H       2.67004537      2.80102222     -1.75881499     -0.000213     0.000145    -0.000574
H       2.91387434      3.05649432     -0.18247958     -0.000988    -0.000287     0.000811
H       3.10870990      1.57573744     -0.81882278      0.000547    -0.000612     0.000896
23
Frame 8  Energy = -756.6964576491 Hartree
Al     -1.76281268      1.68929624     -0.01399502      0.000193    -0.000066     0.000016
O      -0.23255232      1.26583283     -1.16097031      0.000238     0.000150     0.000182
H      -0.39211082      1.43988299     -2.10708220      0.000396    -0.001267     0.000198
O      -2.14525173      3.28562288     -1.10181448     -0.000140    -0.000020     0.000024
H      -1.73873533      4.17880008     -1.02189857      0.000093    -0.000393     0.000380
O      -2.99060369      0.73711267     -1.17355053      0.000047    -0.000031    -0.000132
H      -2.74151475      0.11601731     -1.86135982     -0.000524     0.000054     0.001276
O      -1.63757094      0.06812917      0.98348028     -0.000412    -0.000083    -0.000545
H      -1.03537291     -0.14751271      1.69051975     -0.000272    -0.000783    -0.000083
O      -3.23648182      2.21939747      1.12389060      0.000137     0.000214    -0.000047
H      -3.87323595      2.93546906      1.09059493      0.000855    -0.000615     0.000235
O      -0.56808594      2.62890552      1.09256702     -0.000092     0.000061     0.000155
H      -0.79687497      3.13982900      1.89712918      0.000264     0.000400    -0.000655
H      -2.67885954      3.30930638     -1.91873433      0.000856    -0.000211    -0.000351
H      -3.43351547      1.75670013      1.95271432      0.001401     0.001646    -0.001192
H      -3.93812879      0.73610338     -1.06929445      0.000347     0.000128    -0.000730
H      -1.88352586     -0.78574175      0.60099203      0.000296     0.000096    -0.000254
H       0.74661992      1.60135813     -0.98910893      0.000025     0.001718    -0.000307
H       0.35770756      2.79906752      0.85240089     -0.000277     0.000309     0.000840
N       2.51398561      2.38257825     -0.83333965     -0.000344    -0.000194     0.000300
H       2.66533526      2.80267556     -1.76667344     -0.000217    -0.000067     0.000028
H       2.89295854      3.04865587     -0.16481411     -0.000911    -0.000403     0.000790
H       3.12543408      1.55824048     -0.79765133      0.000797    -0.000743     0.001003
23
Frame 9  Energy = -756.6993901422 Hartree
Al     -1.75846649      1.68798242     -0.01415900      0.000203    -0.000054    -0.000031
O      -0.22752452      1.26978398     -1.15664064      0.000224     0.000211     0.000218
H      -0.37880457      1.41003935     -2.10293744      0.000782    -0.001452     0.000098
O      -2.14815268      3.28551088     -1.10127187     -0.000126     0.000001     0.000030
H      -1.73906951      4.16393017     -1.01285103     -0.000071    -0.000830     0.000449
O      -2.98850335      0.73722753     -1.17569612      0.000131     0.000045    -0.000060
H      -2.75123529      0.10569777     -1.84730040     -0.000316    -0.001061    -0.000056
O      -1.64652738      0.06660493      0.97153277     -0.000392    -0.000062    -0.000529
H      -1.03223192     -0.16290390      1.69927921      0.000330    -0.000537     0.000615
O      -3.23273620      2.22342168      1.12261914      0.000212     0.000163    -0.000089
H      -3.86382109      2.93850248      1.08907916     -0.000028     0.000924    -0.000373
O      -0.57035837      2.63036000      1.09611395     -0.000110     0.000068     0.000162
H      -0.78923133      3.14746815      1.88212878      0.000357     0.000388    -0.000561
H      -2.66099963      3.30420904     -1.92483022      0.000741    -0.000248    -0.000268
H      -3.40603704      1.78167245      1.93891311      0.001042     0.000474     0.000238
H      -3.94824653      0.73732657     -1.08454752     -0.001101     0.000004    -0.000665
H      -1.88192279     -0.78931827      0.59203226     -0.000160    -0.000438    -0.000585
H       0.74501646      1.63609028     -0.99670903     -0.000145     0.001440    -0.000361
H       0.35837420      2.80614604      0.87050913      0.000327     0.000315     0.000791
N       2.50590631      2.37764147     -0.82764817     -0.000389    -0.000266     0.000227
H       2.66099291      2.79698989     -1.75478103     -0.000160    -0.000426     0.001003
H       2.87413307      3.03975690     -0.14842499     -0.000818    -0.000398     0.000695
H       3.13687654      1.55148985     -0.77628792      0.000158     0.000217     0.000925
23
Frame 10  Energy = -756.6961404117 Hartree
Al     -1.75388859      1.68693085     -0.01539302      0.000210    -0.000041    -0.000081
O      -0.22264862      1.27513700     -1.15127664      0.000219     0.000274     0.000266
H      -0.35903576      1.37598401     -2.10493652      0.000983    -0.001638    -0.000272
O      -2.15089953      3.28524039     -1.10039826     -0.000126    -0.000034     0.000050
H      -1.73911026      4.14905570     -1.00195134      0.000121    -0.000384     0.000539
O      -2.98560250      0.73873966     -1.17654296      0.000115     0.000075    -0.000033
H      -2.75650897      0.07440488     -1.85836005     -0.000236    -0.001516    -0.000676
O      -1.65427660      0.06498123      0.96084721     -0.000304    -0.000097    -0.000432
H      -1.03019355     -0.16799204      1.70646634     -0.000289     0.000113    -0.000139
O      -3.22746133      2.22697233      1.11989029      0.000249     0.000165    -0.000141
H      -3.86880362      2.96881347      1.07544342     -0.000186     0.001514    -0.000805
O      -0.57255523      2.63181137      1.09939888     -0.000079     0.000065     0.000134
H      -0.78390258      3.15970377      1.87735213      0.000090     0.000730     0.000153
H      -2.64722925      3.29866877     -1.93246932      0.000504    -0.000245    -0.000437
H      -3.38827949      1.77852545      1.96316689      0.000604    -0.000549     0.001632
H      -3.97333626      0.73695783     -1.09914305     -0.000837    -0.000022    -0.000668
H      -1.88969238     -0.80184026      0.57645918     -0.000498    -0.000558    -0.000758
H       0.74139531      1.66413163     -1.00378201     -0.000154     0.001090    -0.000251
H       0.36881867      2.81147035      0.88699726      0.000499     0.000128     0.000709
N       2.49682175      2.37074147     -0.82280342     -0.000439    -0.000355     0.000227
H       2.65947086      2.78673805     -1.72857316      0.000051    -0.000409     0.001168
H       2.85631837      3.03142890     -0.13486918     -0.000815    -0.000353     0.000520
H       3.13188839      1.56678377     -0.75760599     -0.000534     0.001024     0.000764
23
Frame 11  Energy = -756.6986643977 Hartree
Al     -1.74923268      1.68616207     -0.01772760      0.000214    -0.000028    -0.000132
O      -0.21787665      1.28188494     -1.14511219      0.000216     0.000341     0.000289
H      -0.33598927      1.33726570     -2.11226227      0.001111    -0.001900    -0.000296
O      -2.15377337      3.28388032     -1.09908945     -0.000136    -0.000086     0.000068
H      -1.73339736      4.14859966     -0.98952029      0.000356     0.000271     0.000569
O      -2.98379382      0.73983034     -1.17785676      0.000049     0.000013    -0.000099
H      -2.76439241      0.04930650     -1.86652898     -0.000511    -0.000606     0.000092
O      -1.65998100      0.06199072      0.95239409     -0.000224    -0.000178    -0.000348
H      -1.04618977     -0.15833347      1.69153882     -0.001075     0.000710    -0.001112
O      -3.22240198      2.23076642      1.11733194      0.000204     0.000178    -0.000073
H      -3.86338714      2.99376298      1.05609192      0.000790     0.000591    -0.000904
O      -0.57354845      2.63345969      1.10220440     -0.000010     0.000092     0.000131
H      -0.78528169      3.17738476      1.88572389     -0.000190     0.000779     0.000466
H      -2.63785887      3.29381910     -1.94319271      0.000386    -0.000185    -0.000492
H      -3.37738517      1.76844163      1.99324248      0.000421    -0.000151     0.000755
H      -3.97637930      0.73706077     -1.11394769      0.000600     0.000050    -0.000663
H      -1.90198646     -0.80842450      0.56147756     -0.000590     0.000036    -0.000558
H       0.73945845      1.68405098     -1.00673703      0.000007     0.000727     0.000002
H       0.37600094      2.81045364      0.90214861      0.000098    -0.000238     0.000676
N       2.48607348      2.36239731     -0.81707890     -0.000551    -0.000392     0.000299
H       2.66416675      2.78227236     -1.71056718      0.000381     0.000038     0.000390
H       2.83733223      3.02441442     -0.12562698     -0.000930    -0.000277     0.000329
H       3.11898595      1.58754269     -0.74221968     -0.000483     0.000631     0.000654
23
Frame 12  Energy = -756.6916846471 Hartree
Al     -1.74453887      1.68571510     -0.02120065      0.000216    -0.000012    -0.000186
O      -0.21320222      1.29007149     -1.13885376      0.000212     0.000408     0.000281
H      -0.31053199      1.29251545     -2.11397638      0.001215    -0.002198     0.000199
O      -2.15674001      3.28182980     -1.09747499     -0.000133    -0.000093     0.000080
H      -1.72668680      4.15515807     -0.97838965      0.000179     0.000182     0.000418
O      -2.98315379      0.73916056     -1.18103193      0.000024    -0.000069    -0.000188
H      -2.77806168      0.04916946     -1.85335748     -0.000676     0.000490     0.001004
O      -1.66461888      0.05743882      0.94492386     -0.000215    -0.000227    -0.000352
H      -1.06940153     -0.14078244      1.66726150     -0.000820     0.000792    -0.000830
O      -3.21848058      2.23451569      1.11699166      0.000166     0.000158     0.000039
H      -3.83471249      2.99404092      1.03729437      0.001708    -0.000436    -0.000805
O      -0.57309640      2.63610472      1.10552145      0.000045     0.000153     0.000180
H      -0.79086280      3.18976061      1.89190664     -0.000295     0.000290     0.000010
H      -2.62880287      3.29100485     -1.95192487      0.000468    -0.000064    -0.000273
H      -3.36967339      1.77658235      1.98937937      0.000258     0.000892    -0.001070
H      -3.95290903      0.74000512     -1.12693063      0.001266     0.000244    -0.000488
H      -1.91510977     -0.80057050      0.55258893     -0.000625     0.000593    -0.000276
H       0.74289571      1.69633713     -1.00310402      0.000335     0.000407     0.000339
H       0.37360175      2.80108864      0.91645733     -0.000244    -0.000605     0.000622
N       2.47237497      2.35407318     -0.80990428     -0.000702    -0.000365     0.000346
H       2.67527050      2.78716224     -1.70942672      0.000594     0.000327    -0.000134
H       2.81523596      3.01979783     -0.11972600     -0.001095    -0.000135     0.000236
H       3.11508885      1.58797934     -0.72840711      0.000129    -0.000607     0.000614
23
Frame 13  Energy = -756.6913566980 Hartree
Al     -1.73983387      1.68563460     -0.02582184      0.000212     0.000005    -0.000234
O      -0.20863161      1.29955236     -1.13289296      0.000205     0.000453     0.000266
H      -0.28365707      1.24224296     -2.10360730      0.001218    -0.002367     0.000691
O      -2.15942629      3.28007125     -1.09555105     -0.000111    -0.000066     0.000097
H      -1.72763454      4.15267429     -0.97221984     -0.000265    -0.000410     0.000143
O      -2.98216567      0.73737302     -1.18552562      0.000075    -0.000077    -0.000205
H      -2.78965675      0.06105713     -1.83251061     -0.000283     0.000316     0.000625
O      -1.66962860      0.05275370      0.93671118     -0.000239    -0.000187    -0.000392
H      -1.07534979     -0.12746773      1.66350782      0.000269     0.000388     0.000481
O      -3.21447520      2.23732203      1.11832499      0.000218     0.000094     0.000057
H      -3.79844780      2.98538607      1.02065578      0.001358    -0.000067    -0.000738
O      -0.57194478      2.63999996      1.11004175      0.000053     0.000195     0.000226
H      -0.79766760      3.18994906      1.88605966     -0.000332    -0.000210    -0.000458
H      -2.61735949      3.29116867     -1.95495503      0.000557     0.000074    -0.000032
H      -3.36850785      1.80167894      1.95784369     -0.000226     0.001168    -0.001375
H      -3.93531702      0.74851287     -1.13365929      0.000100     0.000544    -0.000105
H      -1.93022352     -0.78903440      0.54767437     -0.000777     0.000300    -0.000216
H       0.75464615      1.70225792     -0.99211246      0.000736     0.000144     0.000649
H       0.37006872      2.78535290      0.92859165      0.000027    -0.000796     0.000475
N       2.45603501      2.34642335     -0.80265296     -0.000769    -0.000340     0.000303
H       2.68766422      2.79213444     -1.70874094      0.000482     0.000039     0.000340
H       2.79007382      3.01856120     -0.11439016     -0.001188     0.000009     0.000267
H       3.11989689      1.56702794     -0.71593742      0.000133    -0.001076     0.000508
23
Frame 14  Energy = -756.6898515044 Hartree
Al     -1.73527806      1.68588876     -0.03138172      0.000206     0.000018    -0.000276
O      -0.20414591      1.30981836     -1.12699821      0.000210     0.000489     0.000281
H      -0.25776374      1.18950001     -2.08710011      0.001153    -0.002470     0.000752
O      -2.16162190      3.27878251     -1.09318786     -0.000094    -0.000060     0.000121
H      -1.73629689      4.14074383     -0.97134520     -0.000451    -0.000542    -0.000030
O      -2.98003899      0.73629602     -1.18951352      0.000107    -0.000021    -0.000160
H      -2.78841625      0.05554075     -1.83317603      0.000367    -0.000808    -0.000670
O      -1.67458830      0.04949531      0.92840496     -0.000203    -0.000115    -0.000354
H      -1.06460832     -0.12332167      1.67991064      0.000477     0.000030     0.000731
O      -3.20846188      2.23877166      1.11846792      0.000333     0.000049    -0.000056
H      -3.78078666      2.99786973      1.00423088      0.000300     0.001166    -0.000764
O      -0.57085978      2.64427244      1.11499694      0.000049     0.000189     0.000217
H      -0.80617147      3.18485345      1.87755726     -0.000467    -0.000152    -0.000183
H      -2.60566187      3.29377100     -1.95532215      0.000488     0.000148    -0.000050
H      -3.38242827      1.81860964      1.94618709     -0.001082     0.000288     0.000484
H      -3.94844396      0.76364136     -1.13180572     -0.001065     0.000821     0.000241
H      -1.94924534     -0.79116973      0.54261271     -0.000945    -0.000478    -0.000217
H       0.77452556      1.70314232     -0.97567106      0.001063    -0.000052     0.000833
H       0.37669710      2.76738258      0.93756432      0.000547    -0.000837     0.000376
N       2.43937241      2.33880386     -0.79681763     -0.000753    -0.000366     0.000235
H       2.69474287      2.78706359     -1.69234244      0.000152    -0.000495     0.001118
H       2.76354208      3.01903535     -0.10775279     -0.001249    -0.000003     0.000340
H       3.11438949      1.54941884     -0.70646638     -0.000729    -0.000420     0.000367
23
Frame 15  Energy = -756.6839688613 Hartree
Al     -1.73078520      1.68636992     -0.03788053      0.000207     0.000026    -0.000321
O      -0.19930784      1.32097432     -1.12040804      0.000239     0.000537     0.000325
H      -0.23309647      1.13417907     -2.07187170      0.001119    -0.002606     0.000674
O      -2.16371366      3.27716373     -1.09027702     -0.000101    -0.000093     0.000145
H      -1.74406426      4.13475512     -0.97206875     -0.000212     0.000076    -0.000009
O      -2.97810130      0.73604461     -1.19290713      0.000060    -0.000016    -0.000166
H      -2.77760757      0.03388207     -1.85398628      0.000504    -0.000907    -0.000983
O      -1.67813907      0.04732916      0.92164816     -0.000121    -0.000095    -0.000264
H      -1.06256605     -0.12482230      1.68554352     -0.000390    -0.000153    -0.000338
O      -3.20043657      2.23988356      1.11620232      0.000385     0.000059    -0.000129
H      -3.77823157      3.02711136      0.98860892      0.000148     0.001235    -0.000625
O      -0.56957530      2.64806799      1.11924099      0.000074     0.000159     0.000171
H      -0.81808695      3.18581058      1.88115602     -0.000598     0.000235     0.000498
H      -2.59669468      3.29686191     -1.95828946      0.000333     0.000117    -0.000222
H      -3.41402374      1.81777908      1.97163721     -0.001719    -0.000163     0.001439
H      -3.96813722      0.78281945     -1.12515700     -0.000452     0.000896     0.000320
H      -1.96955088     -0.80523009      0.54086493     -0.000864    -0.000660     0.000133
H       0.79992439      1.70052747     -0.95689316      0.001241    -0.000173     0.000863
H       0.39001087      2.74910297      0.94680394      0.000559    -0.000833     0.000519
N       2.42300597      2.33023764     -0.79195370     -0.000760    -0.000420     0.000223
H       2.69461513      2.77279934     -1.66535676     -0.000143    -0.000731     0.001179
H       2.73504055      3.01679441     -0.09968214     -0.001380    -0.000235     0.000398
H       3.08795390      1.54897179     -0.69895497     -0.001622     0.000285     0.000356
23
Frame 16  Energy = -756.6831071451 Hartree
Al     -1.72625021      1.68698449     -0.04534694      0.000209     0.000030    -0.000362
O      -0.19364421      1.33313383     -1.11295427      0.000283     0.000575     0.000354
H      -0.20879668      1.07689132     -2.05483320      0.001110    -0.002616     0.000973
O      -2.16607341      3.27488920     -1.08701590     -0.000113    -0.000107     0.000151
H      -1.74562611      4.14303764     -0.97131797      0.000019     0.000566     0.000072
O      -2.97751199      0.73512457     -1.19718241     -0.000001    -0.000073    -0.000231
H      -2.77081268      0.02532993     -1.86719919      0.000054     0.000232    -0.000126
O      -1.68004879      0.04503798      0.91669343     -0.000064    -0.000118    -0.000202
H      -1.08029156     -0.13015031      1.66673844     -0.001091    -0.000358    -0.001206
O      -3.19248777      2.24144286      1.11385728      0.000332     0.000083    -0.000068
H      -3.76751237      3.04241305      0.97836458      0.000907     0.000071    -0.000307
O      -0.56756285      2.65134829      1.12259052      0.000107     0.000146     0.000144
H      -0.82986545      3.19219764      1.89484953     -0.000414     0.000251     0.000613
H      -2.59059258      3.29816303     -1.96369173      0.000247    -0.000010    -0.000227
H      -3.45188602      1.81978456      1.99089302     -0.001637     0.000470     0.000029
H      -3.96220029      0.80098344     -1.11956694      0.000966     0.000741     0.000169
H      -1.98521579     -0.81443306      0.55036165     -0.000561    -0.000119     0.000744
H       0.82751903      1.69657064     -0.93924112      0.001273    -0.000160     0.000734
H       0.39729670      2.73161492      0.96169698      0.000076    -0.000754     0.000867
N       2.40569378      2.32078131     -0.78667712     -0.000842    -0.000437     0.000264
H       2.68961126      2.75879600     -1.64815877     -0.000302    -0.000498     0.000294
H       2.70327631      3.00815707     -0.09027242     -0.001530    -0.000553     0.000475
H       3.05017230      1.55419964     -0.68924586     -0.001659    -0.000020     0.000574
23
Frame 17  Energy = -756.6792959985 Hartree
Al     -1.72168684      1.68766491     -0.05355520      0.000208     0.000032    -0.000385
O      -0.18702493      1.34579453     -1.10519659      0.000321     0.000577     0.000353
H      -0.18504634      1.02187583     -2.02723473      0.001051    -0.002389     0.001556
O      -2.16850221      3.27296144     -1.08379972     -0.000106    -0.000060     0.000141
H      -1.74605857      4.15291697     -0.96949040     -0.000115     0.000209     0.000082
O      -2.97756779      0.73302927     -1.20279295      0.000012    -0.000107    -0.000270
H      -2.77551807      0.04196526     -1.86121825     -0.000436     0.001098     0.000496
O      -1.68140932      0.04238119      0.91228433     -0.000070    -0.000116    -0.000212
H      -1.10073567     -0.14165482      1.64468235     -0.000566    -0.000714    -0.000546
O      -3.18612397      2.24328257      1.11350525      0.000257     0.000079     0.000030
H      -3.74056986      3.03296968      0.97407510      0.001415    -0.000722    -0.000144
O      -0.56520349      2.65453680      1.12575675      0.000100     0.000146     0.000149
H      -0.83400258      3.19342953      1.90302084      0.000052    -0.000170     0.000090
H      -2.58516654      3.29609299     -1.96644114      0.000257    -0.000181    -0.000005
H      -3.48228327      1.83846598      1.96984589     -0.001136     0.001130    -0.001799
H      -3.93492535      0.81466463     -1.11797686      0.001201     0.000520    -0.000009
H      -1.99521087     -0.81168116      0.57115923     -0.000417     0.000259     0.001066
H       0.85503951      1.69514722     -0.92559496      0.001250     0.000071     0.000510
H       0.39501700      2.71705571      0.98439416     -0.000186    -0.000564     0.001185
N       2.38613175      2.31161169     -0.78068372     -0.000943    -0.000398     0.000272
H       2.68108367      2.75100508     -1.65164007     -0.000507    -0.000272    -0.000478
H       2.66915005      2.99377972     -0.07847377     -0.001568    -0.000724     0.000616
H       3.02149819      1.54199284     -0.67311236     -0.000930    -0.001104     0.000894
23
Frame 18  Energy = -756.6818876163 Hartree
Al     -1.71710406      1.68834042     -0.06216569      0.000211     0.000029    -0.000399
O      -0.17963125      1.35831841     -1.09744634      0.000352     0.000566     0.000359
H      -0.16310952      0.97210233     -1.98838491      0.000944    -0.002177     0.001916
O      -2.17063668      3.27238865     -1.08082129     -0.000090     0.000006     0.000132
H      -1.75149669      4.15022495     -0.96785283     -0.000359    -0.000414     0.000074
O      -2.97641897      0.73110885     -1.20837231      0.000096    -0.000053    -0.000224
H      -2.78655218      0.06216105     -1.85607671     -0.000491     0.000494    -0.000267
O      -1.68312427      0.04031848      0.90739645     -0.000078    -0.000069    -0.000224
H      -1.10169242     -0.16071820      1.64705955      0.000399    -0.000965     0.000658
O      -3.18060466      2.24468976      1.11445019      0.000264     0.000049     0.000033
H      -3.71307066      3.02259522      0.96882170      0.000941     0.000027    -0.000406
O      -0.56347216      2.65763492      1.12903463      0.000056     0.000132     0.000145
H      -0.82861989      3.18595899      1.90065079      0.000382    -0.000437    -0.000193
H      -2.57948337      3.29025002     -1.96430688      0.000247    -0.000350     0.000166
H      -3.50456544      1.86110295      1.92632486     -0.001023     0.000699    -0.001741
H      -3.92195615      0.82467019     -1.11906244     -0.000160     0.000407    -0.000078
H      -2.00677888     -0.80899801      0.59298660     -0.000703    -0.000124     0.000850
H       0.88316135      1.70141352     -0.91664561      0.001345     0.000541     0.000319
H       0.39378562      2.70703624      1.01243525      0.000153    -0.000357     0.001346
N       2.36477534      2.30306662     -0.77524233     -0.000994    -0.000395     0.000217
H       2.66594718      2.74355825     -1.66162202     -0.000899    -0.000477    -0.000272
H       2.63535860      2.97786364     -0.06315211     -0.001505    -0.000706     0.000772
H       3.00586910      1.51148740     -0.65148679     -0.000647    -0.001463     0.001030
23
Frame 19  Energy = -756.6738295617 Hartree
Al     -1.71222409      1.68893372     -0.07132790      0.000232     0.000023    -0.000431
O      -0.17138145      1.37105432     -1.08903596      0.000394     0.000590     0.000407
H      -0.14315789      0.92345594     -1.94504887      0.000863    -0.002261     0.001964
O      -2.17261172      3.27291197     -1.07785070     -0.000093     0.000033     0.000138
H      -1.75974134      4.13932103     -0.96558971     -0.000316    -0.000424     0.000148
O      -2.97363413      0.73093392     -1.21253403      0.000141     0.000033    -0.000158
H      -2.79602278      0.06012384     -1.87688486     -0.000391    -0.000572    -0.001518
O      -1.68436984      0.03910578      0.90301109     -0.000024    -0.000052    -0.000158
H      -1.09082701     -0.18084200      1.66371841      0.000379    -0.000767     0.000581
O      -3.17394101      2.24573023      1.11418975      0.000337     0.000056    -0.000063
H      -3.70032628      3.03760759      0.95480076      0.000299     0.001216    -0.000841
O      -0.56258542      2.66023364      1.13191266      0.000032     0.000100     0.000110
H      -0.82005455      3.17779069      1.90029076      0.000327    -0.000230     0.000275
H      -2.57490508      3.28068277     -1.96088777      0.000154    -0.000513     0.000105
H      -3.53251219      1.86228704      1.90577335     -0.001539    -0.000632    -0.000059
H      -3.93807757      0.83253147     -1.12176921     -0.001030     0.000279    -0.000191
H      -2.02748579     -0.81767336      0.60788399     -0.001149    -0.000569     0.000519
H       0.91628267      1.72063863     -0.91072625      0.001691     0.001231     0.000233
H       0.40213586      2.70049033      1.04348712      0.000538    -0.000257     0.001454
N       2.34227094      2.29341907     -0.77106831     -0.001042    -0.000491     0.000167
H       2.64098694      2.72830513     -1.65989000     -0.001341    -0.000898     0.000438
H       2.60216513      2.96256513     -0.04532150     -0.001513    -0.000689     0.000800
H       2.98656546      1.48541630     -0.62942676     -0.001201    -0.000762     0.000926
23
Frame 20  Energy = -756.6721075496 Hartree
Al     -1.70697554      1.68931480     -0.08085661      0.000246     0.000011    -0.000435
O      -0.16256990      1.38396273     -1.07974080      0.000404     0.000582     0.000435
H      -0.12556697      0.87369197     -1.90307901      0.000741    -0.002240     0.001901
O      -2.17481820      3.27350153     -1.07480575     -0.000109     0.000019     0.000138
H      -1.76299152      4.13677593     -0.96112393      0.000031     0.000223     0.000250
O      -2.97097256      0.73196358     -1.21583019      0.000091     0.000045    -0.000158
H      -2.80581404      0.04749004     -1.91198859     -0.000547    -0.000316    -0.001410
O      -1.68396319      0.03747266      0.90084978      0.000057    -0.000107    -0.000040
H      -1.09082336     -0.19148773      1.66479750     -0.000400    -0.000187    -0.000517
O      -3.16663910      2.24746593      1.11214522      0.000307     0.000105    -0.000103
H      -3.69352013      3.06489490      0.93516583      0.000473     0.000997    -0.000860
O      -0.56172408      2.66200769      1.13379383      0.000052     0.000067     0.000068
H      -0.81603220      3.17649280      1.91363992      0.000039     0.000055     0.000857
H      -2.57287649      3.26838924     -1.96044605      0.000043    -0.000590    -0.000054
H      -3.56736656      1.83896375      1.91360916     -0.001457    -0.001261     0.000367
H      -3.95405958      0.83566584     -1.12831540     -0.000209    -0.000006    -0.000412
H      -2.05427913     -0.82715713      0.61740269     -0.001221    -0.000141     0.000396
H       0.95805216      1.75550657     -0.90583787      0.002146     0.001939     0.000228
H       0.41264544      2.69489923      1.07508034      0.000312    -0.000272     0.001406
N       2.31941827      2.28149676     -0.76757747     -0.001045    -0.000592     0.000163
H       2.60971508      2.70663946     -1.64585355     -0.001437    -0.000992     0.000696
H       2.56902514      2.94742701     -0.03039563     -0.001518    -0.000695     0.000519
H       2.95288250      1.47961016     -0.61234363     -0.001796     0.000141     0.000625
23
Frame 21  Energy = -756.6612720312 Hartree
Al     -1.70125127      1.68938156     -0.09064457      0.000277    -0.000005    -0.000456
O      -0.15361383      1.39680097     -1.06986481      0.000402     0.000582     0.000460
H      -0.10993970      0.82578195     -1.85779099      0.000689    -0.002074     0.002282
O      -2.17743319      3.27389724     -1.07176269     -0.000126     0.000025     0.000138
H      -1.75992891      4.14647208     -0.95553653      0.000176     0.000523     0.000223
O      -2.96974487      0.73247828     -1.22005900      0.000025    -0.000003    -0.000232
H      -2.82086168      0.05316952     -1.93213093     -0.000794     0.000868    -0.000381
O      -1.68220103      0.03421956      0.90085388      0.000091    -0.000184     0.000025
H      -1.10486034     -0.19043420      1.64525706     -0.000694     0.000211    -0.001029
O      -3.16091463      2.25030664      1.11031383      0.000209     0.000148    -0.000055
H      -3.67574556      3.07461250      0.91938106      0.001137    -0.000144    -0.000543
O      -0.56021170      2.66349568      1.13536843      0.000082     0.000076     0.000087
H      -0.81742241      3.17634743      1.93249914     -0.000137    -0.000163     0.000714
H      -2.57203224      3.25525683     -1.96205587      0.000059    -0.000583    -0.000055
H      -3.59068612      1.81481090      1.90790848     -0.000580    -0.000809    -0.001063
H      -3.94469940      0.83259530     -1.13961342      0.000955    -0.000242    -0.000585
H      -2.07993595     -0.82027610      0.62661220     -0.001108     0.000759     0.000443
H       1.01517108      1.80691434     -0.89955389      0.003225     0.002762     0.000383
H       0.41353151      2.68767214      1.10534162     -0.000222    -0.000399     0.001333
N       2.29526179      2.26739182     -0.76345978     -0.001171    -0.000682     0.000214
H       2.57977387      2.68758243     -1.63510132     -0.001242    -0.000689     0.000183
H       2.53404633      2.93203013     -0.02306733     -0.001677    -0.000683     0.000155
H       2.91206614      1.48418870     -0.60097916     -0.001762     0.000050     0.000439
23
Frame 22  Energy = -756.6404209018 Hartree
Al     -1.69483763      1.68906670     -0.10073019      0.000310    -0.000025    -0.000464
O      -0.14556713      1.40918003     -1.05975248      0.000321     0.000545     0.000463
H      -0.09522664      0.78443326     -1.80242363      0.000654    -0.001697     0.002748
O      -2.18020387      3.27494837     -1.06877127     -0.000125     0.000076     0.000135
H      -1.75835517      4.15381150     -0.95282264     -0.000080     0.000059     0.000002
O      -2.96943912      0.73196611     -1.22579089      0.000015    -0.000034    -0.000280
H      -2.83761772      0.08122047     -1.93267935     -0.000641     0.001474     0.000107
O      -1.68049601      0.02993896      0.90126222      0.000058    -0.000191     0.000002
H      -1.11222981     -0.18607220      1.63123267      0.000170     0.000111    -0.000058
O      -3.15725264      2.25353720      1.10972212      0.000142     0.000137    -0.000009
H      -3.64785565      3.06327709      0.91127356      0.001243    -0.000656    -0.000236
O      -0.55840870      2.66551654      1.13790137      0.000074     0.000109     0.000147
H      -0.82142257      3.16708497      1.94098296     -0.000235    -0.000680     0.000054
H      -2.56943399      3.24380994     -1.96169558      0.000187    -0.000445     0.000095
H      -3.59299980      1.80474522      1.86770980      0.000258    -0.000195    -0.002398
H      -3.92241504      0.82714872     -1.15192977      0.000775    -0.000200    -0.000486
H      -2.10399865     -0.79821715      0.63574255     -0.001145     0.001088     0.000354
H       1.10920353      1.87762256     -0.88677692      0.005433     0.003656     0.000820
H       0.40587263      2.67701662      1.13272280     -0.000371    -0.000580     0.001158
N       2.26776768      2.25220352     -0.75855080     -0.001330    -0.000693     0.000220
H       2.55624884      2.67681102     -1.63816016     -0.000914    -0.000337    -0.000374
H       2.49553996      2.91904753     -0.02247221     -0.001832    -0.000464    -0.000057
H       2.88114726      1.47402225     -0.59208114     -0.001024    -0.001046     0.000382
23
Frame 23  Energy = -756.6386307098 Hartree
Al     -1.68756245      1.68824901     -0.11105098      0.000352    -0.000051    -0.000473
O      -0.13996724      1.42073279     -1.04936650      0.000177     0.000506     0.000485
H      -0.08123978      0.74997773     -1.73936556      0.000615    -0.001485     0.002908
O      -2.18290107      3.27722526     -1.06581232     -0.000123     0.000126     0.000135
H      -1.76354874      4.14903000     -0.95567053     -0.000350    -0.000406    -0.000247
O      -2.96879006      0.73153011     -1.23170692      0.000041     0.000005    -0.000245
H      -2.84516651      0.10750500     -1.93854712      0.000015     0.000735    -0.000839
O      -1.67950957      0.02635872      0.90099032      0.000042    -0.000130    -0.000014
H      -1.09790453     -0.18669515      1.64237796      0.000964    -0.000146     0.000867
O      -3.15373525      2.25612418      1.10915802      0.000199     0.000100    -0.000063
H      -3.62826185      3.05657090      0.90679670      0.000423     0.000221    -0.000206
O      -0.55718993      2.66820548      1.14166665      0.000034     0.000130     0.000187
H      -0.82890143      3.14888666      1.93825588     -0.000486    -0.000881    -0.000162
H      -2.56392347      3.23608614     -1.95858076      0.000300    -0.000257     0.000153
H      -3.58755861      1.79870385      1.81686726      0.000014    -0.000568    -0.001850
H      -3.91970159      0.82551538     -1.15930873     -0.000556     0.000063    -0.000170
H      -2.13252496     -0.77919103      0.64110841     -0.001465     0.000545     0.000137
H       1.24524845      1.96202602     -0.86354335      0.006310     0.003765     0.001240
H       0.40132023      2.66191428      1.15618216      0.000007    -0.000796     0.000979
N       2.23830759      2.23737003     -0.75434817     -0.001275    -0.000641     0.000155
H       2.53846846      2.66986425     -1.64593440     -0.000732    -0.000363    -0.000203
H       2.45402918      2.91272720     -0.02378555     -0.001920    -0.000109    -0.000037
H       2.86355446      1.44135364     -0.58477306     -0.000741    -0.001742     0.000255
23
Frame 24  Energy = -756.6845700865 Hartree
Al     -1.67931364      1.68680282     -0.12154378      0.000401    -0.000081    -0.000485
O      -0.13803493      1.43148639     -1.03828018     -0.000003     0.000478     0.000529
H      -0.06801276      0.71702918     -1.67682664      0.000604    -0.001553     0.002781
O      -2.18573875      3.28016130     -1.06281700     -0.000140     0.000134     0.000139
H      -1.77077808      4.14185744     -0.96266230     -0.000238    -0.000106    -0.000364
O      -2.96808866      0.73222549     -1.23651840      0.000008     0.000051    -0.000204
H      -2.83699850      0.11365294     -1.96975551      0.000675    -0.000004    -0.001824
O      -1.67818366      0.02409137      0.90120688      0.000085    -0.000086     0.000044
H      -1.07927752     -0.19080334      1.65797910      0.000547    -0.000198     0.000332
O      -3.14816996      2.25827009      1.10642995      0.000302     0.000104    -0.000185
H      -3.62918462      3.07224351      0.90265332     -0.000405     0.001020    -0.000118
O      -0.55680293      2.67102701      1.14579535      0.000006     0.000125     0.000184
H      -0.84421838      3.13199656      1.93961261     -0.000923    -0.000612     0.000369
H      -2.55699594      3.23226376     -1.95659549      0.000317    -0.000101    -0.000001
H      -3.59782766      1.77488630      1.79437125     -0.000922    -0.001552    -0.000281
H      -3.93947767      0.82898123     -1.16015447     -0.000964     0.000211     0.000055
H      -2.16681892     -0.77356506      0.64351459     -0.001579     0.000077     0.000150
H       1.32994244      2.02589546     -0.83809911     -0.000283     0.001621     0.000901
H       0.40517048      2.64203394      1.17644312      0.000263    -0.001014     0.000893
N       2.21656432      2.22495936     -0.75152515     -0.000582    -0.000467     0.000116
H       2.52343359      2.65893972     -1.64378642     -0.000635    -0.000648     0.000412
H       2.41268339      2.91327729     -0.02401070     -0.001798     0.000123     0.000005
H       2.84130879      1.40557820     -0.58177164     -0.001414    -0.001380     0.000014
23
Frame 25  Energy = -756.6513876505 Hartree
Al     -1.67014316      1.68472878     -0.13214148      0.000433    -0.000106    -0.000481
O      -0.14004310      1.44151346     -1.02635314     -0.000177     0.000434     0.000555
H      -0.05425695      0.68271130     -1.61748653      0.000671    -0.001537     0.002679
O      -2.18911085      3.28293251     -1.05981543     -0.000167     0.000121     0.000134
H      -1.77220763      4.14750074     -0.97069075      0.000097     0.000594    -0.000361
O      -2.96883040      0.73325294     -1.24125307     -0.000078     0.000033    -0.000242
H      -2.81932789      0.11711519     -2.00678293      0.000851     0.000515    -0.001322
O      -1.67585184      0.02221183      0.90293796      0.000121    -0.000091     0.000107
H      -1.07772159     -0.19507116      1.65277211     -0.000370    -0.000216    -0.000755
O      -3.14134156      2.26079859      1.10162518      0.000301     0.000124    -0.000236
H      -3.63988065      3.09034704      0.90444730     -0.000445     0.000419     0.000330
O      -0.55676434      2.67364182      1.14972521     -0.000002     0.000117     0.000180
H      -0.86787709      3.12172658      1.95361642     -0.001171    -0.000388     0.000804
H      -2.55042458      3.23132792     -1.95897865      0.000283     0.000011    -0.000200
H      -3.62061202      1.73965501      1.79267224     -0.000941    -0.001414    -0.000209
H      -3.95114351      0.83292881     -1.15873343      0.000033     0.000118     0.000039
H      -2.19714835     -0.77014486      0.65053877     -0.001113     0.000342     0.000539
H       1.22403136      2.03043593     -0.82645171     -0.007815    -0.000878     0.000248
H       0.40873691      2.61825347      1.19635495     -0.000009    -0.001139     0.000958
N       2.21331823      2.21698732     -0.74895373      0.000156    -0.000284     0.000119
H       2.51192971      2.64255601     -1.63059985     -0.000375    -0.000797     0.000670
H       2.37884189      2.91656728     -0.02394233     -0.001215     0.000145    -0.000001
H       2.80081104      1.38340766     -0.58327064     -0.002205    -0.000694    -0.000105
23
Frame 26  Energy = -756.6647447175 Hartree
Al     -1.66069189      1.68228932     -0.14228369      0.000426    -0.000114    -0.000443
O      -0.14551554      1.45015715     -1.01440266     -0.000316     0.000353     0.000533
H      -0.03771516      0.65272234     -1.55871698      0.000876    -0.001159     0.002727
O      -2.19284797      3.28573365     -1.05710598     -0.000171     0.000144     0.000112
H      -1.76870426      4.16290861     -0.97833153      0.000153     0.000666    -0.000341
O      -2.97117642      0.73345309     -1.24733647     -0.000122    -0.000013    -0.000314
H      -2.80279366      0.13977627     -2.02241284      0.000631     0.001527    -0.000142
O      -1.67333728      0.02019036      0.90530147      0.000099    -0.000087     0.000093
H      -1.08948747     -0.20223296      1.63273189     -0.000502    -0.000502    -0.000825
O      -3.13566845      2.26340402      1.09672483      0.000216     0.000108    -0.000207
H      -3.64570653      3.08637478      0.91747742     -0.000094    -0.000740     0.000834
O      -0.55705583      2.67623871      1.15391086     -0.000031     0.000123     0.000208
H      -0.89181226      3.11192859      1.96885076     -0.000954    -0.000570     0.000478
H      -2.54442879      3.23272973     -1.96392004      0.000273     0.000119    -0.000214
H      -3.63183748      1.72095826      1.77570046     -0.000019    -0.000238    -0.001417
H      -3.93885863      0.83362266     -1.15932275      0.000922    -0.000048    -0.000096
H      -2.21420558     -0.75733693      0.66752359     -0.000490     0.000778     0.000993
H       1.05649475      2.00023091     -0.82481367     -0.006659    -0.001727    -0.000094
H       0.40406003      2.59335250      1.21942241     -0.000380    -0.001125     0.001180
N       2.21767818      2.21189320     -0.74630460      0.000159    -0.000186     0.000127
H       2.50894039      2.62664961     -1.62030364      0.000136    -0.000620     0.000173
H       2.36253864      2.91804386     -0.02422440     -0.000236    -0.000045    -0.000029
H       2.75177764      1.37035790     -0.58382392     -0.002107    -0.000652     0.000113
23
Frame 27  Energy = -756.6887118602 Hartree
Al     -1.65185001      1.67991266     -0.15126107      0.000379    -0.000101    -0.000376
O      -0.15353298      1.45672303     -1.00335889     -0.000412     0.000247     0.000476
H      -0.01495500      0.63285954     -1.49865443      0.001223    -0.000683     0.002761
O      -2.19638896      3.28951624     -1.05503983     -0.000152     0.000205     0.000076
H      -1.76787783      4.17157522     -0.98542542     -0.000100     0.000078    -0.000299
O      -2.97342056      0.73303406     -1.25451948     -0.000068    -0.000014    -0.000330
H      -2.79161457      0.17773273     -2.02040021      0.000432     0.001744     0.000048
O      -1.67171475      0.01884829      0.90652486      0.000054    -0.000027     0.000017
H      -1.09230848     -0.21877451      1.62566886      0.000308    -0.001015     0.000248
O      -3.13161166      2.26522686      1.09249753      0.000174     0.000056    -0.000191
H      -3.64698098      3.06516228      0.93822946     -0.000137    -0.000962     0.000991
O      -0.55833795      2.67900555      1.15884158     -0.000090     0.000128     0.000240
H      -0.90810940      3.09603057      1.97268454     -0.000551    -0.000864    -0.000086
H      -2.53844947      3.23657536     -1.96704732      0.000271     0.000232    -0.000061
H      -3.62323100      1.72592648      1.73485864      0.000665     0.000487    -0.002095
H      -3.92177958      0.83166963     -1.16249313      0.000386    -0.000110    -0.000180
H      -2.22259878     -0.74117211      0.69171620     -0.000402     0.000563     0.001166
H       0.94962994      1.95971929     -0.83067087     -0.003048    -0.001898    -0.000436
H       0.39509343      2.56963170      1.24849485     -0.000376    -0.001046     0.001495
N       2.21853059      2.20886184     -0.74341759     -0.000092    -0.000094     0.000132
H       2.51815798      2.61549107     -1.62384803      0.000689    -0.000445    -0.000430
H       2.36928360      2.91366415     -0.02505736      0.000854    -0.000360    -0.000034
H       2.71476475      1.35058863     -0.57668962     -0.001225    -0.001169     0.000551
23
Frame 28  Energy = -756.7034581648 Hartree
Al     -1.64455130      1.67801929     -0.15838467      0.000279    -0.000069    -0.000268
O      -0.16286572      1.46079939     -0.99397885     -0.000424     0.000123     0.000372
H       0.01451245      0.62103829     -1.44090641      0.001413    -0.000455     0.002444
O      -2.19938996      3.29450105     -1.05383098     -0.000123     0.000240     0.000034
H      -1.77216168      4.16776559     -0.99052413     -0.000234    -0.000316    -0.000142
O      -2.97386089      0.73335690     -1.26091313      0.000023     0.000049    -0.000242
H      -2.78229285      0.20717201     -2.03127654      0.000432     0.000845    -0.001157
O      -1.67056169      0.01909928      0.90644265      0.000064     0.000043    -0.000009
H      -1.07979054     -0.24337463      1.63849832      0.000646    -0.001113     0.000679
O      -3.12737493      2.26598325      1.08784013      0.000223     0.000021    -0.000244
H      -3.65557879      3.05382416      0.95733109     -0.000665     0.000025     0.000702
O      -0.56088674      2.68159153      1.16399402     -0.000134     0.000102     0.000219
H      -0.91774041      3.07715545      1.96973798     -0.000395    -0.000774    -0.000041
H      -2.53319699      3.24250742     -1.96690359      0.000189     0.000296     0.000049
H      -3.61160329      1.73028673      1.69797798      0.000217    -0.000333    -0.001001
H      -3.92707900      0.82922019     -1.16693408     -0.000786    -0.000124    -0.000237
H      -2.23532498     -0.73680334      0.71590503     -0.000771    -0.000158     0.001010
H       0.92178715      1.92200002     -0.84262448      0.000420    -0.001418    -0.000602
H       0.38890647      2.54834360      1.28372200     -0.000210    -0.000881     0.001682
N       2.21405354      2.20741486     -0.74093009     -0.000297    -0.000052     0.000086
H       2.53679105      2.60464095     -1.63355041      0.000947    -0.000606    -0.000314
H       2.39838792      2.90320881     -0.02487086      0.001742    -0.000564     0.000065
H       2.69791131      1.32450505     -0.56124098     -0.000384    -0.001018     0.000796
23
Frame 29  Energy = -756.6964380667 Hartree
Al     -1.63964431      1.67688671     -0.16309906      0.000167    -0.000034    -0.000162
O      -0.17190156      1.46211074     -0.98701904     -0.000395    -0.000006     0.000261
H       0.04548370      0.61057846     -1.39134671      0.001364    -0.000523     0.002089
O      -2.20192709      3.29981440     -1.05350579     -0.000112     0.000240    -0.000004
H      -1.77544556      4.16313749     -0.99092630     -0.000010     0.000003     0.000120
O      -2.97289493      0.73509133     -1.26543364      0.000054     0.000101    -0.000186
H      -2.77377463      0.21807086     -2.06763871      0.000282     0.000327    -0.001915
O      -1.66861490      0.02016632      0.90669247      0.000114     0.000040     0.000040
H      -1.07087331     -0.26377768      1.64640257      0.000066    -0.000680    -0.000097
O      -3.12185308      2.26650946      1.08157859      0.000265     0.000029    -0.000319
H      -3.67330420      3.06301044      0.96919815     -0.000816     0.000621     0.000405
O      -0.56396912      2.68336287      1.16836853     -0.000142     0.000060     0.000182
H      -0.92823892      3.06405463      1.97513827     -0.000597    -0.000410     0.000560
H      -2.53074553      3.24927342     -1.96614019      0.000024     0.000316    -0.000003
H      -3.61468724      1.70879491      1.69244433     -0.000363    -0.001489     0.000325
H      -3.94723921      0.82519351     -1.17412670     -0.000793    -0.000270    -0.000451
H      -2.25422691     -0.74364717      0.73666112     -0.000855    -0.000307     0.000908
H       0.96639730      1.90231401     -0.85460202      0.003706    -0.000241    -0.000420
H       0.38334181      2.53083632      1.32176728     -0.000367    -0.000717     0.001772
N       2.20602517      2.20591953     -0.73977636     -0.000427    -0.000098     0.000020
H       2.55808912      2.58685836     -1.63390066      0.000970    -0.001036     0.000311
H       2.44357217      2.88943126     -0.02232614      0.002311    -0.000694     0.000144
H       2.69412834      1.31237736     -0.54399549     -0.000027     0.000008     0.000731
23
Frame 30  Energy = -756.6789574295 Hartree
Al     -1.63729645      1.67653081     -0.16551765      0.000047     0.000001    -0.000060
O      -0.17987314      1.46040791     -0.98267356     -0.000327    -0.000152     0.000134
H       0.07172639      0.59878121     -1.34902218      0.000981    -0.000515     0.001795
O      -2.20431546      3.30492893     -1.05395463     -0.000104     0.000230    -0.000037
H      -1.77197980      4.16919866     -0.98530154      0.000297     0.000496     0.000381
O      -2.97187626      0.73730720     -1.26977872      0.000036     0.000093    -0.000224
H      -2.77244337      0.22921716     -2.10285851     -0.000189     0.000821    -0.001081
O      -1.66584153      0.02035866      0.90820341      0.000128    -0.000027     0.000092
H      -1.07681410     -0.27206136      1.63381876     -0.000506    -0.000098    -0.000940
O      -3.11678166      2.26712236      1.07458823      0.000179     0.000019    -0.000303
H      -3.68518760      3.07191237      0.97615492     -0.000168     0.000034     0.000247
O      -0.56702291      2.68433605      1.17228614     -0.000140     0.000034     0.000187
H      -0.94330600      3.05792755      1.99101359     -0.000736    -0.000207     0.000751
H      -2.53220187      3.25620324     -1.96735292     -0.000147     0.000319    -0.000098
H      -3.61835330      1.67638376      1.70024336      0.000227    -0.001207     0.000123
H      -3.95357002      0.81692324     -1.18720595      0.000290    -0.000480    -0.000736
H      -2.26862798     -0.74407916      0.75598147     -0.000406     0.000353     0.000850
H       1.08251845      1.91581930     -0.85821461      0.006705     0.001512     0.000133
H       0.37110021      2.51689474      1.35994847     -0.000754    -0.000567     0.001690
N       2.19598952      2.20288999     -0.73984672     -0.000466    -0.000177    -0.000018
H       2.57857782      2.56037466     -1.62206154      0.000900    -0.001329     0.000659
H       2.49453560      2.87274356     -0.02021901      0.002205    -0.000827     0.000009
H       2.69533226      1.32434361     -0.53069174      0.000139     0.000973     0.000472
23
Frame 31  Energy = -756.6827680209 Hartree
Al     -1.63751024      1.67689281     -0.16585244     -0.000064     0.000031     0.000026
O      -0.18621032      1.45550117     -0.98108831     -0.000253    -0.000292     0.000014
H       0.08738555      0.58927016     -1.31201529      0.000449    -0.000354     0.001580
O      -2.20638568      3.31018621     -1.05509973     -0.000081     0.000256    -0.000066
H      -1.76500380      4.18009984     -0.97530452      0.000271     0.000376     0.000501
O      -2.97119809      0.73901981     -1.27548728      0.000034     0.000065    -0.000292
H      -2.78105078      0.25538108     -2.11223350     -0.000525     0.001496     0.000126
O      -1.66346527      0.01915239      0.91026561      0.000081    -0.000072     0.000084
H      -1.08547225     -0.27086462      1.61387955     -0.000085     0.000121    -0.000646
O      -3.11434401      2.26704202      1.06872074      0.000049    -0.000033    -0.000232
H      -3.67999129      3.06293275      0.98011590      0.000569    -0.000764     0.000102
O      -0.57034411      2.68512547      1.17702648     -0.000170     0.000042     0.000252
H      -0.95861624      3.05268306      2.00233014     -0.000636    -0.000301     0.000196
H      -2.53646603      3.26356623     -1.96951458     -0.000222     0.000363    -0.000074
H      -3.60067478      1.66231139      1.69186695      0.001363    -0.000064    -0.000880
H      -3.93785891      0.80509777     -1.20513601      0.000933    -0.000565    -0.000852
H      -2.27281308     -0.72869603      0.77294364     -0.000063     0.000947     0.000664
H       1.23731362      1.96476658     -0.84926710      0.006325     0.002697     0.000598
H       0.35219044      2.50510178      1.39527143     -0.000892    -0.000536     0.001527
N       2.18762307      2.19870386     -0.74017084     -0.000213    -0.000181    -0.000000
H       2.59776162      2.53139407     -1.61074038      0.000853    -0.001250     0.000254
H       2.53441709      2.85412805     -0.02290711      0.001320    -0.000825    -0.000253
H       2.70115282      1.34703567     -0.52281167      0.000421     0.000881     0.000272
23
Frame 32  Energy = -756.7084001117 Hartree
Al     -1.63996931      1.67786613     -0.16449395     -0.000158     0.000057     0.000096
O      -0.19107835      1.44791795     -0.98184893     -0.000193    -0.000391    -0.000079
H       0.09234738      0.58139423     -1.28076236      0.000041    -0.000443     0.001238
O      -2.20777894      3.31625307     -1.05679240     -0.000046     0.000295    -0.000086
H      -1.76203075      4.18261579     -0.96455571     -0.000006    -0.000143     0.000460
O      -2.97003144      0.74044114     -1.28204725      0.000078     0.000073    -0.000288
H      -2.79100161      0.28846382     -2.10735730     -0.000270     0.001342     0.000011
O      -1.66234358      0.01777497      0.91160499      0.000030    -0.000044     0.000041
H      -1.07561697     -0.26919015      1.61137154      0.000953     0.000028     0.000387
O      -3.11396611      2.26551158      1.06413995      0.000009    -0.000104    -0.000201
H      -3.66613286      3.04620772      0.97976265      0.000531    -0.000544    -0.000154
O      -0.57462207      2.68624962      1.18333423     -0.000220     0.000059     0.000318
H      -0.97152021      3.04508264      1.99942437     -0.000583    -0.000348    -0.000381
H      -2.54126590      3.27255921     -1.96997025     -0.000208     0.000467     0.000032
H      -3.56438154      1.66810645      1.66816733      0.001728     0.000345    -0.001012
H      -3.92363811      0.79376379     -1.22217095      0.000159    -0.000440    -0.000655
H      -2.27653906     -0.70925781      0.78369181     -0.000387     0.000672     0.000300
H       1.29257975      2.01768281     -0.83864883     -0.002278     0.001883     0.000258
H       0.33544233      2.49243374      1.42668520     -0.000586    -0.000632     0.001334
N       2.19160411      2.19619193     -0.73944480      0.000646    -0.000035     0.000067
H       2.61565777      2.50765811     -1.61342382      0.000761    -0.000891    -0.000485
H       2.55004318      2.83971593     -0.03006601      0.000136    -0.000393    -0.000340
H       2.71379451      1.35564332     -0.51773289      0.000687    -0.000177     0.000205
23
Frame 33  Energy = -756.6710770736 Hartree
Al     -1.64440614      1.67940212     -0.16170683     -0.000247     0.000083     0.000159
O      -0.19473374      1.43865855     -0.98441806     -0.000140    -0.000450    -0.000154
H       0.09070381      0.56676903     -1.25876506     -0.000165    -0.000925     0.000760
O      -2.20844426      3.32289668     -1.05878761     -0.000018     0.000303    -0.000094
H      -1.76394313      4.17707002     -0.95540014     -0.000112    -0.000240     0.000379
O      -2.96787793      0.74252944     -1.28761766      0.000109     0.000118    -0.000219
H      -2.78966080      0.30921015     -2.12103045      0.000405     0.000544    -0.001284
O      -1.66164958      0.01730243      0.91247645      0.000043    -0.000004     0.000051
H      -1.05033012     -0.26786886      1.62369841      0.001140     0.000152     0.000509
O      -3.11311373      2.26278284      1.05920237      0.000078    -0.000136    -0.000261
H      -3.66143853      3.04486285      0.97313042     -0.000122     0.000416    -0.000437
O      -0.57979250      2.68753488      1.19064388     -0.000245     0.000053     0.000342
H      -0.98680219      3.04001235      1.99088551     -0.000869    -0.000055    -0.000272
H      -2.54559933      3.28437942     -1.96874849     -0.000194     0.000618     0.000055
H      -3.53397760      1.66673544      1.65905266      0.000919    -0.000610     0.000343
H      -3.93252606      0.78627762     -1.23280438     -0.000827    -0.000248    -0.000317
H      -2.29136094     -0.70235775      0.78655833     -0.000905    -0.000011    -0.000002
H       1.17165425      2.05150540     -0.83549443     -0.006978     0.001400     0.000156
H       0.32635052      2.47746314      1.45354247     -0.000295    -0.000717     0.001107
N       2.21337705      2.19639610     -0.73784485      0.001209     0.000025     0.000058
H       2.63018409      2.49244312     -1.62921142      0.000542    -0.000509    -0.000851
H       2.54475178      2.84113271     -0.03467562     -0.000480     0.000592    -0.000023
H       2.72786044      1.34007692     -0.51378211      0.000501    -0.001132     0.000147
23
Frame 34  Energy = -756.6858651448 Hartree
Al     -1.65082786      1.68152419     -0.15752454     -0.000342     0.000112     0.000225
O      -0.19711009      1.42824485     -0.98857342     -0.000074    -0.000505    -0.000227
H       0.08574445      0.54240390     -1.24698462     -0.000283    -0.001212     0.000347
O      -2.20864809      3.32920013     -1.06086725     -0.000002     0.000271    -0.000095
H      -1.76461817      4.17700416     -0.94770893      0.000078     0.000296     0.000329
O      -2.96572712      0.74538808     -1.29210251      0.000079     0.000135    -0.000210
H      -2.77544675      0.31665187     -2.15553240      0.000805     0.000298    -0.001567
O      -1.66033035      0.01720575      0.91413181      0.000073    -0.000013     0.000102
H      -1.03303459     -0.26107904      1.62627629      0.000360     0.000467    -0.000344
O      -3.11085631      2.25973492      1.05277415      0.000111    -0.000146    -0.000315
H      -3.66834104      3.05814608      0.96210897     -0.000384     0.000575    -0.000529
O      -0.58508469      2.68841574      1.19813434     -0.000237     0.000026     0.000345
H      -1.01037904      3.04389493      1.99024329     -0.001258     0.000397     0.000190
H      -2.55008216      3.29975662     -1.96853535     -0.000221     0.000791    -0.000048
H      -3.52305945      1.64492180      1.68074448      0.000230    -0.001119     0.001396
H      -3.94966676      0.78226150     -1.23693533     -0.000503    -0.000137    -0.000092
H      -2.31054038     -0.70507707      0.78573200     -0.000696    -0.000101    -0.000022
H       1.03974649      2.08025742     -0.82993061     -0.004521     0.001145     0.000326
H       0.31951508      2.46219919      1.47473891     -0.000395    -0.000653     0.000832
N       2.24047776      2.19657724     -0.73735395      0.001223    -0.000012    -0.000013
H       2.63883621      2.48465249     -1.64582277      0.000252    -0.000223    -0.000574
H       2.53420968      2.86510397     -0.03147736     -0.000402     0.001499     0.000230
H       2.73233225      1.31308980     -0.51171953     -0.000136    -0.001163     0.000037
23
Frame 35  Energy = -756.7038227201 Hartree
Al     -1.65927886      1.68426669     -0.15194269     -0.000434     0.000140     0.000287
O      -0.19788980      1.41657481     -0.99426915      0.000000    -0.000570    -0.000295
H       0.07848786      0.51855982     -1.24231220     -0.000381    -0.000895     0.000107
O      -2.20845944      3.33475620     -1.06291279      0.000022     0.000247    -0.000093
H      -1.76110155      4.18906352     -0.94129278      0.000194     0.000716     0.000247
O      -2.96454634      0.74810026     -1.29742451      0.000033     0.000111    -0.000288
H      -2.75825295      0.32784701     -2.17796277      0.000716     0.000800    -0.000350
O      -1.65880771      0.01661054      0.91668604      0.000056    -0.000038     0.000122
H      -1.03353646     -0.24932035      1.61076841     -0.000276     0.000538    -0.000924
O      -3.10905688      2.25616965      1.04613877      0.000042    -0.000188    -0.000283
H      -3.67352522      3.06172851      0.95164426     -0.000035    -0.000349    -0.000414
O      -0.59023377      2.68870304      1.20586914     -0.000243     0.000004     0.000372
H      -1.03835913      3.05530905      1.99523919     -0.001217     0.000589     0.000149
H      -2.55513796      3.31879247     -1.97069911     -0.000236     0.000955    -0.000132
H      -3.51690471      1.63029971      1.70796877      0.000457    -0.000016     0.000891
H      -3.94853819      0.77970972     -1.23799991      0.000610    -0.000107    -0.000027
H      -2.31691172     -0.70277598      0.78714565      0.000147     0.000333     0.000168
H       0.98521920      2.09701722     -0.82333347     -0.000408     0.000322     0.000236
H       0.30782845      2.44986768      1.49023138     -0.000669    -0.000472     0.000618
N       2.26556812      2.19610840     -0.73807853      0.001069    -0.000021    -0.000044
H       2.64199622      2.48219396     -1.65218037      0.000074    -0.000009    -0.000021
H       2.52918454      2.89950999     -0.03015193     -0.000041     0.001484    -0.000236
H       2.72196564      1.29495889     -0.51186121     -0.000770    -0.000448    -0.000028
23
Frame 36  Energy = -756.6950900409 Hartree
Al     -1.66946648      1.68757734     -0.14518811     -0.000491     0.000160     0.000325
O      -0.19727380      1.40361643     -1.00119001      0.000050    -0.000608    -0.000331
H       0.06945755      0.50462156     -1.24199220     -0.000436    -0.000423    -0.000085
O      -2.20754420      3.34023979     -1.06489486      0.000063     0.000261    -0.000089
H      -1.75875826      4.20294456     -0.93760918     -0.000026     0.000452     0.000082
O      -2.96387891      0.75026068     -1.30448811      0.000040     0.000092    -0.000345
H      -2.74512538      0.35081144     -2.17150525      0.000512     0.001206     0.000752
O      -1.65825746      0.01593498      0.91889310     -0.000009    -0.000011     0.000071
H      -1.03728143     -0.24141288      1.59489081      0.000097     0.000119    -0.000350
O      -3.10916698      2.25136986      1.04075448     -0.000045    -0.000251    -0.000212
H      -3.67041197      3.04371263      0.94412026      0.000235    -0.001159    -0.000296
O      -0.59595286      2.68870097      1.21437654     -0.000286    -0.000002     0.000404
H      -1.05964065      3.06730425      1.99305065     -0.000684     0.000487    -0.000367
H      -2.55987490      3.34077196     -1.97311122     -0.000186     0.001037    -0.000062
H      -3.50158474      1.64689439      1.71597017      0.000895     0.001430    -0.000084
H      -3.92884999      0.77737808     -1.23857516      0.000953    -0.000109    -0.000026
H      -2.30630354     -0.69340927      0.79276850      0.000694     0.000387     0.000319
H       1.02344196      2.09301992     -0.82077562      0.003864    -0.000658    -0.000006
H       0.29242239      2.44157569      1.50297641     -0.000677    -0.000297     0.000582
N       2.28621809      2.19617430     -0.73890123      0.000804     0.000037    -0.000028
H       2.64402372      2.48415934     -1.64941208      0.000160     0.000183     0.000176
H       2.53293021      2.92364659     -0.04472171      0.000392     0.000661    -0.001079
H       2.70260656      1.29249761     -0.51142050     -0.000884     0.000121     0.000110
23
Frame 37  Energy = -756.6733771105 Hartree
Al     -1.68051309      1.69121713     -0.13787793     -0.000499     0.000166     0.000329
O      -0.19602387      1.39017880     -1.00852848      0.000054    -0.000598    -0.000324
H       0.05949361      0.49611120     -1.24679034     -0.000467    -0.000450    -0.000366
O      -2.20567574      3.34632480     -1.06681702      0.000103     0.000287    -0.000085
H      -1.76270553      4.20739328     -0.93745601     -0.000301    -0.000013    -0.000048
O      -2.96235953      0.75253165     -1.31178381      0.000100     0.000122    -0.000293
H      -2.73314571      0.37502590     -2.15723782      0.000642     0.000844     0.000232
O      -1.65895618      0.01656080      0.91977097     -0.000043     0.000070     0.000018
H      -1.02716872     -0.24464576      1.59732464      0.000727    -0.000362     0.000463
O      -3.11050506      2.24525251      1.03641849     -0.000061    -0.000294    -0.000195
H      -3.66826471      3.01926535      0.93703185     -0.000156    -0.000849    -0.000387
O      -0.60287216      2.68860753      1.22336017     -0.000337    -0.000009     0.000399
H      -1.06871284      3.07746377      1.98154198     -0.000188     0.000482    -0.000554
H      -2.56313407      3.36346724     -1.97281250     -0.000111     0.000988     0.000087
H      -3.48243105      1.68356568      1.71322054      0.000686     0.001585     0.000132
H      -3.91653064      0.77472896     -1.23912770      0.000024    -0.000139    -0.000030
H      -2.29256685     -0.69207350      0.79979325      0.000438    -0.000370     0.000288
H       1.15144027      2.07164779     -0.82291459      0.007494    -0.001143    -0.000157
H       0.28006719      2.43634246      1.51693308     -0.000426    -0.000182     0.000688
N       2.30056329      2.19788029     -0.73948927      0.000496     0.000113    -0.000035
H       2.65068108      2.48957230     -1.64832790      0.000464     0.000274    -0.000138
H       2.54680120      2.92976437     -0.07344036      0.000866     0.000001    -0.001352
H       2.68811933      1.29505398     -0.50550570     -0.000321     0.000010     0.000444
23
Frame 38  Energy = -756.6730949485 Hartree
Al     -1.69117669      1.69476459     -0.13088076     -0.000466     0.000155     0.000303
O      -0.19527408      1.37737963     -1.01527103      0.000007    -0.000567    -0.000286
H       0.04816774      0.48206599     -1.25840818     -0.000590    -0.000828    -0.000679
O      -2.20314450      3.35272756     -1.06865441      0.000123     0.000290    -0.000082
H      -1.76955467      4.20630903     -0.93846115     -0.000253     0.000031    -0.000011
O      -2.95966869      0.75586198     -1.31697844      0.000134     0.000180    -0.000183
H      -2.71550385      0.38541749     -2.16745058      0.000930     0.000146    -0.001075
O      -1.65970501      0.01879363      0.92023768     -0.000021     0.000119     0.000037
H      -1.01220533     -0.25390971      1.60743032      0.000469    -0.000395     0.000268
O      -3.11152624      2.23878937      1.03165619     -0.000037    -0.000287    -0.000240
H      -3.67914389      3.01024113      0.92573589     -0.000783    -0.000020    -0.000650
O      -0.61056335      2.68814912      1.23169221     -0.000357    -0.000036     0.000355
H      -1.07091682      3.09114481      1.97401680     -0.000072     0.000811    -0.000040
H      -2.56522205      3.38337555     -1.96998862     -0.000093     0.000803     0.000142
H      -3.47559083      1.70755886      1.73138416     -0.000059     0.000551     0.001555
H      -3.92625966      0.77067290     -1.24080543     -0.000719    -0.000245    -0.000157
H      -2.28741611     -0.70943400      0.80509283      0.000118    -0.001088     0.000201
H       1.33109980      2.04758216     -0.82702856      0.007744    -0.001014    -0.000246
H       0.27251064      2.43364459      1.53302481     -0.000313    -0.000057     0.000756
N       2.30960173      2.20077258     -0.74092913      0.000409     0.000141    -0.000104
H       2.66470966      2.49433761     -1.65569552      0.000805     0.000108    -0.000486
H       2.57092801      2.92962789     -0.09719618      0.001304     0.000108    -0.000681
H       2.69156271      1.29198576     -0.49214235      0.000675    -0.000225     0.000738
23
Frame 39  Energy = -756.7013926201 Hartree
Al     -1.70083939      1.69794307     -0.12466416     -0.000416     0.000135     0.000264
O      -0.19587670      1.36508554     -1.02101317     -0.000065    -0.000564    -0.000240
H       0.03221664      0.46205138     -1.27562102     -0.000900    -0.000917    -0.000865
O      -2.20034966      3.35890807     -1.07039203      0.000132     0.000276    -0.000076
H      -1.77171496      4.21234568     -0.93689115      0.000070     0.000541     0.000164
O      -2.95685260      0.76018554     -1.32041480      0.000118     0.000209    -0.000150
H      -2.69570788      0.38627799     -2.19395856      0.000784     0.000069    -0.001046
O      -1.65997315      0.02118444      0.92169894     -0.000011     0.000088     0.000098
H      -1.01038801     -0.25954574      1.60450834     -0.000293    -0.000098    -0.000541
O      -3.11283059      2.23269212      1.02633852     -0.000103    -0.000273    -0.000228
H      -3.69783774      3.01209816      0.90892147     -0.000790     0.000002    -0.000866
O      -0.61843563      2.68700926      1.23903613     -0.000365    -0.000066     0.000324
H      -1.07255921      3.11346067      1.98025847     -0.000048     0.001195     0.000536
H      -2.56776953      3.39813843     -1.96763896     -0.000148     0.000540     0.000056
H      -3.48036936      1.71316244      1.77388675     -0.000212     0.000184     0.002018
H      -3.93851396      0.76342868     -1.24753688     -0.000214    -0.000424    -0.000484
H      -2.28208011     -0.73270987      0.80910745      0.000481    -0.000879     0.000173
H       1.42408549      2.02179413     -0.83761408     -0.000461    -0.001516    -0.000810
H       0.26432584      2.43410151      1.54921292     -0.000461     0.000099     0.000707
N       2.32376503      2.20418141     -0.74396838      0.000986     0.000179    -0.000166
H       2.68556525      2.49236671     -1.66666210      0.001093    -0.000317    -0.000447
H       2.60188592      2.93645897     -0.10157567      0.001452     0.000482     0.000232
H       2.71827721      1.29007462     -0.47515140      0.001753     0.000180     0.000763
23
Frame 40  Energy = -756.6709128473 Hartree
Al     -1.70916308      1.70059128     -0.11948742     -0.000343     0.000107     0.000208
O      -0.19807800      1.35277876     -1.02566419     -0.000134    -0.000559    -0.000185
H       0.00852423      0.44540827     -1.29476444     -0.001256    -0.000571    -0.000867
O      -2.19733127      3.36486992     -1.07192284      0.000146     0.000274    -0.000062
H      -1.76770254      4.22727126     -0.93179466      0.000238     0.000710     0.000276
O      -2.95455890      0.76466446     -1.32407641      0.000096     0.000198    -0.000189
H      -2.68434208      0.39243325     -2.20366415      0.000239     0.000520     0.000223
O      -1.66060194      0.02238656      0.92423723     -0.000055     0.000026     0.000124
H      -1.02022697     -0.25886909      1.58816281     -0.000420     0.000112    -0.000774
O      -3.11670979      2.22687237      1.02245242     -0.000257    -0.000261    -0.000117
H      -3.70917486      3.00450987      0.88922474     -0.000215    -0.000737    -0.000916
O      -0.62655446      2.68546327      1.24608245     -0.000381    -0.000070     0.000326
H      -1.07072963      3.14012789      1.99204243      0.000262     0.001167     0.000414
H      -2.57155902      3.40676832     -1.96760692     -0.000187     0.000255    -0.000037
H      -3.47896001      1.72335224      1.80679137      0.000408     0.000835     0.000825
H      -3.93243160      0.75236342     -1.26195128      0.000706    -0.000578    -0.000812
H      -2.26478085     -0.74368002      0.81223712      0.001054    -0.000130     0.000091
H       1.33478688      1.98595798     -0.85919571     -0.005953    -0.001470    -0.000983
H       0.25295883      2.43761003      1.56317524     -0.000535     0.000204     0.000564
N       2.35105615      2.20817409     -0.74800407      0.001385     0.000166    -0.000202
H       2.71173257      2.48052748     -1.67335295      0.001291    -0.000734    -0.000162
H       2.63057232      2.94713323     -0.09166612      0.001110     0.000400     0.000536
H       2.76535761      1.30366911     -0.46109211      0.002468     0.001085     0.000490
23
Frame 41  Energy = -756.6863420407 Hartree
Al     -1.71587779      1.70264711     -0.11549930     -0.000271     0.000082     0.000157
O      -0.20164114      1.34071115     -1.02908414     -0.000187    -0.000536    -0.000126
H      -0.02169301      0.43631650     -1.31371408     -0.001460    -0.000314    -0.000879
O      -2.19383542      3.37111967     -1.07308959      0.000175     0.000299    -0.000044
H      -1.76368865      4.23901798     -0.92602335      0.000091     0.000300     0.000227
O      -2.95229032      0.76893583     -1.32856323      0.000119     0.000198    -0.000208
H      -2.68337402      0.40733296     -2.18843663     -0.000054     0.000739     0.000925
O      -1.66252893      0.02271312      0.92678307     -0.000118     0.000016     0.000104
H      -1.02131148     -0.25666800      1.57765766      0.000420     0.000066    -0.000094
O      -3.12397819      2.22117954      1.02117169     -0.000394    -0.000260    -0.000010
H      -3.70931485      2.98229573      0.86873199      0.000088    -0.001148    -0.000972
O      -0.63526277      2.68408517      1.25349517     -0.000415    -0.000056     0.000350
H      -1.06053107      3.16285993      1.99523615      0.000641     0.000909    -0.000128
H      -2.57532220      3.40989163     -1.96821902     -0.000140     0.000046     0.000006
H      -3.46303166      1.74888355      1.81036298      0.000959     0.001372    -0.000321
H      -3.91459761      0.73848177     -1.28162834      0.000702    -0.000682    -0.000941
H      -2.24055224     -0.74258978      0.81174121      0.001012     0.000071    -0.000171
H       1.21810743      1.96430548     -0.87568493     -0.004048    -0.000499    -0.000482
H       0.24299174      2.44229933      1.57385197     -0.000336     0.000208     0.000405
N       2.38055502      2.21102765     -0.75271706      0.001257     0.000095    -0.000222
H       2.74227457      2.46225773     -1.67498518      0.001503    -0.000873    -0.000035
H       2.64941579      2.95116491     -0.08340476      0.000613    -0.000053     0.000126
H       2.82370478      1.33564424     -0.45392029      0.002816     0.001722     0.000185
23
Frame 42  Energy = -756.7061768665 Hartree
Al     -1.72108627      1.70421240     -0.11255292     -0.000204     0.000061     0.000113
O      -0.20617185      1.32955617     -1.03114779     -0.000224    -0.000476    -0.000060
H      -0.05357740      0.42915988     -1.33409508     -0.001410    -0.000376    -0.000991
O      -2.18970119      3.37789953     -1.07383764      0.000200     0.000313    -0.000024
H      -1.76385400      4.24062568     -0.92238972     -0.000078    -0.000084     0.000104
O      -2.94920933      0.77364861     -1.33256265      0.000159     0.000237    -0.000144
H      -2.68175701      0.41975431     -2.17545276      0.000300     0.000299     0.000026
O      -1.66535922      0.02342670      0.92896512     -0.000127     0.000050     0.000104
H      -1.00346149     -0.25509235      1.58232931      0.001053     0.000131     0.000372
O      -3.13326878      2.21553232      1.02122065     -0.000437    -0.000251    -0.000006
H      -3.71105066      2.96129099      0.84567413     -0.000359    -0.000638    -0.001146
O      -0.64456192      2.68289714      1.26129014     -0.000426    -0.000057     0.000355
H      -1.04536868      3.18180935      1.98891683      0.000659     0.000890    -0.000348
H      -2.57718152      3.40953155     -1.96669970     -0.000024    -0.000063     0.000133
H      -3.44262380      1.77568579      1.80543052      0.000761     0.000884     0.000202
H      -3.90863681      0.72275115     -1.30149798     -0.000204    -0.000744    -0.000839
H      -2.22532073     -0.74659316      0.80379922      0.000334    -0.000501    -0.000555
H       1.16860357      1.96116630     -0.88052913     -0.000379     0.000125     0.000016
H       0.23859304      2.44641780      1.58034128     -0.000089     0.000167     0.000166
N       2.40514649      2.21250327     -0.75762305      0.000975     0.000042    -0.000226
H       2.77758414      2.44487877     -1.67682390      0.001701    -0.000658    -0.000160
H       2.65843048      2.94642235     -0.08775299      0.000244    -0.000286    -0.000504
H       2.88776791      1.37308602     -0.45140490      0.003006     0.001554     0.000085
23
Frame 43  Energy = -756.7025208674 Hartree
Al     -1.72486196      1.70532486     -0.11052626     -0.000140     0.000040     0.000073
O      -0.21146781      1.31990844     -1.03170840     -0.000260    -0.000408     0.000009
H      -0.08273737      0.42010381     -1.35699010     -0.001252    -0.000403    -0.001080
O      -2.18517148      3.38453294     -1.07411118      0.000211     0.000286     0.000000
H      -1.76516725      4.23975317     -0.92110609      0.000006     0.000108     0.000023
O      -2.94568733      0.77932156     -1.33488710      0.000153     0.000275    -0.000081
H      -2.66900774      0.42009582     -2.18858345      0.000816    -0.000186    -0.001042
O      -1.66777504      0.02464812      0.93174588     -0.000092     0.000051     0.000156
H      -0.98300451     -0.24871560      1.58673375      0.000663     0.000480    -0.000101
O      -3.14287064      2.21034083      1.02038729     -0.000445    -0.000221    -0.000069
H      -3.72641480      2.95508948      0.81907582     -0.000992    -0.000027    -0.001236
O      -0.65366656      2.68136615      1.26887226     -0.000401    -0.000085     0.000336
H      -1.03458790      3.20465014      1.98378803      0.000292     0.001229    -0.000077
H      -2.57645921      3.40773248     -1.96300416      0.000084    -0.000090     0.000180
H      -3.43285727      1.78419754      1.82646764      0.000149    -0.000043     0.001642
H      -3.91919530      0.70642840     -1.31772353     -0.000560    -0.000729    -0.000636
H      -2.22349786     -0.76231422      0.78850117     -0.000040    -0.000790    -0.000797
H       1.20304692      1.96696344     -0.87600139      0.003550     0.000368     0.000378
H       0.23724637      2.44988429      1.58025731     -0.000080     0.000156    -0.000188
N       2.42331551      2.21273107     -0.76287855      0.000692    -0.000028    -0.000261
H       2.81540994      2.43492684     -1.68186901      0.001701    -0.000234    -0.000271
H       2.66163345      2.94388944     -0.10295243      0.000074     0.000178    -0.000806
H       2.95384550      1.40038129     -0.44908666      0.002959     0.000931     0.000131
23
Frame 44  Energy = -756.6819057232 Hartree
Al     -1.72720271      1.70592333     -0.10939686     -0.000073     0.000014     0.000030
O      -0.21763825      1.31157408     -1.03078181     -0.000308    -0.000359     0.000076
H      -0.10865851      0.41427716     -1.37995202     -0.001134    -0.000075    -0.000991
O      -2.18054144      3.39022263     -1.07377104      0.000213     0.000236     0.000033
H      -1.76265144      4.24759071     -0.92124099      0.000214     0.000592    -0.000044
O      -2.94281265      0.78528627     -1.33687558      0.000107     0.000262    -0.000119
H      -2.64993205      0.41690436     -2.20888012      0.000839     0.000013    -0.000543
O      -1.66958263      0.02524688      0.93576319     -0.000083     0.000000     0.000206
H      -0.97700730     -0.23463241      1.57616493     -0.000071     0.000760    -0.000812
O      -3.15317355      2.20585804      1.01872340     -0.000511    -0.000191    -0.000066
H      -3.74998230      2.95329166      0.79463097     -0.001057    -0.000297    -0.000929
O      -0.66202855      2.67923838      1.27606444     -0.000368    -0.000105     0.000327
H      -1.03208025      3.23445074      1.98434845     -0.000013     0.001425     0.000044
H      -2.57382786      3.40596223     -1.95993262      0.000153    -0.000065     0.000082
H      -3.43257928      1.78099716      1.86517340     -0.000024    -0.000056     0.001548
H      -3.92483741      0.69171751     -1.32922857      0.000171    -0.000601    -0.000415
H      -2.22135386     -0.77442855      0.77120136      0.000335    -0.000205    -0.000742
H       1.32255154      1.97671197     -0.86474717      0.007256     0.000517     0.000630
H       0.23393055      2.45339036      1.57218666     -0.000223     0.000163    -0.000535
N       2.43607211      2.21098151     -0.76925495      0.000504    -0.000134    -0.000322
H       2.84918650      2.43463706     -1.68696925      0.001326     0.000195    -0.000162
H       2.66193676      2.95729852     -0.12061814     -0.000063     0.001050    -0.000800
H       3.01271243      1.41591378     -0.44630807      0.002315     0.000572     0.000100
23
Frame 45  Energy = -756.6839761568 Hartree
Al     -1.72799539      1.70590433     -0.10924737      0.000000    -0.000016    -0.000016
O      -0.22506032      1.30419606     -1.02841918     -0.000374    -0.000315     0.000141
H      -0.13251844      0.41743984     -1.39947981     -0.001048     0.000329    -0.000799
O      -2.17581941      3.39497996     -1.07262892      0.000220     0.000206     0.000072
H      -1.75753464      4.26215387     -0.92368725      0.000202     0.000632    -0.000196
O      -2.94094932      0.79054151     -1.34044633      0.000070     0.000219    -0.000206
H      -2.63464926      0.42330104     -2.20626153      0.000560     0.000564     0.000757
O      -1.67182676      0.02481199      0.94032330     -0.000131    -0.000029     0.000200
H      -0.98029982     -0.21892274      1.55722068     -0.000046     0.000591    -0.000748
O      -3.16538693      2.20190201      1.01801562     -0.000604    -0.000173     0.000005
H      -3.76980495      2.93844081      0.78061392     -0.000760    -0.001053    -0.000344
O      -0.66991707      2.67705084      1.28326003     -0.000359    -0.000090     0.000333
H      -1.03255719      3.26286748      1.98172412      0.000019     0.001102    -0.000348
H      -2.56975664      3.40508039     -1.95953886      0.000226    -0.000013    -0.000033
H      -3.43117565      1.78724153      1.88328896      0.000165     0.000661     0.000030
H      -3.91164806      0.68048130     -1.33573902      0.000914    -0.000435    -0.000180
H      -2.20788428     -0.77066137      0.75716160      0.000842     0.000456    -0.000545
H       1.49516247      1.98611012     -0.85083483      0.007330     0.000119     0.000540
H       0.22874744      2.45672132      1.55825336     -0.000207     0.000134    -0.000702
N       2.44760842      2.20738602     -0.77659591      0.000645    -0.000168    -0.000335
H       2.87122412      2.44250069     -1.68854693      0.000672     0.000497    -0.000004
H       2.65772068      2.98609823     -0.13924340     -0.000350     0.001450    -0.000962
H       3.05125012      1.42829857     -0.44540050      0.001189     0.000600    -0.000016
23
Frame 46  Energy = -756.7007505054 Hartree
Al     -1.72720023      1.70524249     -0.11010217      0.000071    -0.000044    -0.000061
O      -0.23414177      1.29789512     -1.02451181     -0.000457    -0.000258     0.000218
H      -0.15441456      0.42584367     -1.41608527     -0.000945     0.000361    -0.000754
O      -2.17080995      3.39947399     -1.07066354      0.000238     0.000208     0.000106
H      -1.75531512      4.27193377     -0.93019944     -0.000008     0.000236    -0.000394
O      -2.93937864      0.79515818     -1.34548506      0.000081     0.000213    -0.000237
H      -2.62302821      0.43862926     -2.18291517      0.000596     0.000719     0.001095
O      -1.67542059      0.02458717      0.94432347     -0.000192     0.000021     0.000167
H      -0.97339870     -0.21120106      1.54847904      0.000696     0.000101    -0.000035
O      -3.17938976      2.19814670      1.01868264     -0.000665    -0.000172     0.000041
H      -3.78631304      2.91089383      0.77838530     -0.000867    -0.001317     0.000082
O      -0.67798758      2.67533288      1.29064283     -0.000380    -0.000070     0.000338
H      -1.03037519      3.28189496      1.96879417      0.000169     0.000674    -0.000779
H      -2.56348695      3.40536091     -1.96040450      0.000355     0.000036    -0.000022
H      -3.42686654      1.80757115      1.87086979      0.000153     0.001057    -0.000889
H      -3.89285034      0.67169900     -1.33713919      0.000603    -0.000396     0.000048
H      -2.18874670     -0.76142363      0.74618785      0.000790     0.000198    -0.000497
H       1.57665118      1.96687719     -0.84646385     -0.000789    -0.002112    -0.000215
H       0.22640364      2.45921176      1.54269798      0.000004     0.000101    -0.000700
N       2.46930178      2.20525778     -0.78337275      0.001396     0.000002    -0.000278
H       2.87919010      2.45544866     -1.68930437      0.000100     0.000667    -0.000144
H       2.64599505      3.01560624     -0.16482360     -0.000714     0.001166    -0.001384
H       3.06719008      1.44193825     -0.44599276      0.000401     0.000590     0.000009
23
Frame 47  Energy = -756.6717817239 Hartree
Al     -1.72500568      1.70402890     -0.11179736      0.000126    -0.000065    -0.000092
O      -0.24487832      1.29304795     -1.01891335     -0.000518    -0.000186     0.000291
H      -0.17331846      0.43092733     -1.43339467     -0.000777     0.000100    -0.000831
O      -2.16549246      3.40394978     -1.06808145      0.000246     0.000197     0.000127
H      -1.75702926      4.27379225     -0.93999351     -0.000103     0.000016    -0.000470
O      -2.93735086      0.80021886     -1.35005965      0.000102     0.000254    -0.000171
H      -2.60506727      0.44961005     -2.17024661      0.001074     0.000219    -0.000086
O      -1.67973539      0.02601053      0.94793488     -0.000191     0.000105     0.000172
H      -0.95449907     -0.21336087      1.55191685      0.000844    -0.000242     0.000196
O      -3.19379723      2.19444957      1.01900116     -0.000643    -0.000163    -0.000029
H      -3.81237176      2.88724686      0.78150818     -0.001574    -0.000760     0.000156
O      -0.68637942      2.67372426      1.29769215     -0.000382    -0.000085     0.000299
H      -1.02668824      3.29543804      1.95187029      0.000126     0.000656    -0.000661
H      -2.55420431      3.40638787     -1.95983339      0.000486     0.000049     0.000076
H      -3.42829513      1.82590285      1.85940133     -0.000347     0.000475     0.000133
H      -3.89022232      0.66232050     -1.33401750     -0.000334    -0.000467     0.000219
H      -2.17652184     -0.76725319      0.73446886      0.000336    -0.000727    -0.000569
H       1.49526977      1.90318627     -0.85826552     -0.004933    -0.003218    -0.000757
H       0.22809708      2.46184031      1.52833105      0.000105     0.000164    -0.000608
N       2.50520184      2.20721215     -0.78892723      0.001741     0.000146    -0.000244
H       2.87810136      2.47064468     -1.69852731     -0.000138     0.000692    -0.000758
H       2.62795421      3.03589825     -0.19765297     -0.000886     0.000724    -0.001530
H       3.07600859      1.45022255     -0.44241609      0.000572     0.000087     0.000371
23
Frame 48  Energy = -756.6961684114 Hartree
Al     -1.72189681      1.70246328     -0.11394720      0.000152    -0.000075    -0.000100
O      -0.25637635      1.28962816     -1.01200102     -0.000517    -0.000131     0.000330
H      -0.18826540      0.43219225     -1.45133830     -0.000584     0.000092    -0.000759
O      -2.16019098      3.40783055     -1.06516957      0.000235     0.000153     0.000136
H      -1.75768001      4.27646204     -0.94929993      0.000080     0.000288    -0.000348
O      -2.93515498      0.80616287     -1.35305965      0.000094     0.000278    -0.000116
H      -2.57896656      0.44920878     -2.18387513      0.001154    -0.000154    -0.000908
O      -1.68352370      0.02869730      0.95208820     -0.000155     0.000124     0.000207
H      -0.94359575     -0.21942639      1.55139125      0.000058    -0.000270    -0.000313
O      -3.20749656      2.19114608      1.01728913     -0.000612    -0.000137    -0.000115
H      -3.85351909      2.87685133      0.78471755     -0.002046    -0.000300     0.000158
O      -0.69444365      2.67138773      1.30348352     -0.000350    -0.000129     0.000227
H      -1.02595133      3.31300174      1.94278043     -0.000053     0.000938    -0.000167
H      -2.54289553      3.40706478     -1.95763269      0.000524     0.000002     0.000103
H      -3.44177118      1.82697497      1.87865553     -0.000798    -0.000286     0.001388
H      -3.90096207      0.65177141     -1.32873548     -0.000431    -0.000470     0.000231
H      -2.17060723     -0.78755902      0.72287680      0.000317    -0.000915    -0.000434
H       1.41200804      1.84232997     -0.87611274     -0.002081    -0.002114    -0.000816
H       0.22895577      2.46735879      1.51632318     -0.000060     0.000354    -0.000480
N       2.54086115      2.21043323     -0.79463043      0.001450     0.000125    -0.000286
H       2.87506268      2.48365006     -1.72189201     -0.000113     0.000430    -0.001279
H       2.60944199      3.04966968     -0.22751823     -0.000753     0.000585    -0.001105
H       3.09628535      1.44561544     -0.42937770      0.001278    -0.000409     0.000770
23
Frame 49  Energy = -756.7118407213 Hartree
Al     -1.71852589      1.70080295     -0.11607782      0.000153    -0.000075    -0.000092
O      -0.26727302      1.28703317     -1.00464336     -0.000473    -0.000110     0.000338
H      -0.19917786      0.43778483     -1.46520183     -0.000418     0.000450    -0.000487
O      -2.15511377      3.41068625     -1.06207965      0.000231     0.000113     0.000146
H      -1.75332450      4.28634906     -0.95466876      0.000292     0.000550    -0.000140
O      -2.93324184      0.81211362     -1.35582906      0.000083     0.000260    -0.000149
H      -2.56061083      0.44759559     -2.19882391      0.000415     0.000090    -0.000262
O      -1.68681694      0.03096702      0.95687646     -0.000155     0.000079     0.000225
H      -0.95103607     -0.22473408      1.53891238     -0.000615    -0.000228    -0.000731
O      -3.22134273      2.18840684      1.01476409     -0.000665    -0.000116    -0.000098
H      -3.89614281      2.86814044      0.78979343     -0.001723    -0.000609     0.000328
O      -0.70184218      2.66819213      1.30780909     -0.000331    -0.000157     0.000174
H      -1.02764132      3.33401807      1.94179692     -0.000057     0.000882    -0.000021
H      -2.53182869      3.40613395     -1.95611585      0.000479    -0.000092     0.000026
H      -3.45889783      1.81936030      1.90565183     -0.000670    -0.000281     0.000756
H      -3.90219126      0.64246665     -1.32489416      0.000389    -0.000371     0.000105
H      -2.15903485     -0.80024427      0.71698313      0.000765    -0.000155    -0.000095
H       1.41280727      1.81413729     -0.89266849      0.002209    -0.000424    -0.000665
H       0.22533956      2.47762914      1.50749066     -0.000245     0.000577    -0.000319
N       2.56826395      2.21200417     -0.80184797      0.001053     0.000009    -0.000376
H       2.87382263      2.48710747     -1.74955809      0.000015    -0.000156    -0.001125
H       2.59621142      3.06247000     -0.24479053     -0.000434     0.000558    -0.000488
H       3.12969744      1.43914912     -0.41206487      0.001684    -0.000005     0.000713
23
Frame 50  Energy = -756.6965798851 Hartree
Al     -1.71537659      1.69923978     -0.11788379      0.000133    -0.000067    -0.000072
O      -0.27685278      1.28484880     -0.99740258     -0.000401    -0.000087     0.000324
H      -0.20650247      0.45090591     -1.47281749     -0.000248     0.000683    -0.000242
O      -2.15003659      3.41300035     -1.05881859      0.000234     0.000104     0.000151
H      -1.74677673      4.29640220     -0.95567623      0.000264     0.000280     0.000039
O      -2.93135325      0.81741426     -1.35968437      0.000094     0.000228    -0.000197
H      -2.56205710      0.45410310     -2.19303363     -0.000491     0.000463     0.000690
O      -1.69064661      0.03225500      0.96157687     -0.000198     0.000048     0.000200
H      -0.96278943     -0.23046248      1.52542814     -0.000286    -0.000318    -0.000371
O      -3.23667835      2.18602239      1.01346156     -0.000731    -0.000104    -0.000021
H      -3.92600889      2.84865863      0.79882694     -0.001025    -0.001125     0.000463
O      -0.70906248      2.66484285      1.31128377     -0.000331    -0.000145     0.000146
H      -1.02713968      3.34775603      1.93840180      0.000106     0.000330    -0.000329
H      -2.52209407      3.40302206     -1.95625963      0.000417    -0.000189    -0.000020
H      -3.46866664      1.81738222      1.90449584     -0.000216     0.000085    -0.000840
H      -3.88600034      0.63538545     -1.32423207      0.000940    -0.000296    -0.000032
H      -2.13935929     -0.79534384      0.71758164      0.000924     0.000473     0.000091
H       1.50692795      1.82382006     -0.90380974      0.006238     0.001254    -0.000330
H       0.22001091      2.49179074      1.50266361     -0.000203     0.000694    -0.000120
N       2.58699345      2.21069661     -0.81089036      0.000669    -0.000123    -0.000443
H       2.87676255      2.47640163     -1.76746903      0.000290    -0.000799    -0.000492
H       2.59114737      3.07138945     -0.25117028     -0.000020     0.000186    -0.000173
H       3.16625955      1.45053551     -0.40167080      0.001610     0.001083     0.000193
23
Frame 51  Energy = -756.6852871170 Hartree
Al     -1.71271957      1.69788677     -0.11923398      0.000109    -0.000057    -0.000051
O      -0.28504545      1.28336158     -0.99030386     -0.000348    -0.000045     0.000326
H      -0.20988641      0.46447492     -1.47778774     -0.000054     0.000487    -0.000252
O      -2.14477874      3.41535591     -1.05548231      0.000244     0.000110     0.000153
H      -1.74253989      4.29710021     -0.95321766      0.000128    -0.000196     0.000183
O      -2.92892983      0.82247237     -1.36400167      0.000127     0.000242    -0.000181
H      -2.57701658      0.46404671     -2.17781876     -0.000719     0.000327     0.000418
O      -1.69544827      0.03354903      0.96577368     -0.000231     0.000078     0.000190
H      -0.96049369     -0.23853015      1.52481162      0.000445    -0.000377     0.000272
O      -3.25315827      2.18372589      1.01341896     -0.000758    -0.000106    -0.000001
H      -3.94539692      2.82313802      0.80796205     -0.000879    -0.001061     0.000309
O      -0.71643331      2.66180791      1.31424737     -0.000338    -0.000135     0.000122
H      -1.02421960      3.34945498      1.92804413      0.000104    -0.000098    -0.000550
H      -2.51301250      3.39805254     -1.95598167      0.000422    -0.000257     0.000066
H      -3.47022621      1.81922591      1.87724720     -0.000002    -0.000064    -0.001308
H      -3.86877368      0.62830431     -1.32536801      0.000465    -0.000372    -0.000044
H      -2.12363967     -0.78700042      0.71792602      0.000404     0.000125    -0.000122
H       1.66763343      1.86136151     -0.90751069      0.007400     0.001767    -0.000065
H       0.21711726      2.50737875      1.50184862     -0.000071     0.000711     0.000031
N       2.59926695      2.20731444     -0.82101750      0.000521    -0.000153    -0.000470
H       2.88875784      2.45417672     -1.77317711      0.000861    -0.001153    -0.000120
H       2.59556374      3.06900059     -0.25555034      0.000426    -0.000398    -0.000281
H       3.20106317      1.48479408     -0.40337656      0.001620     0.001923    -0.000304
23
Frame 52  Energy = -756.7156689254 Hartree
Al     -1.71066621      1.69677387     -0.12009636      0.000077    -0.000045    -0.000027
O      -0.29209292      1.28291863     -0.98311154     -0.000293     0.000002     0.000328
H      -0.20874996      0.47129931     -1.48450501      0.000154     0.000166    -0.000343
O      -2.13941517      3.41759464     -1.05214885      0.000243     0.000088     0.000152
H      -1.73992993      4.29089034     -0.94749192      0.000152    -0.000270     0.000344
O      -2.92598426      0.82827052     -1.36714976      0.000135     0.000285    -0.000107
H      -2.58867472      0.46501130     -2.18304511     -0.000313    -0.000242    -0.000913
O      -1.70031684      0.03564313      0.97026226     -0.000207     0.000105     0.000227
H      -0.94921064     -0.24440269      1.53278944      0.000414    -0.000099     0.000328
O      -3.26938006      2.18144700      1.01264169     -0.000716    -0.000101    -0.000081
H      -3.96937287      2.80683828      0.81048754     -0.001352    -0.000391    -0.000087
O      -0.72369342      2.65868414      1.31649838     -0.000319    -0.000154     0.000081
H      -1.02535726      3.34764571      1.91787612     -0.000264     0.000020    -0.000306
H      -2.50339918      3.39214385     -1.95307309      0.000454    -0.000272     0.000190
H      -3.47206059      1.80853835      1.86111091     -0.000213    -0.000986     0.000015
H      -3.86810990      0.61902369     -1.32517721     -0.000333    -0.000450     0.000076
H      -2.12312874     -0.79219933      0.71128685     -0.000309    -0.000517    -0.000456
H       1.76422472      1.87448828     -0.91154847      0.000072    -0.001127    -0.000408
H       0.21564578      2.52242015      1.50317626     -0.000099     0.000652     0.000071
N       2.61446938      2.20594742     -0.83102087      0.000960     0.000067    -0.000437
H       2.91650525      2.42926772     -1.77697674      0.001687    -0.001049    -0.000308
H       2.60965190      3.05652657     -0.26447651      0.000843    -0.000626    -0.000522
H       3.24063695      1.52825478     -0.41202622      0.002069     0.001882    -0.000405
23
Frame 53  Energy = -756.6839083156 Hartree
Al     -1.70945897      1.69596538     -0.12034310      0.000030    -0.000028     0.000006
O      -0.29763358      1.28324074     -0.97617920     -0.000205     0.000021     0.000298
H      -0.20371136      0.47435297     -1.49109991      0.000286     0.000181    -0.000212
O      -2.13424395      3.41895148     -1.04878734      0.000228     0.000033     0.000156
H      -1.73453446      4.28873088     -0.93814891      0.000347     0.000102     0.000499
O      -2.92331274      0.83459757     -1.36915940      0.000103     0.000279    -0.000095
H      -2.59309607      0.45703569     -2.21013352     -0.000195    -0.000351    -0.001263
O      -1.70443916      0.03759231      0.97573558     -0.000174     0.000062     0.000268
H      -0.94745790     -0.24153421      1.53545614     -0.000282     0.000353    -0.000103
O      -3.28453776      2.17931168      1.01000953     -0.000673    -0.000096    -0.000143
H      -4.00218164      2.80367714      0.80550498     -0.001510    -0.000023    -0.000303
O      -0.73027366      2.65502604      1.31776807     -0.000281    -0.000175     0.000038
H      -1.03679789      3.35144040      1.91552453     -0.000762     0.000278     0.000049
H      -2.49347560      3.38666410     -1.94864312      0.000440    -0.000214     0.000184
H      -3.47931979      1.77838551      1.87407032     -0.000400    -0.001596     0.000851
H      -3.87664753      0.61049921     -1.32180934     -0.000265    -0.000279     0.000228
H      -2.13286290     -0.80237934      0.70070681     -0.000464    -0.000225    -0.000433
H       1.68885139      1.81780808     -0.92348658     -0.005169    -0.003335    -0.000531
H       0.21185655      2.53555419      1.50436834     -0.000247     0.000539     0.000032
N       2.63998275      2.20963546     -0.84043582      0.001245     0.000211    -0.000437
H       2.96108386      2.41045697     -1.78801396      0.002291    -0.000644    -0.000667
H       2.63119081      3.04767880     -0.27674064      0.001080    -0.000051    -0.000553
H       3.29284496      1.56171360     -0.41844982      0.002645     0.001114    -0.000156
23
Frame 54  Energy = -756.7097152507 Hartree
Al     -1.70946075      1.69558424     -0.11975685     -0.000032    -0.000006     0.000049
O      -0.30082982      1.28368906     -0.97020641     -0.000079     0.000018     0.000243
H      -0.19692777      0.48084457     -1.49275196      0.000318     0.000403     0.000059
O      -2.12930162      3.41911577     -1.04518854      0.000224    -0.000013     0.000173
H      -1.72557996      4.29383303     -0.92626675      0.000422     0.000275     0.000558
O      -2.92152562      0.84015285     -1.37196903      0.000060     0.000221    -0.000169
H      -2.60097972      0.45436116     -2.22813319     -0.000560     0.000168    -0.000246
O      -1.70834373      0.03817983      0.98174991     -0.000191    -0.000004     0.000270
H      -0.95882124     -0.23071297      1.53052053     -0.000607     0.000561    -0.000237
O      -3.29941155      2.17703875      1.00707805     -0.000685    -0.000114    -0.000112
H      -4.03043372      2.80046734      0.79991176     -0.000974    -0.000354    -0.000157
O      -0.73622319      2.65123691      1.31839984     -0.000266    -0.000163     0.000024
H      -1.05709912      3.35595265      1.91670405     -0.001030     0.000030    -0.000027
H      -2.48426477      3.38335036     -1.94592164      0.000398    -0.000074     0.000057
H      -3.48767499      1.74598390      1.88421571     -0.000334    -0.001208    -0.000169
H      -3.87479503      0.60817079     -1.31520658      0.000453     0.000077     0.000373
H      -2.14029846     -0.79738266      0.69448782     -0.000192     0.000680    -0.000114
H       1.59639771      1.75307081     -0.93061871     -0.002497    -0.002202    -0.000084
H       0.20565612      2.54603051      1.50467654     -0.000285     0.000414     0.000003
N       2.66561668      2.21316557     -0.85072391      0.001051     0.000082    -0.000500
H       3.01298331      2.40089093     -1.80304659      0.002319    -0.000242    -0.000600
H       2.65561444      3.05665111     -0.28853103      0.001111     0.000822    -0.000561
H       3.35221104      1.57871547     -0.41995000      0.002587     0.000532    -0.000041
23
Frame 55  Energy = -756.7180364778 Hartree
Al     -1.71092642      1.69575791     -0.11817184     -0.000103     0.000022     0.000097
O      -0.30094278      1.28410113     -0.96549559      0.000069     0.000024     0.000194
H      -0.18994870      0.49008327     -1.48977694      0.000328     0.000382     0.000170
O      -2.12432575      3.41857209     -1.04118687      0.000236    -0.000033     0.000196
H      -1.71795271      4.29691712     -0.91468528      0.000251    -0.000052     0.000495
O      -2.92051369      0.84435612     -1.37651515      0.000038     0.000173    -0.000240
H      -2.61673222      0.46402983     -2.22192963     -0.000815     0.000648     0.000644
O      -1.71312760      0.03790632      0.98731109     -0.000251    -0.000006     0.000241
H      -0.96764513     -0.21995610      1.52994720     -0.000108     0.000380     0.000259
O      -3.31451675      2.17417893      1.00524102     -0.000701    -0.000151    -0.000064
H      -4.04449973      2.78747629      0.79944234     -0.000394    -0.000788     0.000102
O      -0.74210961      2.64806710      1.31894878     -0.000280    -0.000129     0.000026
H      -1.08013658      3.34996822      1.91224234     -0.001076    -0.000588    -0.000384
H      -2.47569842      3.38394977     -1.94565034      0.000405     0.000137    -0.000005
H      -3.49421685      1.72784537      1.86369964     -0.000308    -0.000507    -0.001607
H      -3.86013936      0.61326194     -1.30518924      0.000743     0.000358     0.000563
H      -2.14286275     -0.77710593      0.69491657     -0.000126     0.000999     0.000103
H       1.59296527      1.72861091     -0.92740275      0.002260     0.000003     0.000353
H       0.20043485      2.55381113      1.50483847     -0.000190     0.000310     0.000018
N       2.68578230      2.21280291     -0.86210782      0.000818    -0.000112    -0.000542
H       3.05876569      2.39899713     -1.81102225      0.001838     0.000046    -0.000107
H       2.67908776      3.07856391     -0.30463199      0.001042     0.001042    -0.001011
H       3.39944415      1.58958327     -0.42289704      0.001653     0.000550    -0.000272
23
Frame 56  Energy = -756.6963090098 Hartree
Al     -1.71388460      1.69651496     -0.11555348     -0.000163     0.000046     0.000138
O      -0.29791512      1.28487801     -0.96159947      0.000199     0.000049     0.000163
H      -0.18237864      0.49509029     -1.48696839      0.000363     0.000052     0.000070
O      -2.11904377      3.41769489     -1.03672605      0.000241    -0.000049     0.000207
H      -1.71484144      4.29130882     -0.90486130      0.000057    -0.000405     0.000407
O      -2.91974093      0.84812616     -1.38171988      0.000033     0.000178    -0.000215
H      -2.63188803      0.47756816     -2.21135182     -0.000461     0.000460     0.000048
O      -1.71905440      0.03850093      0.99239521     -0.000276     0.000067     0.000228
H      -0.96407148     -0.21477151      1.54150095      0.000310     0.000112     0.000700
O      -3.32944629      2.17050802      1.00364639     -0.000640    -0.000178    -0.000099
H      -4.05292907      2.77068705      0.80286550     -0.000511    -0.000613     0.000163
O      -0.74838262      2.64544947      1.31942547     -0.000286    -0.000114     0.000012
H      -1.10424541      3.33257149      1.90223480     -0.001138    -0.000892    -0.000433
H      -2.46610314      3.38942178     -1.94490685      0.000472     0.000353     0.000094
H      -3.50376145      1.71835428      1.82565979     -0.000629    -0.000541    -0.001492
H      -3.84959984      0.62205081     -1.29028814      0.000100     0.000407     0.000788
H      -2.14941309     -0.76242172      0.69662598     -0.000516     0.000202     0.000019
H       1.69243640      1.75234456     -0.91698864      0.006473     0.002010     0.000536
H       0.19671135      2.55990914      1.50560484     -0.000180     0.000254     0.000052
N       2.70179631      2.20876875     -0.87393863      0.000657    -0.000234    -0.000524
H       3.09136417      2.40198207     -1.80903342      0.001115     0.000202     0.000199
H       2.70049878      3.09619844     -0.33496777      0.000891     0.000480    -0.001744
H       3.42218261      1.60366457     -0.43189558      0.000450     0.000692    -0.000505
23
Frame 57  Energy = -756.7014636562 Hartree
Al     -1.71788069      1.69767266     -0.11226770     -0.000200     0.000059     0.000161
O      -0.29252539      1.28623564     -0.95831882      0.000289     0.000073     0.000138
H      -0.17412972      0.49341337     -1.48606003      0.000388    -0.000146     0.000054
O      -2.11396295      3.41628650     -1.03223196      0.000223    -0.000084     0.000205
H      -1.71371880      4.28288502     -0.89613622      0.000090    -0.000281     0.000417
O      -2.91919185      0.85229170     -1.38549578      0.000013     0.000200    -0.000135
H      -2.63538137      0.48177435     -2.22460977      0.000088    -0.000034    -0.001159
O      -1.72481316      0.04070820      0.99749505     -0.000250     0.000124     0.000242
H      -0.96074095     -0.21362136      1.55552428     -0.000134     0.000024     0.000487
O      -3.34201198      2.16660103      1.00035532     -0.000513    -0.000179    -0.000203
H      -4.07019730      2.76390570      0.80522075     -0.001060    -0.000014     0.000049
O      -0.75446608      2.64284619      1.31926686     -0.000271    -0.000128    -0.000029
H      -1.13079905      3.31509900      1.89709953     -0.001305    -0.000658     0.000014
H      -2.45520565      3.39879141     -1.94140384      0.000516     0.000489     0.000211
H      -3.52367656      1.69841466      1.80922247     -0.001197    -0.001304     0.000003
H      -3.85572272      0.63061645     -1.27171702     -0.000542     0.000392     0.000873
H      -2.16423740     -0.76792305      0.69641702     -0.000748    -0.000561     0.000023
H       1.84339477      1.80127779     -0.90702244      0.006025     0.001853     0.000301
H       0.19135293      2.56525425      1.50715416     -0.000325     0.000244     0.000093
N       2.71640139      2.20396787     -0.88478102      0.000767    -0.000158    -0.000470
H       3.10811596      2.40683058     -1.80717058      0.000461     0.000216    -0.000141
H       2.71761838      3.09953594     -0.37836539      0.000678    -0.000091    -0.002133
H       3.42380348      1.61641540     -0.44187142     -0.000133     0.000381    -0.000323
23
Frame 58  Energy = -756.7116438848 Hartree
Al     -1.72260389      1.69903234     -0.10856250     -0.000227     0.000064     0.000174
O      -0.28535975      1.28800299     -0.95548334      0.000360     0.000086     0.000120
H      -0.16559878      0.49121341     -1.48282482      0.000380    -0.000015     0.000267
O      -2.10924849      3.41395152     -1.02767162      0.000207    -0.000126     0.000212
H      -1.70976756      4.28085311     -0.88563819      0.000268     0.000084     0.000548
O      -2.91933293      0.85663447     -1.38817810     -0.000028     0.000186    -0.000124
H      -2.63259042      0.48042293     -2.25188388      0.000046     0.000029    -0.001033
O      -1.73027428      0.04344149      1.00298065     -0.000255     0.000114     0.000252
H      -0.97206648     -0.21317697      1.56130320     -0.000853     0.000008     0.000065
O      -3.35251597      2.16252009      0.99522369     -0.000457    -0.000198    -0.000244
H      -4.09543763      2.76674000      0.80590432     -0.001088     0.000155     0.000045
O      -0.76044450      2.63986702      1.31816962     -0.000279    -0.000139    -0.000067
H      -1.16070487      3.30299085      1.90265911     -0.001358    -0.000514     0.000436
H      -2.44396793      3.41021857     -1.93682470      0.000490     0.000533     0.000175
H      -3.55430530      1.66588588      1.81666588     -0.001504    -0.001458     0.000339
H      -3.86649458      0.64033595     -1.25404149     -0.000284     0.000511     0.000682
H      -2.17766684     -0.77905384      0.70068514     -0.000383    -0.000283     0.000422
H       1.89585669      1.80532704     -0.90606475     -0.001765    -0.001710    -0.000227
H       0.18277327      2.57092564      1.51002660     -0.000426     0.000275     0.000178
N       2.73949061      2.20376132     -0.89489610      0.001357     0.000150    -0.000459
H       3.11368845      2.41012765     -1.81881595      0.000093     0.000046    -0.000963
H       2.73059440      3.09807302     -0.42354861      0.000508     0.000122    -0.001841
H       3.42371343      1.61701752     -0.44295710      0.000266    -0.000367     0.000269
23
Frame 59  Energy = -756.6909321665 Hartree
Al     -1.72773352      1.70042033     -0.10470015     -0.000242     0.000063     0.000179
O      -0.27687245      1.29002472     -0.95298640      0.000417     0.000102     0.000112
H      -0.15780912      0.49262510     -1.47439608      0.000332     0.000104     0.000479
O      -2.10480258      3.41100624     -1.02292153      0.000203    -0.000138     0.000225
H      -1.70304075      4.28384350     -0.87221141      0.000311     0.000100     0.000676
O      -2.92037150      0.86024066     -1.39129624     -0.000064     0.000145    -0.000164
H      -2.63682153      0.48621155     -2.26181186     -0.000459     0.000515     0.000165
O      -1.73636187      0.04556405      1.00824023     -0.000310     0.000085     0.000226
H      -0.99317293     -0.21421193      1.56188467     -0.000931    -0.000130     0.000099
O      -3.36255759      2.15777334      0.99033896     -0.000472    -0.000241    -0.000195
H      -4.11251023      2.76664420      0.80811275     -0.000412    -0.000208     0.000159
O      -0.76696149      2.63701490      1.31651662     -0.000324    -0.000118    -0.000080
H      -1.18744492      3.28896334      1.91309403     -0.001042    -0.000842     0.000460
H      -2.43420396      3.42155283     -1.93444405      0.000405     0.000496     0.000047
H      -3.58614414      1.64163965      1.81239860     -0.001363    -0.000682    -0.000867
H      -3.86509171      0.65312057     -1.24346087      0.000386     0.000646     0.000274
H      -2.17983123     -0.77718671      0.71549514      0.000142     0.000415     0.000903
H       1.81075302      1.74854660     -0.91599490     -0.004470    -0.002719    -0.000645
H       0.17410645      2.57737535      1.51532999     -0.000347     0.000317     0.000312
N       2.77227417      2.20861573     -0.90523788      0.001537     0.000234    -0.000494
H       3.11387488      2.40710371     -1.84869272     -0.000049    -0.000366    -0.001695
H       2.74020559      3.10969897     -0.45472792      0.000385     0.000953    -0.000991
H       3.43755748      1.60170608     -0.43085490      0.000952    -0.000925     0.000755
23
Frame 60  Energy = -756.7150033610 Hartree
Al     -1.73304241      1.70175494     -0.10084645     -0.000239     0.000058     0.000171
O      -0.26728269      1.29257014     -0.95045782      0.000454     0.000133     0.000121
H      -0.15122188      0.49331218     -1.46361708      0.000268    -0.000089     0.000471
O      -2.10034120      3.40820449     -1.01794980      0.000203    -0.000115     0.000226
H      -1.69759897      4.28208116     -0.85664097      0.000172    -0.000292     0.000738
O      -2.92186879      0.86315803     -1.39500186     -0.000067     0.000130    -0.000160
H      -2.65102153      0.50056597     -2.24964916     -0.000749     0.000687     0.000696
O      -1.74380077      0.04751053      1.01273229     -0.000361     0.000103     0.000187
H      -1.00758923     -0.21917498      1.56920364     -0.000350    -0.000301     0.000590
O      -3.37306735      2.15206775      0.98671941     -0.000478    -0.000276    -0.000144
H      -4.11396278      2.75879980      0.81187299      0.000191    -0.000417     0.000140
O      -0.77456915      2.63479813      1.31477914     -0.000366    -0.000085    -0.000078
H      -1.20518279      3.26554178      1.92168900     -0.000595    -0.001259     0.000348
H      -2.42607707      3.43148001     -1.93374303      0.000347     0.000402     0.000052
H      -3.61293442      1.63519530      1.78050015     -0.001106    -0.000035    -0.001842
H      -3.85462372      0.66710427     -1.24176674      0.000401     0.000591    -0.000093
H      -2.17575473     -0.76676563      0.73694529      0.000101     0.000348     0.000962
H       1.74522680      1.70917347     -0.93235633     -0.001027    -0.000627    -0.000805
H       0.16756195      2.58459730      1.52333344     -0.000276     0.000336     0.000401
N       2.80331705      2.21234503     -0.91636761      0.001260     0.000093    -0.000515
H       3.11224171      2.39285929     -1.88663688     -0.000085    -0.000947    -0.001603
H       2.74826411      3.13434765     -0.46880137      0.000383     0.001085    -0.000402
H       3.46021356      1.58358263     -0.41560993      0.000985    -0.000565     0.000498
23
Frame 61  Energy = -756.7166643502 Hartree
Al     -1.73815101      1.70292958     -0.09725068     -0.000225     0.000048     0.000156
O      -0.25706498      1.29588429     -0.94757341      0.000476     0.000169     0.000143
H      -0.14607382      0.48832648     -1.45399072      0.000200    -0.000333     0.000430
O      -2.09594459      3.40592289     -1.01306686      0.000197    -0.000097     0.000219
H      -1.69503391      4.27200924     -0.83969310      0.000093    -0.000561     0.000822
O      -2.92319155      0.86631406     -1.39764659     -0.000055     0.000164    -0.000072
H      -2.66552685      0.51157659     -2.24275744     -0.000504     0.000244    -0.000255
O      -1.75178582      0.05031745      1.01675766     -0.000359     0.000151     0.000188
H      -1.01122316     -0.22525790      1.58560712     -0.000110    -0.000189     0.000808
O      -3.38307661      2.14585312      0.98338690     -0.000426    -0.000286    -0.000176
H      -4.10926674      2.75331939      0.81217458      0.000128     0.000023    -0.000154
O      -0.78280341      2.63313776      1.31302179     -0.000380    -0.000071    -0.000085
H      -1.21579829      3.23664131      1.93089215     -0.000444    -0.001302     0.000568
H      -2.41848835      3.43906311     -1.93088951      0.000352     0.000289     0.000222
H      -3.63732067      1.63181456      1.74364049     -0.001195    -0.000471    -0.001247
H      -3.85334664      0.67792135     -1.24630635     -0.000341     0.000391    -0.000302
H      -2.17949237     -0.76771153      0.75492514     -0.000471    -0.000457     0.000659
H       1.77230110      1.72387302     -0.94973554      0.003458     0.001919    -0.000749
H       0.16042490      2.59175171      1.53200766     -0.000409     0.000307     0.000368
N       2.82715300      2.21275270     -0.92770474      0.000919    -0.000047    -0.000519
H       3.11113779      2.36593671     -1.91395403      0.000021    -0.001479    -0.000836
H       2.75871329      3.14905020     -0.47740777      0.000609     0.000134    -0.000480
H       3.47739458      1.58123851     -0.41291096      0.000568     0.000375    -0.000284
23
Frame 62  Energy = -756.6927252616 Hartree
Al     -1.74279733      1.70380656     -0.09409182     -0.000198     0.000030     0.000131
O      -0.24664122      1.29986407     -0.94419204      0.000472     0.000193     0.000167
H      -0.14254793      0.48118918     -1.44319010      0.000125    -0.000258     0.000596
O      -2.09182512      3.40375307     -1.00836864      0.000179    -0.000105     0.000213
H      -1.69203183      4.26099062     -0.82018174      0.000209    -0.000381     0.000970
O      -2.92444519      0.87028573     -1.39816434     -0.000066     0.000192     0.000012
H      -2.67254389      0.51150181     -2.26054780     -0.000185    -0.000163    -0.001171
O      -1.75935081      0.05368319      1.02118563     -0.000335     0.000143     0.000217
H      -1.01747611     -0.22504913      1.60043120     -0.000534     0.000239     0.000486
O      -3.39156345      2.13968904      0.97875180     -0.000355    -0.000279    -0.000243
H      -4.11014881      2.76159699      0.80450269     -0.000165     0.000694    -0.000531
O      -0.79107130      2.63161898      1.31101685     -0.000376    -0.000067    -0.000097
H      -1.22690329      3.21077115      1.94865714     -0.000593    -0.001060     0.001058
H      -2.41071687      3.44414231     -1.92442783      0.000352     0.000180     0.000340
H      -3.66675738      1.61078510      1.73101597     -0.001470    -0.001388    -0.000007
H      -3.86727580      0.68488602     -1.25492040     -0.000793     0.000279    -0.000497
H      -2.19432196     -0.78219991      0.76682981     -0.000785    -0.000672     0.000484
H       1.88581219      1.78605731     -0.96386184      0.006320     0.003431    -0.000521
H       0.14927911      2.59743589      1.53862984     -0.000591     0.000199     0.000225
N       2.84403761      2.21081164     -0.93908533      0.000658    -0.000110    -0.000525
H       3.11542486      2.33042076     -1.92402281      0.000437    -0.001700    -0.000173
H       2.77622512      3.13962668     -0.49194842      0.001016    -0.000892    -0.000849
H       3.48719828      1.59765139     -0.42668726      0.000435     0.001003    -0.000887
23
Frame 63  Energy = -756.7215102089 Hartree
Al     -1.74667950      1.70420026     -0.09160923     -0.000156     0.000005     0.000095
O      -0.23675219      1.30422660     -0.94027954      0.000427     0.000207     0.000193
H      -0.14033742      0.47846019     -1.42729420      0.000089     0.000001     0.000850
O      -2.08814902      3.40131997     -1.00369156      0.000159    -0.000115     0.000218
H      -1.68574930      4.25623041     -0.79783269      0.000344    -0.000087     0.001051
O      -2.92628379      0.87424999     -1.39784412     -0.000106     0.000162     0.000002
H      -2.67640558      0.50941138     -2.28207715     -0.000221     0.000073    -0.000559
O      -1.76662441      0.05604004      1.02607576     -0.000339     0.000068     0.000224
H      -1.03412564     -0.21501237      1.60675209     -0.000907     0.000645     0.000150
O      -3.39901860      2.13351679      0.97334501     -0.000339    -0.000290    -0.000237
H      -4.11218398      2.77906247      0.79093036      0.000094     0.000776    -0.000657
O      -0.79931412      2.63039223      1.30901866     -0.000383    -0.000040    -0.000079
H      -1.24084118      3.18865193      1.97461055     -0.000638    -0.001032     0.001225
H      -2.40354750      3.44719665     -1.91769768      0.000298     0.000110     0.000243
H      -3.69806836      1.57910306      1.73287813     -0.001302    -0.001296    -0.000100
H      -3.88123480      0.69156572     -1.26830548     -0.000368     0.000359    -0.000726
H      -2.20957936     -0.78934173      0.77810138     -0.000549     0.000125     0.000574
H       1.99897994      1.84910269     -0.97211786      0.002520     0.001634    -0.000241
H       0.13648340      2.59986516      1.54154114     -0.000528     0.000013     0.000040
N       2.85874097      2.20931211     -0.95070727      0.000783     0.000010    -0.000541
H       3.13280296      2.29515193     -1.92684683      0.001200    -0.001457    -0.000214
H       2.80349144      3.11885163     -0.51241379      0.001485    -0.000753    -0.000950
H       3.50161273      1.61829053     -0.44640633      0.000990     0.000737    -0.000799
23
Frame 64  Energy = -756.7033611350 Hartree
Al     -1.74965966      1.70399455     -0.08992656     -0.000114    -0.000023     0.000058
O      -0.22787809      1.30915830     -0.93550637      0.000375     0.000243     0.000242
H      -0.13799101      0.47930624     -1.40680777      0.000136     0.000011     0.000965
O      -2.08470928      3.39881019     -0.99859784      0.000155    -0.000108     0.000245
H      -1.67831642      4.25438124     -0.77496722      0.000291    -0.000150     0.000986
O      -2.92914970      0.87731504     -1.39842122     -0.000151     0.000116    -0.000054
H      -2.68291250      0.51662019     -2.28091047     -0.000337     0.000564     0.000620
O      -1.77465648      0.05686316      1.03086034     -0.000393     0.000018     0.000205
H      -1.05245785     -0.19871535      1.61114226     -0.000632     0.000778     0.000346
O      -3.40696008      2.12673627      0.96863365     -0.000381    -0.000325    -0.000189
H      -4.10298803      2.79200067      0.77730063      0.000749     0.000359    -0.000551
O      -0.80822185      2.63005436      1.30775031     -0.000426     0.000011    -0.000031
H      -1.25337885      3.16244018      1.99937038     -0.000472    -0.001374     0.000966
H      -2.39744936      3.44957214     -1.91414317      0.000265     0.000118     0.000092
H      -3.72209901      1.55961105      1.71899467     -0.000866    -0.000419    -0.001203
H      -3.88245745      0.70127995     -1.28634221      0.000194     0.000517    -0.000876
H      -2.21866156     -0.77725133      0.79210393     -0.000330     0.000846     0.000662
H       1.97037077      1.84608150     -0.97452662     -0.004281    -0.001563     0.000038
H       0.12736626      2.59784831      1.54040949     -0.000291    -0.000196    -0.000147
N       2.88061076      2.21161717     -0.96322279      0.001145     0.000165    -0.000595
H       3.16869380      2.26776461     -1.93689632      0.002009    -0.001002    -0.000709
H       2.84194897      3.11533463     -0.53145437      0.001988     0.000542    -0.000754
H       3.53246020      1.62662042     -0.45905729      0.001751     0.000007    -0.000336
23
Frame 65  Energy = -756.7078104101 Hartree
Al     -1.75167248      1.70318984     -0.08906691     -0.000070    -0.000049     0.000021
O      -0.22039063      1.31494505     -0.92961652      0.000307     0.000283     0.000293
H      -0.13402108      0.47689668     -1.38639700      0.000228    -0.000240     0.000883
O      -2.08136563      3.39668619     -0.99302428      0.000148    -0.000086     0.000260
H      -1.67400185      4.24808446     -0.75578435      0.000102    -0.000416     0.000750
O      -2.93268793      0.87956850     -1.39982677     -0.000166     0.000096    -0.000060
H      -2.68827352      0.53099066     -2.26271202     -0.000062     0.000635     0.000767
O      -1.78366587      0.05740654      1.03500237     -0.000418     0.000045     0.000176
H      -1.05953546     -0.18250087      1.62383011     -0.000053     0.000688     0.000782
O      -3.41540238      2.11940870      0.96478187     -0.000374    -0.000337    -0.000175
H      -4.08203590      2.79616482      0.76702185      0.001045     0.000112    -0.000400
O      -0.81781836      2.63083776      1.30768157     -0.000442     0.000056     0.000022
H      -1.26165501      3.12906592      2.01693065     -0.000313    -0.001614     0.000685
H      -2.39132913      3.45279317     -1.91237229      0.000308     0.000183     0.000108
H      -3.73806315      1.55808647      1.68470351     -0.000688     0.000118    -0.001693
H      -3.87822325      0.71347000     -1.30490889      0.000041     0.000572    -0.000777
H      -2.22780243     -0.76045388      0.80506678     -0.000588     0.000487     0.000477
H       1.87176352      1.80606582     -0.97064123     -0.003563    -0.001589     0.000284
H       0.12272226      2.59154330      1.53482946     -0.000178    -0.000367    -0.000369
N       2.90515272      2.21470697     -0.97660169      0.001027     0.000089    -0.000614
H       3.21698059      2.25137347     -1.95518064      0.002277    -0.000504    -0.000843
H       2.88942673      3.13974508     -0.54721015      0.002301     0.001464    -0.000776
H       3.57257963      1.62151620     -0.46321410      0.001727    -0.000351    -0.000131
23
Frame 66  Energy = -756.7283750472 Hartree
Al     -1.75276208      1.70183134     -0.08894811     -0.000030    -0.000073    -0.000010
O      -0.21428796      1.32143791     -0.92268474      0.000247     0.000300     0.000332
H      -0.12803233      0.47031735     -1.36723697      0.000310    -0.000288     0.000887
O      -2.07826196      3.39491005     -0.98724244      0.000131    -0.000079     0.000262
H      -1.67292070      4.23810818     -0.74163065      0.000031    -0.000416     0.000553
O      -2.93634278      0.88182695     -1.40054116     -0.000165     0.000110    -0.000000
H      -2.68278558      0.54077622     -2.25655859      0.000574     0.000218    -0.000286
O      -1.79265433      0.05905049      1.03882466     -0.000390     0.000100     0.000175
H      -1.05959200     -0.16811259      1.64191024     -0.000090     0.000628     0.000750
O      -3.42279312      2.11218122      0.96034096     -0.000286    -0.000314    -0.000238
H      -4.06207045      2.80140460      0.75875426      0.000679     0.000442    -0.000366
O      -0.82739779      2.63233137      1.30854126     -0.000421     0.000074     0.000050
H      -1.26902246      3.09412196      2.03292999     -0.000392    -0.001498     0.000842
H      -2.38347767      3.45775332     -1.90829352      0.000405     0.000266     0.000267
H      -3.75727363      1.55665191      1.65524473     -0.001142    -0.000390    -0.000796
H      -3.88462302      0.72590145     -1.31960487     -0.000618     0.000554    -0.000555
H      -2.24573051     -0.75971117      0.81274351     -0.000987    -0.000372     0.000251
H       1.83872433      1.78781358     -0.96391611      0.000765     0.000047     0.000281
H       0.11759980      2.58224355      1.52403518     -0.000314    -0.000461    -0.000604
N       2.92477214      2.21518989     -0.98986999      0.000752    -0.000040    -0.000581
H       3.26448729      2.24458991     -1.96931088      0.001945    -0.000140    -0.000364
H       2.94159002      3.16874579     -0.56982623      0.002384     0.000942    -0.001342
H       3.60209906      1.61609545     -0.46836248      0.000855    -0.000061    -0.000387
23
Frame 67  Energy = -756.7123354901 Hartree
Al     -1.75303241      1.69993780     -0.08946207      0.000005    -0.000100    -0.000037
O      -0.20946287      1.32801628     -0.91505498      0.000192     0.000298     0.000364
H      -0.12041855      0.46688263     -1.34589161      0.000387     0.000012     0.001079
O      -2.07565784      3.39305392     -0.98148136      0.000107    -0.000091     0.000265
H      -1.67129787      4.23226050     -0.73041085      0.000133    -0.000090     0.000487
O      -2.94007858      0.88430637     -1.40011059     -0.000178     0.000109     0.000026
H      -2.66506504      0.54231965     -2.27070127      0.000944     0.000012    -0.000764
O      -1.80090562      0.06143243      1.04278274     -0.000369     0.000106     0.000184
H      -1.06768316     -0.15471845      1.65372118     -0.000680     0.000582     0.000305
O      -3.42799343      2.10556137      0.95423157     -0.000198    -0.000294    -0.000310
H      -4.05271973      2.81601717      0.75103741      0.000227     0.000823    -0.000313
O      -0.83640618      2.63403050      1.30978567     -0.000404     0.000081     0.000064
H      -1.27933737      3.06385020      2.05561341     -0.000522    -0.001280     0.001207
H      -2.37376076      3.46438923     -1.90131045      0.000469     0.000334     0.000336
H      -3.78884992      1.54074363      1.64965079     -0.001662    -0.000925     0.000115
H      -3.90153894      0.73839743     -1.33019302     -0.000779     0.000602    -0.000440
H      -2.26697310     -0.77054246      0.81856494     -0.000832    -0.000430     0.000342
H       1.90473151      1.80884558     -0.95990925      0.005038     0.001802     0.000054
H       0.10884619      2.57170892      1.50869562     -0.000458    -0.000490    -0.000775
N       2.93881059      2.21328835     -1.00216309      0.000549    -0.000122    -0.000542
H       3.30060447      2.24372725     -1.97082793      0.001328     0.000023     0.000171
H       2.99286077      3.17629856     -0.60710138      0.002253    -0.000253    -0.002017
H       3.60959709      1.61961916     -0.48045929     -0.000115     0.000339    -0.000671
23
Frame 68  Energy = -756.7097841293 Hartree
Al     -1.75258502      1.69744473     -0.09056315      0.000035    -0.000127    -0.000063
O      -0.20594127      1.33450088     -0.90668480      0.000126     0.000295     0.000400
H      -0.11069902      0.47051396     -1.32014349      0.000511     0.000267     0.001236
O      -2.07351448      3.39101642     -0.97551698      0.000090    -0.000090     0.000279
H      -1.66730449      4.23329466     -0.72005085      0.000206     0.000125     0.000449
O      -2.94418524      0.88636828     -1.39999477     -0.000194     0.000075    -0.000024
H      -2.64590670      0.54507623     -2.27984177      0.000717     0.000294     0.000090
O      -1.80915976      0.06338839      1.04670278     -0.000390     0.000071     0.000167
H      -1.08747481     -0.14371161      1.65695368     -0.001013     0.000387     0.000079
O      -3.43208318      2.09906637      0.94727016     -0.000188    -0.000300    -0.000312
H      -4.04831818      2.83278317      0.74645935      0.000265     0.000590    -0.000073
O      -0.84537891      2.63595379      1.31145034     -0.000419     0.000096     0.000092
H      -1.28966302      3.03631811      2.08305561     -0.000355    -0.001270     0.001205
H      -2.36353858      3.47211315     -1.89509422      0.000451     0.000360     0.000205
H      -3.82491705      1.52428255      1.65007802     -0.001499    -0.000403    -0.000288
H      -3.91327944      0.75273832     -1.34006086     -0.000219     0.000703    -0.000479
H      -2.27876237     -0.77288435      0.82936606     -0.000219     0.000257     0.000647
H       2.03423348      1.85752526     -0.96191650      0.005647     0.002220    -0.000212
H       0.09928152      2.56110414      1.49111746     -0.000373    -0.000468    -0.000801
N       2.95051992      2.21055074     -1.01386198      0.000586    -0.000101    -0.000532
H       3.32302012      2.24377591     -1.96641142      0.000743    -0.000064     0.000092
H       3.03902060      3.16274792     -0.65431724      0.001928    -0.000768    -0.002151
H       3.60222152      1.62710188     -0.49418221     -0.000395     0.000225    -0.000474
23
Frame 69  Energy = -756.7263049473 Hartree
Al     -1.75151813      1.69437585     -0.09219755      0.000061    -0.000154    -0.000086
O      -0.20402726      1.34112702     -0.89744873      0.000050     0.000316     0.000449
H      -0.09733910      0.47563856     -1.29321841      0.000727     0.000142     0.001204
O      -2.07162726      3.38935540     -0.96922948      0.000084    -0.000059     0.000297
H      -1.66343607      4.23490391     -0.71105634      0.000128    -0.000029     0.000373
O      -2.94843125      0.88759454     -1.40121251     -0.000190     0.000043    -0.000079
H      -2.63506359      0.55526454     -2.26603291      0.000302     0.000586     0.001046
O      -1.81819331      0.06478578      1.04990521     -0.000437     0.000067     0.000126
H      -1.10706107     -0.13889475      1.66140422     -0.000699     0.000047     0.000401
O      -3.43661288      2.09241168      0.94081891     -0.000228    -0.000309    -0.000282
H      -4.03888298      2.83925160      0.74827224      0.000601     0.000014     0.000225
O      -0.85490071      2.63829554      1.31393129     -0.000455     0.000118     0.000136
H      -1.29306075      3.00706070      2.10589614      0.000055    -0.001416     0.000879
H      -2.35415813      3.47972898     -1.89235575      0.000415     0.000328     0.000070
H      -3.85159404      1.52623185      1.63277297     -0.000949     0.000540    -0.001265
H      -3.91183352      0.76878698     -1.35162887      0.000252     0.000751    -0.000583
H      -2.27863361     -0.76215218      0.84575446      0.000123     0.000568     0.000802
H       2.09418870      1.88504991     -0.96674247     -0.000954     0.000034    -0.000185
H       0.09316722      2.55151592      1.47436649     -0.000204    -0.000403    -0.000727
N       2.96821672      2.21008190     -1.02592751      0.001087     0.000070    -0.000583
H       3.33491439      2.23909245     -1.97226134      0.000393    -0.000404    -0.000715
H       3.07723520      3.15261151     -0.69592181      0.001590     0.000030    -0.001570
H       3.59846754      1.62535625     -0.49770248      0.000139    -0.000430     0.000185
23
Frame 70  Energy = -756.7042021304 Hartree
Al     -1.74998940      1.69077061     -0.09426668      0.000077    -0.000176    -0.000102
O      -0.20370228      1.34826593     -0.88713050     -0.000017     0.000335     0.000494
H      -0.07892459      0.47579609     -1.26814089      0.000952    -0.000097     0.001107
O      -2.06986188      3.38853432     -0.96272160      0.000076    -0.000017     0.000296
H      -1.66187400      4.23138030     -0.70352054      0.000030    -0.000269     0.000336
O      -2.95222456      0.88852194     -1.40286649     -0.000154     0.000050    -0.000056
H      -2.62995530      0.56667918     -2.24407570      0.000251     0.000356     0.000703
O      -1.82788733      0.06674670      1.05234223     -0.000441     0.000118     0.000104
H      -1.11752286     -0.14095059      1.67471737     -0.000326    -0.000197     0.000759
O      -3.44174877      2.08579733      0.93467011     -0.000230    -0.000292    -0.000293
H      -4.02414281      2.83674742      0.75479923      0.000671    -0.000117     0.000325
O      -0.86502566      2.64097465      1.31725418     -0.000466     0.000124     0.000164
H      -1.28816172      2.97566524      2.12303017      0.000347    -0.001421     0.000769
H      -2.34515274      3.48594620     -1.89048490      0.000418     0.000232     0.000137
H      -3.86904894      1.54179656      1.60143114     -0.000768     0.000677    -0.001377
H      -3.90817385      0.78457294     -1.36528035     -0.000046     0.000680    -0.000662
H      -2.27854674     -0.75586959      0.86171784     -0.000208    -0.000123     0.000614
H       2.01773374      1.86948110     -0.97142081     -0.004615    -0.000926    -0.000326
H       0.08873206      2.54400254      1.45962140     -0.000250    -0.000274    -0.000624
N       2.99598163      2.21265203     -1.03911260      0.001358     0.000128    -0.000615
H       3.34133526      2.22498319     -1.99828508      0.000204    -0.000904    -0.001599
H       3.10864913      3.16680474     -0.72096285      0.001290     0.001175    -0.000753
H       3.60834027      1.60953971     -0.48763698      0.000684    -0.000920     0.000636
23
Frame 71  Energy = -756.7257041270 Hartree
Al     -1.74830220      1.68680480     -0.09653435      0.000075    -0.000187    -0.000104
O      -0.20453038      1.35542339     -0.87621943     -0.000054     0.000315     0.000502
H      -0.05686824      0.47422244     -1.24402960      0.001048     0.000027     0.001136
O      -2.06838831      3.38847524     -0.95651002      0.000057     0.000008     0.000272
H      -1.66100475      4.22544461     -0.69544335      0.000079    -0.000218     0.000428
O      -2.95506650      0.88992731     -1.40326865     -0.000108     0.000078     0.000018
H      -2.62210375      0.56811202     -2.24210392      0.000452    -0.000217    -0.000499
O      -1.83697186      0.06974239      1.05467802     -0.000389     0.000145     0.000115
H      -1.12560486     -0.14536990      1.69032169     -0.000510    -0.000165     0.000582
O      -3.44615026      2.07995659      0.92769505     -0.000169    -0.000242    -0.000350
H      -4.01271825      2.83921862      0.76049092      0.000344     0.000409     0.000171
O      -0.87488608      2.64354901      1.32080408     -0.000434     0.000110     0.000159
H      -1.28018194      2.94704627      2.14258567      0.000347    -0.001182     0.001069
H      -2.33598758      3.48951667     -1.88569706      0.000418     0.000094     0.000295
H      -3.88944235      1.54775215      1.58158307     -0.001143    -0.000213    -0.000362
H      -3.91597465      0.79802212     -1.38018649     -0.000619     0.000559    -0.000705
H      -2.28825062     -0.76721786      0.87188385     -0.000617    -0.000775     0.000338
H       1.94275984      1.86174444     -0.98315546     -0.001618     0.000411    -0.000761
H       0.08106348      2.53995517      1.44727149     -0.000454    -0.000094    -0.000509
N       3.02391413      2.21468037     -1.05222150      0.001164     0.000052    -0.000581
H       3.34353663      2.20014219     -2.03524824     -0.000012    -0.001348    -0.001605
H       3.13305287      3.19414801     -0.73215999      0.000949     0.001065    -0.000385
H       3.62312153      1.59113163     -0.47584227      0.000560    -0.000639     0.000317
23
Frame 72  Energy = -756.7267428059 Hartree
Al     -1.74678882      1.68259057     -0.09877952      0.000060    -0.000196    -0.000099
O      -0.20588276      1.36193448     -0.86521501     -0.000067     0.000278     0.000499
H      -0.03363061      0.47891929     -1.21745821      0.001062     0.000401     0.001286
O      -2.06734647      3.38880144     -0.95074818      0.000039     0.000021     0.000256
H      -1.65776299      4.22318971     -0.68418723      0.000213     0.000009     0.000595
O      -2.95704962      0.89172306     -1.40260310     -0.000075     0.000078     0.000026
H      -2.61338510      0.56012010     -2.25819950      0.000241    -0.000412    -0.000712
O      -1.84512556      0.07247931      1.05741302     -0.000360     0.000092     0.000132
H      -1.14176949     -0.14707532      1.69842630     -0.000942     0.000016     0.000169
O      -3.44942488      2.07506378      0.91955649     -0.000144    -0.000208    -0.000380
H      -4.00789764      2.85364078      0.76232090      0.000167     0.000803     0.000018
O      -0.88413686      2.64581135      1.32426223     -0.000412     0.000098     0.000161
H      -1.27335495      2.92357305      2.16926431      0.000291    -0.000981     0.001289
H      -2.32720574      3.49026359     -1.87870195      0.000372    -0.000018     0.000303
H      -3.91651124      1.53516241      1.58173348     -0.001183    -0.000763     0.000165
H      -3.93020179      0.80970437     -1.39625285     -0.000532     0.000521    -0.000755
H      -2.30152146     -0.78139532      0.87795769     -0.000504    -0.000335     0.000245
H       1.95770314      1.88973273     -1.00406114      0.002969     0.002092    -0.001106
H       0.06999927      2.53977347      1.43726367     -0.000505     0.000071    -0.000404
N       3.04642133      2.21504730     -1.06462251      0.000885    -0.000013    -0.000552
H       3.34106051      2.16748359     -2.06216884     -0.000186    -0.001580    -0.000760
H       3.15095029      3.20505114     -0.74199794      0.000712    -0.000162    -0.000579
H       3.63028387      1.58471707     -0.47704911      0.000089     0.000064    -0.000443
23
Frame 73  Energy = -756.7137151348 Hartree
Al     -1.74573624      1.67824879     -0.10082539      0.000034    -0.000199    -0.000087
O      -0.20740616      1.36766329     -0.85439486     -0.000073     0.000250     0.000490
H      -0.01022873      0.48983581     -1.18859364      0.001088     0.000520     0.001318
O      -2.06662200      3.38946532     -0.94520462      0.000030     0.000042     0.000253
H      -1.65256894      4.22427156     -0.67017485      0.000230     0.000036     0.000657
O      -2.95842557      0.89309382     -1.40270424     -0.000051     0.000044    -0.000042
H      -2.61463209      0.55348282     -2.26471351     -0.000371    -0.000159     0.000200
O      -1.85302359      0.07355665      1.06026311     -0.000366     0.000009     0.000123
H      -1.16353758     -0.14517426      1.70041576     -0.000938     0.000134     0.000106
O      -3.45303234      2.07074843      0.91156671     -0.000195    -0.000187    -0.000342
H      -4.00199080      2.86900705      0.76247241      0.000430     0.000496     0.000021
O      -0.89308332      2.64792176      1.32810389     -0.000407     0.000096     0.000195
H      -1.26650357      2.90294972      2.19487763      0.000350    -0.000923     0.000968
H      -2.32001969      3.48919026     -1.87379581      0.000285    -0.000068     0.000133
H      -3.93524437      1.52181712      1.57991933     -0.000440    -0.000336    -0.000465
H      -3.93487948      0.82132633     -1.41271815      0.000129     0.000547    -0.000730
H      -2.30861244     -0.77809718      0.88297238     -0.000167     0.000604     0.000200
H       2.06061263      1.94749185     -1.02919121      0.005759     0.002939    -0.001114
H       0.06087325      2.54273764      1.42945691     -0.000304     0.000194    -0.000316
N       3.06306804      2.21442215     -1.07662121      0.000667    -0.000034    -0.000551
H       3.33766884      2.13317752     -2.06847662     -0.000047    -0.001506     0.000091
H       3.16617482      3.18891410     -0.75852757      0.000742    -0.001135    -0.000913
H       3.62928270      1.59151083     -0.49305636     -0.000082     0.000441    -0.000911
23
Frame 74  Energy = -756.7358102161 Hartree
Al     -1.74532135      1.67386225     -0.10256471      0.000002    -0.000196    -0.000069
O      -0.20910370      1.37307975     -0.84364226     -0.000080     0.000241     0.000481
H       0.01489228      0.49886719     -1.16067862      0.001187     0.000261     0.001188
O      -2.06599934      3.39072497     -0.93960937      0.000027     0.000072     0.000251
H      -1.64872946      4.22297477     -0.65637413      0.000105    -0.000167     0.000572
O      -2.95925016      0.89369324     -1.40438210     -0.000022     0.000014    -0.000100
H      -2.62775023      0.55232805     -2.25171777     -0.000714    -0.000014     0.000794
O      -1.86124297      0.07327390      1.06270738     -0.000372    -0.000021     0.000098
H      -1.17934723     -0.14207430      1.70643752     -0.000456     0.000134     0.000470
O      -3.45807808      2.06687267      0.90452927     -0.000253    -0.000160    -0.000299
H      -3.98849849      2.87385249      0.76369398      0.000749    -0.000020     0.000086
O      -0.90198708      2.65005877      1.33295965     -0.000393     0.000096     0.000242
H      -1.25816926      2.88274845      2.21043695      0.000375    -0.000889     0.000464
H      -2.31432259      3.48776435     -1.87227973      0.000244    -0.000051     0.000038
H      -3.93567499      1.52134189      1.56053153      0.000318     0.000215    -0.001181
H      -3.92705775      0.83391075     -1.42743809      0.000449     0.000589    -0.000576
H      -2.31209608     -0.76055808      0.88543839     -0.000254     0.000777    -0.000017
H       2.16335899      2.00439528     -1.04931957      0.002150     0.001831    -0.000613
H       0.05628848      2.54819940      1.42292943     -0.000146     0.000301    -0.000286
N       3.07844658      2.21409587     -1.08918275      0.000803     0.000018    -0.000589
H       3.34258782      2.10275197     -2.06472233      0.000567    -0.001219     0.000070
H       3.18683699      3.16595757     -0.78028405      0.001201    -0.000664    -0.000995
H       3.63128626      1.59853950     -0.51168700      0.000348     0.000079    -0.000655
23
Frame 75  Energy = -756.7237455146 Hartree
Al     -1.74568601      1.66959439     -0.10385442     -0.000037    -0.000193    -0.000047
O      -0.21085480      1.37830235     -0.83311146     -0.000076     0.000231     0.000477
H       0.04202353      0.50206797     -1.13565591      0.001263     0.000091     0.001118
O      -2.06548900      3.39254694     -0.93414412      0.000018     0.000091     0.000245
H      -1.64768718      4.21771877     -0.64498527      0.000012    -0.000263     0.000475
O      -2.95935298      0.89395824     -1.40658355      0.000013     0.000015    -0.000090
H      -2.64136812      0.54899988     -2.23913735     -0.000430    -0.000370     0.000159
O      -1.86918875      0.07305905      1.06475999     -0.000346     0.000006     0.000094
H      -1.18532880     -0.13918486      1.71994363     -0.000183     0.000139     0.000682
O      -3.46366874      2.06375917      0.89781660     -0.000242    -0.000121    -0.000326
H      -3.97194325      2.87224638      0.76574189      0.000671    -0.000002     0.000085
O      -0.91030641      2.65208712      1.33867735     -0.000361     0.000087     0.000274
H      -1.25164593      2.86449284      2.21849483      0.000175    -0.000751     0.000366
H      -2.30860287      3.48731655     -1.87052253      0.000289     0.000018     0.000150
H      -3.92710758      1.52515385      1.53535393      0.000303    -0.000038    -0.000905
H      -3.92079165      0.84749037     -1.43741168      0.000022     0.000654    -0.000319
H      -2.32345024     -0.75090828      0.88107116     -0.000807     0.000029    -0.000382
H       2.13381273      2.02317445     -1.05488132     -0.004012     0.000074     0.000059
H       0.05251390      2.55623892      1.41635763     -0.000234     0.000437    -0.000319
N       3.09997139      2.21523529     -1.10277290      0.001105     0.000069    -0.000643
H       3.36450627      2.07958183     -2.07098207      0.001420    -0.000892    -0.000687
H       3.22180026      3.16682472     -0.80127489      0.002003     0.000749    -0.000929
H       3.64575027      1.59280793     -0.51951194      0.000924    -0.000574    -0.000069
23
Frame 76  Energy = -756.7281839111 Hartree
Al     -1.74698024      1.66548699     -0.10457274     -0.000083    -0.000182    -0.000017
O      -0.21219762      1.38295803     -0.82296106     -0.000042     0.000191     0.000449
H       0.06852445      0.50571497     -1.11092346      0.001132     0.000293     0.001164
O      -2.06527432      3.39449424     -0.92897368      0.000001     0.000084     0.000228
H      -1.64716257      4.21383029     -0.63510869      0.000056    -0.000052     0.000439
O      -2.95875529      0.89437596     -1.40819932      0.000040     0.000020    -0.000065
H      -2.64512310      0.53527125     -2.24699193      0.000043    -0.000837    -0.000759
O      -1.87622567      0.07333773      1.06695930     -0.000300     0.000010     0.000107
H      -1.19153725     -0.13579399      1.73238740     -0.000458     0.000166     0.000393
O      -3.46818567      2.06161752      0.89001992     -0.000170    -0.000078    -0.000387
H      -3.96217616      2.87763147      0.76707435      0.000198     0.000512     0.000045
O      -0.91762618      2.65380587      1.34470796     -0.000310     0.000069     0.000276
H      -1.25178773      2.85076806      2.22930508     -0.000192    -0.000501     0.000640
H      -2.30159914      3.48889038     -1.86551853      0.000348     0.000133     0.000289
H      -3.92681580      1.51553398      1.52651671     -0.000275    -0.000814     0.000079
H      -3.92659911      0.86260600     -1.44096189     -0.000472     0.000734    -0.000006
H      -2.34484542     -0.75668292      0.87022870     -0.001034    -0.000392    -0.000550
H       2.04449966      2.01966468     -1.05062476     -0.003089    -0.000167     0.000236
H       0.04568886      2.56733931      1.40905561     -0.000372     0.000579    -0.000341
N       3.12316171      2.21644922     -1.11675399      0.000960     0.000035    -0.000627
H       3.40182780      2.06409575     -2.09209740      0.001900    -0.000519    -0.001100
H       3.27268966      3.19149856     -0.82283095      0.002583     0.001231    -0.001111
H       3.66727322      1.57758595     -0.51780760      0.000922    -0.000684     0.000115
23
Frame 77  Energy = -756.7375830588 Hartree
Al     -1.74939213      1.66158952     -0.10458327     -0.000139    -0.000175     0.000017
O      -0.21256091      1.38669870     -0.81338141      0.000010     0.000154     0.000431
H       0.09122384      0.51519930     -1.08428344      0.000955     0.000537     0.001269
O      -2.06542088      3.39621293     -0.92399735     -0.000013     0.000075     0.000231
H      -1.64510250      4.21567955     -0.62554538      0.000119     0.000192     0.000430
O      -2.95772408      0.89458990     -1.41002677      0.000053    -0.000007    -0.000116
H      -2.64321774      0.51608180     -2.26337298      0.000036    -0.000823    -0.000518
O      -1.88270531      0.07305874      1.06933089     -0.000303    -0.000041     0.000105
H      -1.20628639     -0.13264708      1.73674717     -0.000857     0.000093     0.000048
O      -3.47149113      2.06011775      0.88109758     -0.000146    -0.000064    -0.000420
H      -3.96210227      2.89185307      0.76860530     -0.000129     0.000665     0.000123
O      -0.92412656      2.65516669      1.35091827     -0.000292     0.000057     0.000298
H      -1.25910013      2.84200028      2.24485723     -0.000436    -0.000322     0.000702
H      -2.29366180      3.49339308     -1.85927563      0.000371     0.000284     0.000247
H      -3.93524429      1.49542304      1.53250379     -0.000361    -0.000834     0.000261
H      -3.93597712      0.87988672     -1.43793364     -0.000256     0.000849     0.000272
H      -2.36381168     -0.76078642      0.85949664     -0.000618     0.000137    -0.000388
H       2.02332223      2.02157128     -1.04764956      0.001377     0.000409    -0.000016
H       0.03776171      2.58168871      1.40183106     -0.000314     0.000737    -0.000307
N       3.14128235      2.21681149     -1.13020187      0.000703     0.000001    -0.000607
H       3.44392880      2.05682995     -2.11244678      0.001875    -0.000154    -0.000632
H       3.33205121      3.20975330     -0.85248412      0.002786     0.000255    -0.001632
H       3.68204065      1.56790509     -0.51881933      0.000374    -0.000124    -0.000276
23
Frame 78  Energy = -756.7227054693 Hartree
Al     -1.75299924      1.65794064     -0.10382299     -0.000190    -0.000158     0.000052
O      -0.21180264      1.38982491     -0.80425162      0.000056     0.000136     0.000406
H       0.11065740      0.52603644     -1.05691893      0.000846     0.000381     0.001210
O      -2.06573814      3.39787782     -0.91886514     -0.000015     0.000081     0.000238
H      -1.64298664      4.22000968     -0.61706054      0.000051     0.000151     0.000334
O      -2.95651121      0.89393240     -1.41353879      0.000059    -0.000053    -0.000204
H      -2.64622144      0.50234719     -2.26363698     -0.000323    -0.000425     0.000500
O      -1.88960782      0.07157403      1.07125854     -0.000331    -0.000087     0.000067
H      -1.22537428     -0.13316452      1.73773441     -0.000801    -0.000167     0.000128
O      -3.47500985      2.05875302      0.87221162     -0.000182    -0.000060    -0.000388
H      -3.96496113      2.90105152      0.77331879     -0.000086     0.000097     0.000315
O      -0.93049391      2.65628979      1.35780756     -0.000292     0.000046     0.000333
H      -1.26878156      2.83609074      2.25624594     -0.000415    -0.000227     0.000293
H      -2.28580663      3.50112249     -1.85576978      0.000347     0.000416     0.000077
H      -3.93786140      1.48605392      1.53076282      0.000165     0.000042    -0.000489
H      -3.93442933      0.89904934     -1.42989495      0.000392     0.000892     0.000443
H      -2.37062781     -0.75002582      0.85413985     -0.000056     0.000750    -0.000119
H       2.10158688      2.03811059     -1.05270463      0.005376     0.001065    -0.000450
H       0.03309836      2.59923035      1.39632824     -0.000119     0.000866    -0.000184
N       3.15422641      2.21667903     -1.14318843      0.000511    -0.000009    -0.000586
H       3.48031971      2.05640644     -2.11680752      0.001419     0.000071     0.000202
H       3.39063629      3.19992317     -0.89264768      0.002530    -0.001073    -0.001977
H       3.68347894      1.57289349     -0.53027896     -0.000180     0.000523    -0.000722
23
Frame 79  Energy = -756.7265444161 Hartree
Al     -1.75763505      1.65466647     -0.10231621     -0.000232    -0.000141     0.000085
O      -0.21022148      1.39277685     -0.79551316      0.000086     0.000133     0.000394
H       0.12896147      0.53027047     -1.03176458      0.000824     0.000018     0.001093
O      -2.06605295      3.39984399     -0.91361152     -0.000015     0.000100     0.000239
H      -1.64336144      4.22103548     -0.61094524     -0.000079    -0.000054     0.000237
O      -2.95503379      0.89243016     -1.41857907      0.000079    -0.000077    -0.000241
H      -2.65586005      0.49524787     -2.24662284     -0.000484    -0.000326     0.000834
O      -1.89710901      0.06972812      1.07224852     -0.000347    -0.000071     0.000028
H      -1.23921735     -0.14037436      1.74444869     -0.000469    -0.000480     0.000477
O      -3.47940479      2.05758882      0.86399035     -0.000212    -0.000043    -0.000372
H      -3.96556092      2.89610844      0.78203400     -0.000000    -0.000466     0.000459
O      -0.93689350      2.65718270      1.36548063     -0.000290     0.000034     0.000363
H      -1.27681401      2.83215388      2.25817614     -0.000331    -0.000118    -0.000049
H      -2.27825152      3.51113544     -1.85477466      0.000351     0.000485     0.000054
H      -3.92939079      1.49538988      1.51306903      0.000507     0.000666    -0.000974
H      -3.92226682      0.91859717     -1.41935830      0.000586     0.000887     0.000502
H      -2.37053795     -0.73519731      0.85244007     -0.000055     0.000410    -0.000091
H       2.22324371      2.06373733     -1.06562465      0.004434     0.001101    -0.000637
H       0.03111522      2.61967428      1.39409644     -0.000111     0.001002    -0.000014
N       3.16604874      2.21667222     -1.15625325      0.000652     0.000017    -0.000619
H       3.50610623      2.05741702     -2.10830412      0.000968    -0.000049     0.000400
H       3.44260662      3.17077818     -0.93549456      0.002243    -0.001323    -0.001841
H       3.67860306      1.58628433     -0.54644673     -0.000138     0.000564    -0.000637
23
Frame 80  Energy = -756.7330142198 Hartree
Al     -1.76302682      1.65182112     -0.10014412     -0.000259    -0.000120     0.000113
O      -0.20807143      1.39551634     -0.78710787      0.000111     0.000113     0.000375
H       0.14564285      0.52905892     -1.00870806      0.000670    -0.000060     0.001037
O      -2.06645024      3.40215680     -0.90861935     -0.000023     0.000110     0.000216
H      -1.64558061      4.21897613     -0.60570872     -0.000096    -0.000087     0.000272
O      -2.95293910      0.89087733     -1.42338746      0.000114    -0.000060    -0.000188
H      -2.66415645      0.48364379     -2.23688841     -0.000234    -0.000806    -0.000084
O      -1.90442320      0.06873278      1.07272299     -0.000318    -0.000024     0.000021
H      -1.24809745     -0.15279959      1.75599302     -0.000421    -0.000618     0.000493
O      -3.48377513      2.05703389      0.85556101     -0.000178    -0.000006    -0.000409
H      -3.96733610      2.88634378      0.79202954     -0.000220    -0.000288     0.000426
O      -0.94300343      2.65771272      1.37337083     -0.000267     0.000013     0.000353
H      -1.28424365      2.83177482      2.25811880     -0.000374     0.000102     0.000131
H      -2.27033068      3.52159260     -1.85203778      0.000374     0.000459     0.000211
H      -3.92128215      1.50691640      1.49690741      0.000126     0.000219    -0.000329
H      -3.91416624      0.93746593     -1.40878463      0.000086     0.000834     0.000448
H      -2.37620516     -0.73715110      0.84865444     -0.000463    -0.000577    -0.000259
H       2.24640399      2.08001156     -1.07652940     -0.002425     0.000409    -0.000354
H       0.02662107      2.64277283      1.39584753     -0.000316     0.001108     0.000178
N       3.18561482      2.21764342     -1.17043320      0.001140     0.000067    -0.000677
H       3.52431251      2.05137727     -2.10733573      0.000738    -0.000559    -0.000463
H       3.48972554      3.15316206     -0.96924309      0.002093    -0.000118    -0.001195
H       3.68187227      1.59243009     -0.55378481      0.000483    -0.000066     0.000013
23
Frame 81  Energy = -756.7194120624 Hartree
Al     -1.76894712      1.64942465     -0.09736809     -0.000280    -0.000099     0.000140
O      -0.20531329      1.39763886     -0.77906004      0.000141     0.000080     0.000360
H       0.15721052      0.52973480     -0.98566635      0.000376     0.000132     0.001073
O      -2.06710950      3.40456410     -0.90418357     -0.000037     0.000109     0.000191
H      -1.64660507      4.21882671     -0.59795414      0.000011     0.000086     0.000449
O      -2.95006598      0.88979200     -1.42686423      0.000147    -0.000044    -0.000139
H      -2.66704895      0.46057731     -2.24898552     -0.000105    -0.001205    -0.000835
O      -1.91110579      0.06821164      1.07329252     -0.000299    -0.000038     0.000030
H      -1.26029211     -0.16595028      1.76307571     -0.000715    -0.000559     0.000123
O      -3.48713126      2.05722656      0.84600850     -0.000136     0.000019    -0.000456
H      -3.97627341      2.88675250      0.79982006     -0.000572     0.000310     0.000276
O      -0.94866392      2.65775106      1.38087102     -0.000254    -0.000009     0.000334
H      -1.29361855      2.83693756      2.26545897     -0.000469     0.000363     0.000509
H      -2.26210937      3.53087376     -1.84603628      0.000367     0.000385     0.000302
H      -3.92461133      1.50279205      1.50042675     -0.000347    -0.000508     0.000536
H      -3.91749560      0.95476483     -1.40050538     -0.000285     0.000732     0.000288
H      -2.38768644     -0.75454317      0.84243729     -0.000474    -0.000804    -0.000261
H       2.16211897      2.08893556     -1.08528572     -0.003908     0.000584    -0.000559
H       0.01792941      2.66808105      1.40194151     -0.000436     0.001198     0.000378
N       3.21290986      2.21908415     -1.18542108      0.001269     0.000056    -0.000680
H       3.53900035      2.03194416     -2.13030192      0.000584    -0.001196    -0.001540
H       3.53377661      3.16558981     -0.98791169      0.001876     0.001080    -0.000561
H       3.69833086      1.58431949     -0.54744263      0.000919    -0.000575     0.000454
23
Frame 82  Energy = -756.7376413623 Hartree
Al     -1.77512012      1.64751446     -0.09409999     -0.000284    -0.000076     0.000159
O      -0.20202060      1.39911107     -0.77141116      0.000158     0.000059     0.000342
H       0.16236444      0.53342489     -0.96239892      0.000123     0.000145     0.001046
O      -2.06798115      3.40695414     -0.90019931     -0.000041     0.000112     0.000177
H      -1.64549451      4.22184264     -0.58633246      0.000068     0.000146     0.000599
O      -2.94670431      0.88868515     -1.42999015      0.000158    -0.000063    -0.000158
H      -2.67224806      0.43653368     -2.26346610     -0.000430    -0.000895    -0.000306
O      -1.91771453      0.06657985      1.07386478     -0.000313    -0.000116     0.000018
H      -1.27807765     -0.17659345      1.76215490     -0.000850    -0.000419    -0.000145
O      -3.49024405      2.05766796      0.83630399     -0.000163     0.000019    -0.000421
H      -3.98940995      2.89579757      0.80393511     -0.000547     0.000386     0.000102
O      -0.95424932      2.65735941      1.38808929     -0.000262    -0.000025     0.000334
H      -1.30339272      2.84683862      2.27694609     -0.000395     0.000523     0.000451
H      -2.25480172      3.53829186     -1.84062500      0.000297     0.000297     0.000162
H      -3.93070003      1.49171285      1.51182764     -0.000083    -0.000342     0.000311
H      -3.92108084      0.96858521     -1.39704236      0.000061     0.000521     0.000018
H      -2.39309151     -0.76480415      0.83885000      0.000012    -0.000053    -0.000058
H       2.11544926      2.10912438     -1.10336607      0.000076     0.001278    -0.001106
H       0.00958483      2.69457228      1.41213419     -0.000299     0.001223     0.000548
N       3.23859367      2.22001150     -1.19972052      0.001067     0.000032    -0.000631
H       3.54802627      2.00181461     -2.16600257      0.000208    -0.001485    -0.001501
H       3.56819906      3.18914695     -0.99698083      0.001222     0.000820    -0.000358
H       3.71680487      1.57296913     -0.53998722      0.000672    -0.000346     0.000101
23
Frame 83  Energy = -756.7289196851 Hartree
Al     -1.78129630      1.64612286     -0.09044524     -0.000276    -0.000051     0.000173
O      -0.19857157      1.40039748     -0.76399009      0.000152     0.000061     0.000335
H       0.16384497      0.53362073     -0.94039138      0.000033    -0.000159     0.000950
O      -2.06884195      3.40957428     -0.89634933     -0.000036     0.000128     0.000174
H      -1.64473317      4.22322832     -0.57271330     -0.000017    -0.000051     0.000621
O      -2.94322117      0.88694890     -1.43394299      0.000159    -0.000094    -0.000199
H      -2.68622855      0.42314884     -2.25953134     -0.000801    -0.000353     0.000606
O      -1.92494715      0.06324177      1.07395980     -0.000344    -0.000179    -0.000010
H      -1.29420437     -0.18462431      1.76003303     -0.000554    -0.000317     0.000018
O      -3.49465630      2.05807269      0.82788774     -0.000240     0.000020    -0.000345
H      -3.99740946      2.89924970      0.80430008     -0.000152    -0.000114    -0.000072
O      -0.96020411      2.65671366      1.39569291     -0.000278    -0.000033     0.000361
H      -1.31024594      2.85910538      2.28252558     -0.000234     0.000587     0.000043
H      -2.24905916      3.54399584     -1.83915568      0.000234     0.000224    -0.000007
H      -3.92543906      1.49167950      1.50934060      0.000557     0.000338    -0.000538
H      -3.91339370      0.97738184     -1.39977032      0.000594     0.000285    -0.000258
H      -2.38872906     -0.75844028      0.83887627      0.000290     0.000493     0.000007
H       2.16895617      2.14342268     -1.13250969      0.004590     0.001784    -0.001494
H       0.00465335      2.72126059      1.42539529     -0.000184     0.001196     0.000642
N       3.25964278      2.22066774     -1.21327171      0.000861     0.000030    -0.000610
H       3.54777615      1.97031509     -2.18839979     -0.000204    -0.001317    -0.000446
H       3.58670545      3.19442115     -1.00669091      0.000497    -0.000388    -0.000576
H       3.72544086      1.57198323     -0.54594970      0.000110     0.000258    -0.000646
23
Frame 84  Energy = -756.7245855506 Hartree
Al     -1.78708650      1.64527986     -0.08658658     -0.000249    -0.000026     0.000178
O      -0.19553634      1.40175214     -0.75668201      0.000123     0.000060     0.000331
H       0.16394139      0.52715626     -0.92075936     -0.000038    -0.000373     0.000849
O      -2.06959820      3.41254244     -0.89266974     -0.000034     0.000140     0.000159
H      -1.64635612      4.21961576     -0.55964558     -0.000117    -0.000245     0.000571
O      -2.93972343      0.88479920     -1.43827923      0.000162    -0.000095    -0.000184
H      -2.70386460      0.41720942     -2.24403786     -0.000707    -0.000317     0.000584
O      -1.93251591      0.05926115      1.07353239     -0.000338    -0.000175    -0.000023
H      -1.30154374     -0.19018548      1.76375827     -0.000149    -0.000174     0.000287
O      -3.50050249      2.05868270      0.82091844     -0.000281     0.000038    -0.000302
H      -3.99694282      2.89245443      0.80056497      0.000130    -0.000396    -0.000272
O      -0.96624593      2.65594547      1.40381697     -0.000268    -0.000037     0.000376
H      -1.31486731      2.87272890      2.28054840     -0.000232     0.000668    -0.000144
H      -2.24403685      3.54816509     -1.83933417      0.000236     0.000159     0.000031
H      -3.90961756      1.50244206      1.49304799      0.000758     0.000480    -0.000751
H      -3.89960160      0.98173362     -1.40757752      0.000529     0.000134    -0.000430
H      -2.38531839     -0.75118600      0.83653366     -0.000074     0.000006    -0.000269
H       2.29081104      2.18355048     -1.16527735      0.005458     0.001775    -0.001386
H      -0.00045620      2.74628539      1.43939323     -0.000320     0.001071     0.000613
N       3.27755484      2.22141818     -1.22676182      0.000826     0.000039    -0.000627
H       3.54178927      1.94577156     -2.18662983     -0.000246    -0.000918     0.000464
H       3.59362129      3.17582851     -1.02297859      0.000268    -0.001099    -0.000897
H       3.72359229      1.58151467     -0.56519352     -0.000192     0.000493    -0.000977
23
Frame 85  Energy = -756.7391678741 Hartree
Al     -1.79224613      1.64496736     -0.08261145     -0.000222    -0.000003     0.000186
O      -0.19320177      1.40288192     -0.74930439      0.000090     0.000041     0.000346
H       0.16136642      0.51996040     -0.90239038     -0.000214    -0.000233     0.000844
O      -2.07043125      3.41560036     -0.88936894     -0.000044     0.000137     0.000143
H      -1.64896365      4.21450413     -0.54712211     -0.000099    -0.000172     0.000587
O      -2.93603423      0.88295159     -1.44167135      0.000176    -0.000073    -0.000125
H      -2.71406042      0.40487527     -2.24092076     -0.000190    -0.000845    -0.000344
O      -1.93969867      0.05561934      1.07314292     -0.000320    -0.000165    -0.000010
H      -1.30349060     -0.19151502      1.76995567     -0.000102     0.000066     0.000208
O      -3.50653496      2.05981982      0.81402773     -0.000264     0.000064    -0.000337
H      -3.99506582      2.88728273      0.79213750     -0.000030     0.000029    -0.000499
O      -0.97193244      2.65504552      1.41218358     -0.000254    -0.000045     0.000390
H      -1.32242819      2.88934795      2.27946560     -0.000493     0.000866     0.000092
H      -2.23824316      3.55123201     -1.83683648      0.000300     0.000131     0.000197
H      -3.89711521      1.50628408      1.48426513      0.000314    -0.000212     0.000059
H      -3.89417498      0.98412094     -1.41792702     -0.000059     0.000097    -0.000504
H      -2.39306766     -0.76040031      0.82652485     -0.000581    -0.000771    -0.000613
H       2.35654084      2.21867147     -1.18927560     -0.000265     0.001415    -0.000750
H      -0.01002702      2.76815371      1.45175276     -0.000537     0.000927     0.000508
N       3.29899778      2.22230178     -1.24126116      0.001179     0.000038    -0.000703
H       3.54147127      1.92849593     -2.17705388      0.000319    -0.000715     0.000169
H       3.60522736      3.15688893     -1.04519251      0.000945    -0.000388    -0.001108
H       3.72094495      1.58816484     -0.58278587      0.000027     0.000004    -0.000502
23
Frame 86  Energy = -756.7239141888 Hartree
Al     -1.79669642      1.64515336     -0.07852016     -0.000182     0.000019     0.000185
O      -0.19167101      1.40350222     -0.74164194      0.000047     0.000018     0.000352
H       0.15465227      0.51769465     -0.88405381     -0.000378    -0.000002     0.000817
O      -2.07152831      3.41836583     -0.88639300     -0.000055     0.000114     0.000131
H      -1.65012586      4.21340204     -0.53410502     -0.000012     0.000069     0.000585
O      -2.93222329      0.88146642     -1.44404634      0.000166    -0.000070    -0.000104
H      -2.71272033      0.38331070     -2.25425564      0.000258    -0.000985    -0.000653
O      -1.94657876      0.05166139      1.07303230     -0.000312    -0.000204    -0.000004
H      -1.30805488     -0.18744168      1.77080539     -0.000324     0.000283    -0.000134
O      -3.51191468      2.06126934      0.80635162     -0.000232     0.000062    -0.000351
H      -3.99947404      2.89477667      0.77938432     -0.000347     0.000578    -0.000641
O      -0.97739298      2.65398743      1.42077787     -0.000248    -0.000050     0.000396
H      -1.33642006      2.91009000      2.28411721     -0.000755     0.000998     0.000267
H      -2.23109038      3.55430184     -1.83188010      0.000346     0.000160     0.000212
H      -3.89554261      1.49526766      1.49399609     -0.000088    -0.000627     0.000655
H      -3.89954502      0.98593196     -1.42907634     -0.000304     0.000058    -0.000507
H      -2.40588274     -0.77742976      0.81278741     -0.000464    -0.000594    -0.000562
H       2.29777052      2.24493263     -1.19890140     -0.003771     0.000971    -0.000217
H      -0.02183061      2.78641695      1.46115394     -0.000482     0.000736     0.000348
N       3.32693248      2.22298528     -1.25690398      0.001271     0.000026    -0.000707
H       3.55797400      1.91293545     -2.18664672      0.001171    -0.000712    -0.001068
H       3.63809216      3.16377320     -1.07038998      0.002026     0.000926    -0.001192
H       3.72594483      1.58006999     -0.58445613      0.000395    -0.000678     0.000305
23
Frame 87  Energy = -756.7365570762 Hartree
Al     -1.80025997      1.64581798     -0.07446439     -0.000143     0.000041     0.000185
O      -0.19119620      1.40381149     -0.73379964     -0.000006     0.000014     0.000365
H       0.14592556      0.51760121     -0.86687480     -0.000388    -0.000065     0.000741
O      -2.07277436      3.42067206     -0.88345592     -0.000057     0.000099     0.000140
H      -1.65026927      4.21624637     -0.52233025     -0.000027     0.000146     0.000464
O      -2.92890551      0.87958859     -1.44678471      0.000134    -0.000106    -0.000153
H      -2.70494187      0.36685131     -2.26118768      0.000417    -0.000442     0.000136
O      -1.95370546      0.04644960      1.07271841     -0.000342    -0.000268    -0.000029
H      -1.31657000     -0.18044751      1.76566571     -0.000398     0.000316    -0.000267
O      -3.51714704      2.06238299      0.79907089     -0.000254     0.000040    -0.000306
H      -4.00788228      2.90716341      0.76484445     -0.000355     0.000412    -0.000666
O      -0.98303935      2.65291714      1.42979642     -0.000270    -0.000047     0.000431
H      -1.35405144      2.93208580      2.28780084     -0.000817     0.000985     0.000002
H      -2.22319679      3.55866391     -1.82897691      0.000374     0.000242     0.000038
H      -3.89705694      1.48646447      1.50469998      0.000017    -0.000037     0.000172
H      -3.90234934      0.98618908     -1.44020103      0.000126    -0.000043    -0.000509
H      -2.41028598     -0.78189413      0.80394513      0.000072     0.000184    -0.000233
H       2.23782834      2.26099064     -1.20263020     -0.001037     0.000494    -0.000196
H      -0.02972136      2.80061264      1.46724381     -0.000238     0.000560     0.000216
N       3.35216662      2.22370774     -1.27204063      0.001007     0.000045    -0.000673
H       3.59043617      1.89840710     -2.21848711      0.001698    -0.000556    -0.001595
H       3.69061305      3.18759090     -1.09878513      0.002638     0.000946    -0.001428
H       3.73537101      1.56400301     -0.57470159      0.000388    -0.000622     0.000417
23
Frame 88  Energy = -756.7362682574 Hartree
Al     -1.80294081      1.64694721     -0.07048616     -0.000102     0.000062     0.000179
O      -0.19197159      1.40421163     -0.72571408     -0.000066     0.000021     0.000375
H       0.13859475      0.51360755     -0.85204696     -0.000281    -0.000287     0.000617
O      -2.07395839      3.42278126     -0.88029409     -0.000051     0.000095     0.000148
H      -1.65209747      4.21821180     -0.51470360     -0.000147     0.000021     0.000229
O      -2.92636458      0.87686352     -1.45069590      0.000102    -0.000139    -0.000197
H      -2.69472517      0.36413650     -2.24844716      0.000547     0.000119     0.000909
O      -1.96147065      0.04038538      1.07164556     -0.000364    -0.000273    -0.000068
H      -1.32316854     -0.17509847      1.76192837     -0.000178     0.000154    -0.000038
O      -3.52312399      2.06310826      0.79313964     -0.000291     0.000030    -0.000242
H      -4.01316115      2.90888977      0.75101030     -0.000127    -0.000264    -0.000596
O      -0.98914392      2.65198262      1.43958821     -0.000286    -0.000039     0.000463
H      -1.37097148      2.95247739      2.28316894     -0.000729     0.000888    -0.000397
H      -2.21471172      3.56475282     -1.82964081      0.000409     0.000306    -0.000063
H      -3.89424020      1.49566966      1.49943822      0.000197     0.000825    -0.000586
H      -3.89394245      0.98399536     -1.45121246      0.000570    -0.000151    -0.000500
H      -2.40503268     -0.77409558      0.80157332      0.000308     0.000340    -0.000040
H       2.26473758      2.26696404     -1.20956979      0.003458     0.000084    -0.000470
H      -0.03358549      2.81065696      1.47096144     -0.000169     0.000354     0.000134
N       3.37069155      2.22505826     -1.28632839      0.000706     0.000079    -0.000641
H       3.62789003      1.89100676     -2.24575518      0.001655    -0.000093    -0.000725
H       3.74773437      3.19465255     -1.13292290      0.002503    -0.000427    -0.001682
H       3.74064618      1.55870461     -0.57238946      0.000085     0.000207    -0.000288
23
Frame 89  Energy = -756.7203109280 Hartree
Al     -1.80477304      1.64854498     -0.06656107     -0.000065     0.000084     0.000179
O      -0.19407131      1.40461612     -0.71725244     -0.000126     0.000011     0.000398
H       0.13302233      0.50704394     -0.83943899     -0.000246    -0.000245     0.000543
O      -2.07508080      3.42487191     -0.87707715     -0.000053     0.000094     0.000143
H      -1.65631915      4.21778456     -0.51175488     -0.000217    -0.000023     0.000065
O      -2.92422879      0.87376569     -1.45493561      0.000099    -0.000136    -0.000176
H      -2.67869974      0.36686913     -2.22942634      0.000972    -0.000002     0.000621
O      -1.96945202      0.03494321      1.06992573     -0.000358    -0.000217    -0.000084
H      -1.32503285     -0.17377063      1.76361024     -0.000042    -0.000023     0.000144
O      -3.52961885      2.06389047      0.78798138     -0.000292     0.000044    -0.000241
H      -4.01515992      2.89859998      0.73831878     -0.000126    -0.000544    -0.000578
O      -0.99549046      2.65112809      1.44998183     -0.000291    -0.000041     0.000481
H      -1.38677186      2.97217883      2.27318290     -0.000738     0.000943    -0.000429
H      -2.20497866      3.57162665     -1.82996882      0.000482     0.000307     0.000065
H      -3.89206033      1.51701538      1.48571887     -0.000104     0.000948    -0.000460
H      -3.88227843      0.97997112     -1.46239574      0.000369    -0.000208    -0.000529
H      -2.40105472     -0.77492138      0.79972298     -0.000007    -0.000532    -0.000165
H       2.37397323      2.26686344     -1.22358502      0.005733    -0.000019    -0.000786
H      -0.03920960      2.81603629      1.47359905     -0.000370     0.000137     0.000119
N       3.38466065      2.22706462     -1.30061656      0.000624     0.000100    -0.000672
H       3.66143308      1.89369277     -2.24789354      0.001394     0.000282     0.000472
H       3.79915382      3.16938060     -1.17131129      0.002202    -0.001739    -0.001768
H       3.74062289      1.57260503     -0.58737300     -0.000010     0.000973    -0.001001
23
Frame 90  Energy = -756.7367398445 Hartree
Al     -1.80579959      1.65056156     -0.06270016     -0.000030     0.000101     0.000175
O      -0.19739912      1.40456606     -0.70844916     -0.000178    -0.000017     0.000408
H       0.12738516      0.50501921     -0.82822826     -0.000269     0.000072     0.000486
O      -2.07630727      3.42680234     -0.87419150     -0.000060     0.000082     0.000122
H      -1.66049754      4.21889162     -0.51061692     -0.000149     0.000151     0.000064
O      -2.92192339      0.87115895     -1.45802838      0.000114    -0.000104    -0.000108
H      -2.65166511      0.36111591     -2.22611000      0.001469    -0.000496    -0.000278
O      -1.97692008      0.03086797      1.06812638     -0.000328    -0.000167    -0.000080
H      -1.32755723     -0.17546353      1.76561761     -0.000239    -0.000118    -0.000010
O      -3.53543261      2.06499543      0.78229847     -0.000238     0.000054    -0.000279
H      -4.02162057      2.89105505      0.72514246     -0.000506    -0.000060    -0.000645
O      -1.00180904      2.65010059      1.46026377     -0.000290    -0.000054     0.000459
H      -1.40362944      2.99447077      2.26719004     -0.000800     0.001106    -0.000102
H      -2.19390089      3.57757011     -1.82660220      0.000524     0.000228     0.000221
H      -3.90176161      1.53131139      1.48573922     -0.000784     0.000334     0.000478
H      -3.88085592      0.97497349     -1.47471777     -0.000221    -0.000262    -0.000615
H      -2.40462761     -0.79583916      0.79483610     -0.000236    -0.001217    -0.000232
H       2.46348119      2.27014035     -1.24110658      0.001302     0.000413    -0.000748
H      -0.04918217      2.81692163      1.47664891     -0.000501    -0.000043     0.000174
N       3.40092322      2.22910106     -1.31584509      0.000934     0.000080    -0.000726
H       3.68924982      1.89913823     -2.23269838      0.001199     0.000092     0.000659
H       3.84565980      3.12977369     -1.20696328      0.002140    -0.001583    -0.001434
H       3.74445040      1.59460187     -0.60973422      0.000458     0.000866    -0.000872
23
Frame 91  Energy = -756.7266933885 Hartree
Al     -1.80613755      1.65289436     -0.05895423     -0.000003     0.000112     0.000168
O      -0.20180892      1.40397048     -0.69950077     -0.000223    -0.000034     0.000408
H       0.12193988      0.50887864     -0.81844790     -0.000203     0.000218     0.000400
O      -2.07766424      3.42845096     -0.87170777     -0.000062     0.000071     0.000108
H      -1.66269468      4.22423878     -0.50847824     -0.000065     0.000305     0.000128
O      -2.91925680      0.86903165     -1.46001499      0.000128    -0.000097    -0.000085
H      -2.61832838      0.34989522     -2.23487805      0.001467    -0.000390    -0.000320
O      -1.98392618      0.02712980      1.06632382     -0.000317    -0.000184    -0.000088
H      -1.33609598     -0.17858774      1.76252145     -0.000519    -0.000166    -0.000247
O      -3.54021568      2.06603332      0.77620095     -0.000210     0.000038    -0.000264
H      -4.03652054      2.89551950      0.70993626     -0.000785     0.000365    -0.000740
O      -1.00833916      2.64875080      1.46998660     -0.000310    -0.000068     0.000431
H      -1.42035890      3.01960519      2.26728097     -0.000682     0.001154     0.000042
H      -2.18264804      3.58127887     -1.82212933      0.000493     0.000108     0.000143
H      -3.92291184      1.53512697      1.50102656     -0.001025     0.000161     0.000703
H      -3.88789772      0.96774989     -1.48973855     -0.000288    -0.000419    -0.000765
H      -2.40717196     -0.81915262      0.79214321      0.000076    -0.000741     0.000027
H       2.42676432      2.28640904     -1.25616736     -0.003575     0.001032    -0.000705
H      -0.05874163      2.81483695      1.48170502     -0.000330    -0.000134     0.000298
N       3.42507302      2.23040725     -1.33195248      0.001192     0.000042    -0.000729
H       3.71551415      1.89286800     -2.22986253      0.001216    -0.000730    -0.000552
H       3.89487171      3.11091358     -1.23189905      0.002352    -0.000040    -0.000831
H       3.76264314      1.60484052     -0.61990888      0.001180     0.000035    -0.000027
23
Frame 92  Energy = -756.7335214376 Hartree
Al     -1.80603291      1.65546681     -0.05530502      0.000010     0.000123     0.000167
O      -0.20718215      1.40324229     -0.69052449     -0.000267    -0.000031     0.000413
H       0.11943494      0.51210856     -0.81087001     -0.000013     0.000044     0.000291
O      -2.07894525      3.43006353     -0.86934244     -0.000054     0.000079     0.000109
H      -1.66428424      4.23039357     -0.50552546     -0.000101     0.000216     0.000128
O      -2.91633081      0.86665637     -1.46214178      0.000140    -0.000121    -0.000112
H      -2.59063884      0.34814312     -2.23411325      0.001030     0.000260     0.000434
O      -1.99103408      0.02261895      1.06412369     -0.000334    -0.000225    -0.000115
H      -1.34839175     -0.18287603      1.75698467     -0.000549    -0.000227    -0.000197
O      -3.54518362      2.06671125      0.77114921     -0.000253     0.000028    -0.000193
H      -4.05247795      2.90140242      0.69286731     -0.000597     0.000056    -0.000816
O      -1.01558002      2.64719435      1.47938629     -0.000351    -0.000073     0.000431
H      -1.43202646      3.04381549      2.26635025     -0.000366     0.001038    -0.000163
H      -2.17250875      3.58217508     -1.82139567      0.000433    -0.000030    -0.000073
H      -3.94236078      1.54362806      1.50884496     -0.000692     0.000675    -0.000088
H      -3.88894561      0.95587123     -1.50850615      0.000241    -0.000672    -0.000950
H      -2.40064013     -0.82567926      0.79615063      0.000473     0.000091     0.000302
H       2.35823482      2.31228669     -1.27537273     -0.001811     0.001253    -0.001090
H      -0.06339022      2.81128867      1.49009943     -0.000126    -0.000193     0.000474
N       3.45020611      2.23121457     -1.34746508      0.001068     0.000037    -0.000686
H       3.74158985      1.86769697     -2.25567439      0.001102    -0.001474    -0.001604
H       3.94572841      3.12413419     -1.24463097      0.002162     0.001006    -0.000390
H       3.79276385      1.59915941     -0.61457242      0.001453    -0.000407     0.000347
23
Frame 93  Energy = -756.7388672838 Hartree
Al     -1.80576687      1.65828939     -0.05161377      0.000012     0.000132     0.000168
O      -0.21338986      1.40259299     -0.68145473     -0.000293    -0.000031     0.000408
H       0.12119333      0.51125772     -0.80554993      0.000153    -0.000070     0.000201
O      -2.07998113      3.43199923     -0.86698188     -0.000041     0.000096     0.000102
H      -1.66757248      4.23282396     -0.50320913     -0.000194     0.000012     0.000084
O      -2.91308599      0.86382371     -1.46477737      0.000156    -0.000129    -0.000117
H      -2.57241852      0.35935514     -2.21873267      0.000696     0.000645     0.000798
O      -1.99840743      0.01767027      1.06137098     -0.000328    -0.000212    -0.000130
H      -1.35845914     -0.18825067      1.75581375     -0.000355    -0.000245     0.000101
O      -3.55140400      2.06744053      0.76771261     -0.000306     0.000043    -0.000127
H      -4.06106455      2.89594082      0.67420079     -0.000194    -0.000516    -0.000886
O      -1.02356359      2.64556241      1.48882560     -0.000367    -0.000075     0.000423
H      -1.43667225      3.06491802      2.26040937     -0.000090     0.000893    -0.000329
H      -2.16361058      3.57977505     -1.82410390      0.000378    -0.000192    -0.000127
H      -3.95315218      1.56354906      1.49785336     -0.000346     0.001026    -0.000780
H      -3.87845432      0.93859123     -1.53105341      0.000616    -0.000878    -0.001086
H      -2.39040597     -0.82146858      0.80246783      0.000341     0.000094     0.000190
H       2.36661984      2.33842318     -1.30384609      0.002651     0.001073    -0.001464
H      -0.06648159      2.80599958      1.50238819     -0.000209    -0.000297     0.000635
N       3.47149298      2.23217201     -1.36211974      0.000874     0.000051    -0.000650
H       3.76068280      1.83433405     -2.28846467      0.000577    -0.001407    -0.001116
H       3.98366232      3.14341659     -1.25182589      0.001182     0.000517    -0.000329
H       3.82124447      1.59344039     -0.61205257      0.001042     0.000003    -0.000247
23
Frame 94  Energy = -756.7273517881 Hartree
Al     -1.80558601      1.66127320     -0.04787334      0.000003     0.000140     0.000174
O      -0.21993811      1.40170264     -0.67262523     -0.000302    -0.000053     0.000397
H       0.12511516      0.51160120     -0.80160355      0.000184     0.000149     0.000169
O      -2.08078754      3.43418787     -0.86498841     -0.000034     0.000101     0.000078
H      -1.67213899      4.23228321     -0.50140640     -0.000201    -0.000016     0.000095
O      -2.90937350      0.86126156     -1.46681097      0.000184    -0.000099    -0.000061
H      -2.55599442      0.37104289     -2.20702557      0.000888     0.000324     0.000128
O      -2.00519638      0.01363610      1.05863119     -0.000288    -0.000156    -0.000116
H      -1.36509067     -0.19273352      1.76033942     -0.000299    -0.000144     0.000260
O      -3.55822366      2.06871644      0.76509125     -0.000305     0.000073    -0.000123
H      -4.06338855      2.88310794      0.65317304     -0.000100    -0.000514    -0.001054
O      -1.03152205      2.64383916      1.49783961     -0.000357    -0.000084     0.000397
H      -1.43795447      3.08425194      2.25455098     -0.000074     0.000898    -0.000151
H      -2.15568241      3.57373066     -1.82534078      0.000349    -0.000355     0.000032
H      -3.96158175      1.58259980      1.48259807     -0.000520     0.000577    -0.000427
H      -3.86690187      0.91810175     -1.55585288      0.000339    -0.000974    -0.001167
H      -2.38902717     -0.82756033      0.80202473     -0.000230    -0.000670    -0.000244
H       2.46425490      2.35891815     -1.33772419      0.005634     0.000829    -0.001566
H      -0.07374130      2.79786657      1.51756893     -0.000445    -0.000448     0.000739
N       3.48966315      2.23337149     -1.37633853      0.000823     0.000055    -0.000656
H       3.76649607      1.81030945     -2.29850358     -0.000009    -0.000739     0.000211
H       3.99682735      3.14212449     -1.26130468      0.000085    -0.000616    -0.000569
H       3.83671010      1.60111576     -0.62722120      0.000376     0.000661    -0.001084
23
Frame 95  Energy = -756.7390829094 Hartree
Al     -1.80569603      1.66436436     -0.04400538     -0.000015     0.000141     0.000179
O      -0.22650550      1.40025689     -0.66416372     -0.000295    -0.000076     0.000374
H       0.12897733      0.51811367     -0.79802916      0.000177     0.000409     0.000155
O      -2.08153266      3.43626812     -0.86356390     -0.000034     0.000087     0.000054
H      -1.67561409      4.23365735     -0.49870595     -0.000109     0.000156     0.000148
O      -2.90502299      0.85948644     -1.46742969      0.000212    -0.000068    -0.000005
H      -2.53258358      0.37296157     -2.21383955      0.001201    -0.000071    -0.000627
O      -2.01099158      0.01053862      1.05637325     -0.000245    -0.000138    -0.000092
H      -1.37344652     -0.19398828      1.76503534     -0.000490     0.000029     0.000137
O      -3.56440309      2.07050118      0.76214481     -0.000258     0.000084    -0.000142
H      -4.06838058      2.87809329      0.62757208     -0.000383     0.000088    -0.001274
O      -1.03918686      2.64189434      1.50615671     -0.000344    -0.000093     0.000363
H      -1.44107827      3.10439449      2.25466399     -0.000215     0.000919     0.000136
H      -2.14830864      3.56476035     -1.82312708      0.000323    -0.000447     0.000135
H      -3.97764816      1.58641693      1.48258976     -0.000910    -0.000177     0.000359
H      -3.86489997      0.89663175     -1.58136144     -0.000102    -0.000975    -0.001136
H      -2.39819422     -0.84584180      0.79326870     -0.000508    -0.000797    -0.000488
H       2.56947830      2.37841424     -1.36930302      0.002780     0.001078    -0.001251
H      -0.08416585      2.78647555      1.53416632     -0.000446    -0.000584     0.000763
N       3.50971521      2.23423352     -1.39097265      0.001059     0.000014    -0.000679
H       3.76369442      1.80122485     -2.28456011     -0.000131    -0.000176     0.000811
H       3.99351310      3.12263318     -1.27721425     -0.000176    -0.000914    -0.000871
H       3.83959411      1.61789989     -0.65356102     -0.000035     0.000715    -0.001116
23
Frame 96  Energy = -756.7327852058 Hartree
Al     -1.80631633      1.66750379     -0.03993013     -0.000044     0.000148     0.000197
O      -0.23295144      1.39848722     -0.65613384     -0.000299    -0.000083     0.000367
H       0.13376925      0.52713344     -0.79503138      0.000286     0.000359     0.000115
O      -2.08225220      3.43800849     -0.86244736     -0.000031     0.000075     0.000053
H      -1.67729343      4.23866108     -0.49551575     -0.000064     0.000272     0.000121
O      -2.90004966      0.85795467     -1.46759804      0.000245    -0.000081    -0.000024
H      -2.50644660      0.37289056     -2.22694458      0.001125     0.000176    -0.000404
O      -2.01624141      0.00710001      1.05439686     -0.000245    -0.000183    -0.000095
H      -1.38670744     -0.19197264      1.76643235     -0.000706     0.000134     0.000025
O      -3.56989203      2.07228233      0.75919939     -0.000258     0.000079    -0.000121
H      -4.07927324      2.88431261      0.59790270     -0.000557     0.000352    -0.001420
O      -1.04689219      2.63984350      1.51401472     -0.000368    -0.000094     0.000366
H      -1.44682523      3.12324783      2.25828865     -0.000292     0.000776     0.000135
H      -2.14143039      3.55472371     -1.82116911      0.000312    -0.000463     0.000012
H      -3.99807723      1.58007176      1.49145233     -0.000872    -0.000261     0.000263
H      -3.86689735      0.87526746     -1.60490259      0.000037    -0.000990    -0.001006
H      -2.40766167     -0.85523460      0.78312596     -0.000312     0.000028    -0.000408
H       2.56553099      2.40880463     -1.39186380     -0.002553     0.001616    -0.000842
H      -0.09141993      2.77220564      1.55099149     -0.000206    -0.000731     0.000784
N       3.53673281      2.23384578     -1.40613949      0.001368    -0.000040    -0.000711
H       3.76573836      1.79731102     -2.27545106      0.000411    -0.000308    -0.000237
H       3.99818031      3.11295784     -1.29899745      0.000763     0.000208    -0.001118
H       3.83846179      1.62645566     -0.66815503     -0.000016    -0.000015    -0.000102
23
Frame 97  Energy = -756.7346621466 Hartree
Al     -1.80768975      1.67075922     -0.03541739     -0.000081     0.000147     0.000212
O      -0.23940448      1.39677859     -0.64828216     -0.000284    -0.000073     0.000344
H       0.14179357      0.53216505     -0.79312709      0.000430     0.000106     0.000062
O      -2.08284858      3.43957244     -0.86119272     -0.000022     0.000068     0.000061
H      -1.67922555      4.24395235     -0.49457817     -0.000124     0.000183    -0.000053
O      -2.89446855      0.85578798     -1.46880252      0.000260    -0.000115    -0.000086
H      -2.48580883      0.38315669     -2.22710398      0.000754     0.000742     0.000380
O      -2.02171635      0.00271444      1.05213106     -0.000251    -0.000204    -0.000112
H      -1.40239057     -0.18933565      1.76821041     -0.000679     0.000080     0.000182
O      -3.57596549      2.07402846      0.75713958     -0.000295     0.000083    -0.000067
H      -4.08961780      2.88743630      0.56793161     -0.000336    -0.000163    -0.001258
O      -1.05514750      2.63791774      1.52217656     -0.000376    -0.000080     0.000374
H      -1.45308383      3.13668152      2.25868053     -0.000273     0.000434    -0.000107
H      -2.13471345      3.54520916     -1.82300350      0.000300    -0.000392    -0.000156
H      -4.01254646      1.57968997      1.48820413     -0.000428     0.000261    -0.000588
H      -3.85997973      0.85403754     -1.62395617      0.000597    -0.000925    -0.000706
H      -2.41161382     -0.84524689      0.77579284     -0.000097     0.000743    -0.000288
H       2.50434659      2.44031792     -1.40710504     -0.002019     0.001067    -0.000577
H      -0.09403497      2.75459954      1.56807102     -0.000084    -0.000868     0.000761
N       3.56555882      2.23318187     -1.42140182      0.001186    -0.000006    -0.000667
H       3.78289523      1.78559173     -2.29913750      0.001102    -0.000707    -0.001776
H       4.02820816      3.13173148     -1.32540767      0.001861     0.001283    -0.001278
H       3.83925142      1.61808060     -0.65832708      0.000056    -0.000608     0.000832
23
Frame 98  Energy = -756.7414977614 Hartree
Al     -1.80992744      1.67394431     -0.03059601     -0.000125     0.000146     0.000232
O      -0.24527218      1.39519641     -0.64108494     -0.000254    -0.000077     0.000318
H       0.15151479      0.53369167     -0.79182887      0.000430     0.000095     0.000071
O      -2.08323868      3.44098560     -0.85987307     -0.000015     0.000061     0.000057
H      -1.68278437      4.24664752     -0.49801814     -0.000191     0.000088    -0.000253
O      -2.88864206      0.85307436     -1.47108670      0.000278    -0.000128    -0.000113
H      -2.47067765      0.40241311     -2.21482638      0.000742     0.000919     0.000574
O      -2.02707414     -0.00129076      1.04958942     -0.000237    -0.000152    -0.000118
H      -1.41596628     -0.18920547      1.77522546     -0.000588    -0.000076     0.000448
O      -3.58268438      2.07606786      0.75600678     -0.000314     0.000108    -0.000048
H      -4.09411108      2.87660231      0.54342932     -0.000128    -0.000763    -0.001007
O      -1.06320332      2.63629284      1.53033776     -0.000362    -0.000072     0.000374
H      -1.45947040      3.14304121      2.25485998     -0.000342     0.000190    -0.000188
H      -2.12815335      3.53767180     -1.82630725      0.000306    -0.000302    -0.000104
H      -4.01902600      1.58969246      1.46886673     -0.000271     0.000551    -0.001026
H      -3.84340520      0.83503334     -1.63581588      0.000811    -0.000821    -0.000397
H      -2.41527215     -0.83073103      0.76831396     -0.000317     0.000406    -0.000452
H       2.50080215      2.45167004     -1.41862944      0.001879    -0.000039    -0.000514
H      -0.09752249      2.73402857      1.58432471     -0.000276    -0.001024     0.000736
N       3.58789096      2.23389649     -1.43548461      0.000876     0.000072    -0.000635
H       3.81085956      1.77111331     -2.34147616      0.001385    -0.000494    -0.001792
H       4.07339293      3.15657058     -1.35522106      0.002142     0.000714    -0.001462
H       3.83926182      1.60738630     -0.64125567     -0.000078    -0.000210     0.000516
23
Frame 99  Energy = -756.7356282006 Hartree
Al     -1.81309932      1.67706281     -0.02535367     -0.000165     0.000139     0.000248
O      -0.25030330      1.39335863     -0.63455590     -0.000207    -0.000092     0.000281
H       0.15925093      0.53810984     -0.78961611      0.000269     0.000317     0.000136
O      -2.08355914      3.44210295     -0.85883626     -0.000016     0.000040     0.000036
H      -1.68667429      4.24925911     -0.50466563     -0.000146     0.000184    -0.000333
O      -2.88237267      0.85052833     -1.47319429      0.000299    -0.000102    -0.000074
H      -2.44966402      0.41861080     -2.20928140      0.001229     0.000514    -0.000153
O      -2.03181169     -0.00364056      1.04717002     -0.000197    -0.000066    -0.000102
H      -1.42942860     -0.19267506      1.78578744     -0.000689    -0.000240     0.000467
O      -3.58903107      2.07868770      0.75464111     -0.000257     0.000130    -0.000084
H      -4.09869179      2.85985786      0.52303798     -0.000380    -0.000631    -0.000901
O      -1.07073468      2.63465770      1.53821103     -0.000330    -0.000080     0.000345
H      -1.46897384      3.14662951      2.25303309     -0.000541     0.000167     0.000058
H      -2.12145265      3.53202364     -1.82634952      0.000305    -0.000218     0.000100
H      -4.02907693      1.59810609      1.45171258     -0.000731     0.000126    -0.000413
H      -3.82998421      0.81847335     -1.64194779      0.000341    -0.000702    -0.000185
H      -2.42658482     -0.83125061      0.75551101     -0.000685    -0.000402    -0.000692
H       2.57955164      2.44098880     -1.43040777      0.004854    -0.000813    -0.000585
H      -0.10613518      2.71059549      1.60007624     -0.000481    -0.001111     0.000714
N       3.60449437      2.23612418     -1.44923108      0.000684     0.000124    -0.000632
H       3.83994890      1.76798322     -2.36606547      0.001239     0.000231    -0.000336
H       4.11615358      3.15492552     -1.38791821      0.001724    -0.000913    -0.001502
H       3.83628785      1.61307024     -0.64209204     -0.000152     0.000741    -0.000633
23
Frame 100  Energy = -756.7364744449 Hartree
Al     -1.81718597      1.68007242     -0.01964533     -0.000207     0.000135     0.000273
O      -0.25445835      1.39125269     -0.62867614     -0.000175    -0.000096     0.000257
H       0.16382148      0.54626570     -0.78596134      0.000174     0.000365     0.000189
O      -2.08395540      3.44272217     -0.85822971     -0.000020     0.000018     0.000021
H      -1.68883454      4.25526735     -0.51201007     -0.000053     0.000352    -0.000330
O      -2.87535863      0.84854196     -1.47441462      0.000343    -0.000085    -0.000047
H      -2.41814558      0.42626145     -2.21972316      0.001539     0.000271    -0.000653
O      -2.03593175     -0.00464176      1.04501884     -0.000185    -0.000037    -0.000098
H      -1.44756085     -0.19975365      1.79423865     -0.000975    -0.000408     0.000292
O      -3.59391097      2.08160152      0.75237740     -0.000194     0.000132    -0.000115
H      -4.11299337      2.85217909      0.50259411     -0.000919    -0.000078    -0.000965
O      -1.07794721      2.63272087      1.54551626     -0.000334    -0.000096     0.000324
H      -1.48282545      3.15041824      2.25742260     -0.000692     0.000154     0.000307
H      -2.11485582      3.52789757     -1.82310390      0.000291    -0.000162     0.000151
H      -4.05120730      1.59504961      1.45070562     -0.001207    -0.000321     0.000197
H      -3.82805598      0.80374294     -1.64456825     -0.000078    -0.000650    -0.000059
H      -2.44192969     -0.84180721      0.74050578     -0.000618    -0.000371    -0.000604
H       2.67867244      2.42454013     -1.44489333      0.003094    -0.000429    -0.000743
H      -0.11651424      2.68564635      1.61625923     -0.000414    -0.001154     0.000776
N       3.62043991      2.23884079     -1.46360463      0.000838     0.000110    -0.000684
H       3.86530494      1.77903739     -2.35750944      0.001105     0.000653     0.000945
H       4.15022095      3.12052974     -1.41979576      0.001470    -0.002003    -0.001365
H       3.83547897      1.63663336     -0.66586862      0.000166     0.001253    -0.001360
