23
Image 0  Energy = -756.8029562857
Al -1.9113589218  1.5999088686 -0.2137445929
O  -0.9017241708  0.8877421893 -1.7433410472
H  -0.8497581944  1.3070624772 -2.6166676247
O  -2.5154634974  3.1025545152 -1.3016467698
H  -2.0074485536  3.9266071404 -1.2570729298
O  -3.3953116460  0.5788236723 -1.0419650832
H  -3.3062644845 -0.0388371757 -1.7854278861
O  -1.4799456849 -0.0143289250  0.7934952989
H  -0.7055114621  0.0151142617  1.3760929392
O  -3.2834981303  2.0422208360  1.1392818760
H  -3.7284649977  2.9010794781  1.2170015867
O  -0.5563066609  2.4793141266  0.4164227755
H  -0.5887178674  2.9465807907  1.2540326513
H  -3.2778726200  3.2231906733 -1.8904879219
H  -3.3813006259  1.5886414384  1.9919347368
H  -4.3093459777  0.5375007674 -0.7190615054
H  -1.8621237661 -0.9063145886  0.8252863000
H  -0.0812560810  0.3916751011 -1.6070589625
H   2.0752230500  3.7552543917  0.2913652548
N   3.0076048280  4.1635518930  0.1939499688
H   3.0868156979  4.6649121129 -0.6961009856
H   3.1843559514  4.8201564614  0.9615768756
H   3.7133888213  3.4211271015  0.2222194960
