23
Frame 1  Energy = -756.5867882246 Hartree
Al     -1.80328374      1.73249607     -0.02443092      0.000038     0.000057    -0.000197
O      -0.35584433      1.25239836     -1.12598739      0.000055     0.000346     0.000002
H      -0.06344169      1.98097958     -1.74119356      0.000547    -0.000494    -0.000508
O      -2.08181615      3.25623908     -1.08671848     -0.000013     0.000110     0.000218
H      -1.84500076      4.10420625     -0.65055949     -0.000774     0.000725     0.000392
O      -2.94569500      0.77864701     -1.17803845     -0.000194     0.000115    -0.000105
H      -2.51184241     -0.00673642     -1.58095526      0.000385    -0.000572    -0.001005
O      -1.54056473      0.20705303      1.03210592     -0.000210     0.000266    -0.000166
H      -0.61492623     -0.08913095      1.07753286     -0.000491    -0.000667     0.000257
O      -3.23226334      2.22021973      1.09420948     -0.000022     0.000074    -0.000336
H      -3.77851711      2.97613827      0.81499996     -0.000736    -0.000708     0.000169
O      -0.65983397      2.71306883      1.08658298      0.000025    -0.000211     0.000070
H      -0.17039518      2.15011941      1.72231956      0.000244     0.000508    -0.000071
H      -3.00831469      3.35457873     -1.36560142      0.000381    -0.001292    -0.001348
H      -3.85101556      1.49439966      1.25879255     -0.000582    -0.000326     0.000261
H      -3.75783151      0.43779224     -0.77197714      0.000171     0.000060    -0.000154
H      -2.01583747     -0.58514411      0.71906389      0.000800    -0.000181     0.000318
H       0.45603855      1.03520497     -0.61532877      0.000504     0.000837    -0.001100
H       0.02331515      3.21741997      0.61312740     -0.000268    -0.000163    -0.001007
N       2.76310234      2.49966311     -0.96949025     -0.000044    -0.000158     0.000242
H       3.77220776      2.47410872     -0.95111875      0.000565     0.000058     0.000167
H       2.47147823      2.83555733     -0.06643933      0.001197    -0.000109     0.001046
H       2.51701367      1.51591379     -0.99846969      0.000145    -0.001965    -0.000563
23
Frame 2  Energy = -756.6100014373 Hartree
Al     -1.80319740      1.73123035     -0.02875691     -0.000283    -0.000090    -0.000114
O      -0.34435680      1.25649434     -1.14000794     -0.000190     0.000071    -0.000316
H      -0.03571460      1.92322166     -1.79784403     -0.000249     0.000485     0.000498
O      -2.09574118      3.25925331     -1.07786365     -0.000150     0.000325     0.000237
H      -1.84952053      4.12560628     -0.71881182     -0.000545    -0.000982     0.000315
O      -2.94936172      0.77308225     -1.16965080     -0.000140     0.000058     0.000023
H      -2.54005540      0.04109067     -1.66913919      0.000749     0.000426    -0.000859
O      -1.54496236      0.20016087      1.03324762     -0.000070    -0.000179     0.000146
H      -0.61514175     -0.11378257      1.15157187      0.000029     0.000595    -0.000536
O      -3.24084343      2.20818082      1.09436718      0.000161     0.000088     0.000025
H      -3.79868294      2.98463782      0.91521732     -0.000226    -0.000207     0.000573
O      -0.64791707      2.71358784      1.09284574     -0.000114    -0.000019    -0.000278
H      -0.19714602      2.18198277      1.77052333      0.000691     0.000062     0.000402
H      -3.00212739      3.34770031     -1.40055364     -0.000222    -0.000036    -0.000144
H      -3.85939545      1.50842990      1.35362617     -0.000738     0.000176     0.000056
H      -3.80439821      0.47512780     -0.78638738      0.000747     0.000160     0.000546
H      -2.02747658     -0.59422380      0.76137230     -0.000977     0.000457     0.000430
H       0.47762353      1.04650177     -0.66676481     -0.001037     0.000133     0.000019
H       0.05174627      3.21914059      0.61544280     -0.000189     0.000072    -0.000454
N       2.76673653      2.50007615     -0.96370983     -0.000014    -0.000090     0.000139
H       3.77527550      2.50251170     -0.94728847      0.000545     0.000355    -0.000304
H       2.51526973      2.85995007     -0.03706007     -0.000571     0.000557     0.000817
H       2.51789995      1.51298528     -0.96345687     -0.002065     0.001280     0.000569
23
Frame 3  Energy = -756.6134835019 Hartree
Al     -1.80498962      1.72665595     -0.03245372      0.000102    -0.000103     0.000171
O      -0.34078775      1.25580080     -1.14183145      0.000226     0.000182    -0.000208
H      -0.02924972      1.92325032     -1.80443074      0.000384     0.000481    -0.000601
O      -2.09926059      3.27031367     -1.07661126     -0.000394    -0.000009     0.000203
H      -1.84769099      4.14751654     -0.74096976      0.000653    -0.000395     0.000091
O      -2.94966688      0.76917508     -1.17078005      0.000069    -0.000265    -0.000123
H      -2.58348275      0.04799394     -1.73179412     -0.001017    -0.000301     0.000783
O      -1.54035274      0.19441386      1.04215709      0.000113    -0.000181    -0.000040
H      -0.65286948     -0.16811689      1.16700629      0.001173    -0.001056     0.000931
O      -3.24068841      2.20191863      1.10519831     -0.000207    -0.000082    -0.000128
H      -3.78689668      2.99101832      0.97173105      0.000847    -0.000768    -0.000503
O      -0.63190159      2.71243366      1.09405102     -0.000329     0.000155    -0.000264
H      -0.19931468      2.23652358      1.79957113     -0.000044    -0.000254     0.001545
H      -2.98312568      3.37431596     -1.46743529      0.000980    -0.000393     0.000448
H      -3.87807191      1.50383564      1.41352606      0.000271     0.000890    -0.000475
H      -3.82456480      0.47141267     -0.85658374     -0.000460    -0.001521    -0.000224
H      -2.05066322     -0.60531016      0.79317611     -0.000849     0.000165    -0.000337
H       0.52307521      1.05167998     -0.70773088     -0.000334    -0.001011    -0.001285
H       0.08139381      3.24283744      0.65825322      0.000288     0.000204    -0.001457
N       2.75288538      2.50699761     -0.96681997      0.000120     0.000263     0.000212
H       3.77136842      2.50725395     -0.97235978      0.000091    -0.000071    -0.000073
H       2.52146135      2.89040770     -0.04316577     -0.000230    -0.000414    -0.000384
H       2.49018215      1.52810448     -0.96418081      0.000526     0.001223     0.000353
23
Frame 4  Energy = -756.6261855449 Hartree
Al     -1.79942524      1.72904787     -0.02505973      0.000178    -0.000088    -0.000158
O      -0.33739524      1.25376322     -1.14655184     -0.000131    -0.000039    -0.000121
H      -0.03080382      1.92512914     -1.81261894      0.000218    -0.000268     0.000501
O      -2.09518489      3.27653346     -1.07445420      0.000259     0.000104     0.000017
H      -1.84746544      4.18743732     -0.77599662     -0.001354    -0.000960    -0.000013
O      -2.95910629      0.75385467     -1.17122109      0.000176    -0.000146     0.000316
H      -2.58436094      0.07967117     -1.77611488      0.000610     0.000449     0.000418
O      -1.53983052      0.17970014      1.03234875     -0.000432    -0.000008     0.000004
H      -0.65399054     -0.18530056      1.18319599      0.000213    -0.000942     0.000958
O      -3.25421385      2.19790050      1.09684400     -0.000001    -0.000190    -0.000017
H      -3.77028669      3.01362847      0.98998526      0.000732    -0.000830     0.000030
O      -0.63275630      2.71031915      1.10368369     -0.000048     0.000351     0.000115
H      -0.21999263      2.26085250      1.86009529     -0.000784     0.000525     0.000174
H      -2.98602996      3.37115812     -1.48343471      0.000460    -0.000819    -0.000248
H      -3.86299289      1.55146459      1.47412565      0.000783    -0.000408     0.000399
H      -3.84198960      0.39636508     -0.91054674      0.000980     0.000451     0.001002
H      -2.08518022     -0.62814327      0.89116529     -0.001252    -0.000509     0.000207
H       0.49977657      1.00455024     -0.71079969     -0.001044     0.000298    -0.000335
H       0.08574828      3.20167793      0.67770212     -0.000943     0.001089     0.000092
N       2.75075018      2.50224346     -0.96034088     -0.000156    -0.000366     0.000143
H       3.75963480      2.52084772     -1.00798648      0.000966     0.000679     0.000630
H       2.55333759      2.89002300     -0.01640162      0.000368    -0.000473     0.001225
H       2.53326893      1.49717869     -0.95040916      0.000696     0.000711     0.000379
23
Frame 5  Energy = -756.6372710225 Hartree
Al     -1.79539735      1.73601865     -0.03132005     -0.000180    -0.000084    -0.000200
O      -0.33563333      1.25601222     -1.14313949      0.000268     0.000069    -0.000020
H      -0.04342215      1.90308988     -1.80717539     -0.000641     0.000149    -0.000252
O      -2.09503644      3.26282163     -1.07137313     -0.000058    -0.000106     0.000362
H      -1.84106044      4.17327254     -0.80359745     -0.000689    -0.000912     0.000123
O      -2.95317535      0.75087862     -1.17051193      0.000092    -0.000212     0.000118
H      -2.57579518      0.09898690     -1.78895771      0.000043    -0.000043     0.000205
O      -1.54510458      0.17818709      1.02741388      0.000020    -0.000297     0.000088
H      -0.66023570     -0.20786783      1.19699729     -0.000884    -0.000700     0.000740
O      -3.26590933      2.18900458      1.08281848      0.000247    -0.000014     0.000030
H      -3.79713380      3.02099076      1.04052742      0.000524    -0.000597    -0.000080
O      -0.64200340      2.71588363      1.10503024     -0.000057    -0.000331     0.000039
H      -0.26285397      2.25755835      1.86059476     -0.000053     0.001148     0.001677
H      -2.95686279      3.37789428     -1.52699398      0.001311     0.000388    -0.000302
H      -3.85581149      1.51486899      1.49862254     -0.000040    -0.000329    -0.000355
H      -3.83552149      0.39250190     -0.94277813     -0.000630    -0.000205    -0.000157
H      -2.09643210     -0.62141080      0.91016912      0.000680     0.000825     0.000042
H       0.51295379      0.94320842     -0.73560500     -0.001386     0.000788     0.000148
H       0.08404629      3.25990302      0.68633538     -0.000340    -0.000175     0.000273
N       2.73604210      2.50270507     -0.95594984      0.000120     0.000048    -0.000245
H       3.74450371      2.54510538     -1.06187589      0.000114    -0.000591     0.000683
H       2.52802704      2.86560933     -0.04768914      0.000646    -0.000119     0.000525
H       2.59335435      1.49513358     -0.95440765      0.000229    -0.000508     0.000531
23
Frame 6  Energy = -756.6348933606 Hartree
Al     -1.79847098      1.72563460     -0.02640727      0.000008    -0.000249    -0.000001
O      -0.33627849      1.24807229     -1.14269958      0.000218     0.000300     0.000064
H      -0.04169457      1.89825731     -1.86653396      0.000018    -0.000297     0.000036
O      -2.09671027      3.26361614     -1.07421907      0.000059     0.000292     0.000295
H      -1.83835561      4.16349533     -0.83186596     -0.000286     0.000020     0.000225
O      -2.96478480      0.74722600     -1.15632496     -0.000119     0.000021     0.000058
H      -2.58952753      0.10369517     -1.82221209     -0.000822     0.000203    -0.000166
O      -1.54589120      0.17370258      1.03597104      0.000003     0.000269     0.000126
H      -0.66079078     -0.17935406      1.29178672      0.001709     0.000483    -0.000037
O      -3.27189958      2.19094029      1.08069692     -0.000166     0.000116     0.000429
H      -3.80034751      2.99443318      1.07643659     -0.001335    -0.000434    -0.000965
O      -0.63681495      2.71080213      1.10204085      0.000240     0.000019    -0.000152
H      -0.29278847      2.29983289      1.92534039     -0.000045    -0.000400    -0.000481
H      -2.94796539      3.35645149     -1.56221814      0.001372    -0.000354     0.000283
H      -3.83898378      1.54299771      1.50959316      0.001200    -0.000908    -0.000525
H      -3.85210533      0.41011345     -0.95673160      0.000185     0.000860     0.000375
H      -2.08816782     -0.62620976      0.89504440     -0.001576    -0.000033    -0.001571
H       0.50367078      0.93467402     -0.76012338      0.000237    -0.000130    -0.000604
H       0.05505969      3.26684780      0.71436759      0.000450    -0.001281     0.000756
N       2.72910545      2.50407720     -0.96041936      0.000056     0.000162    -0.000090
H       3.74960074      2.52063909     -1.07600651     -0.001041     0.000518     0.000021
H       2.57213242      2.88097826     -0.03108601     -0.001097    -0.000092    -0.000324
H       2.59686988      1.50741687     -0.92771461     -0.000389     0.000551     0.000197
23
Frame 7  Energy = -756.6386294715 Hartree
Al     -1.78732274      1.71897963     -0.03458674      0.000173     0.000140     0.000221
O      -0.33784441      1.25857329     -1.14028976      0.000053     0.000065    -0.000197
H      -0.07740346      1.83456466     -1.86902400      0.000854     0.000852    -0.000688
O      -2.09332411      3.26285584     -1.07509669     -0.000099    -0.000098     0.000349
H      -1.83290938      4.17852843     -0.85530361      0.000425     0.001345     0.000452
O      -2.97616664      0.74086171     -1.16216979     -0.000069    -0.000227    -0.000206
H      -2.59127540      0.12374271     -1.82938383     -0.000163    -0.000635    -0.001039
O      -1.54488201      0.19208495      1.04074598     -0.000061     0.000380     0.000138
H      -0.68099724     -0.19579553      1.31854702     -0.000830    -0.000287    -0.000571
O      -3.27507468      2.18869904      1.09243460     -0.000079     0.000096     0.000101
H      -3.80685141      2.99818140      1.09880896      0.000322     0.000633     0.000716
O      -0.64106995      2.69457513      1.10590394     -0.000180    -0.000147    -0.000268
H      -0.30297234      2.30189490      1.93421291      0.000493    -0.000154     0.000250
H      -2.89646663      3.34395844     -1.58784305      0.000688    -0.000367    -0.001495
H      -3.82783250      1.52615508      1.54578958      0.001141     0.000279    -0.000573
H      -3.88087568      0.42179668     -0.99758533      0.000463    -0.000637    -0.000661
H      -2.09726131     -0.60053675      0.88580379      0.000145    -0.000403     0.000136
H       0.51151458      0.92787290     -0.77266712      0.000723     0.000986    -0.001789
H       0.05151459      3.26297558      0.72939465      0.000138     0.000221     0.000174
N       2.72295606      2.50415428     -0.94947456     -0.000177    -0.000115     0.000431
H       3.71235255      2.56059226     -1.09128877      0.001173    -0.001013    -0.001112
H       2.55314509      2.85089917     -0.00260956     -0.000051     0.000109    -0.000220
H       2.65877187      1.50620548     -0.91807671      0.000278    -0.000216    -0.000324
23
Frame 8  Energy = -756.6514251584 Hartree
Al     -1.78717107      1.71789757     -0.02668643      0.000069     0.000071    -0.000055
O      -0.33190604      1.25813418     -1.15003421      0.000142     0.000135     0.000287
H      -0.05580805      1.84632244     -1.88070570      0.001535    -0.000822    -0.000352
O      -2.08781575      3.26623717     -1.07326331      0.000187    -0.000009    -0.000034
H      -1.84870479      4.18429765     -0.85903005     -0.000242    -0.000030    -0.000055
O      -2.97566774      0.73061712     -1.16938747     -0.000070    -0.000264    -0.000028
H      -2.59249268      0.15856685     -1.86810715     -0.000133    -0.000299     0.000306
O      -1.55383213      0.18713791      1.03725768      0.000150    -0.000181    -0.000179
H      -0.68534699     -0.17924660      1.32220882     -0.000890    -0.001096     0.000811
O      -3.27969350      2.18292331      1.09936881      0.000110    -0.000067    -0.000076
H      -3.76788164      3.03801086      1.12068479     -0.000302     0.000904    -0.000054
O      -0.62955773      2.69007407      1.10815283     -0.000098    -0.000040    -0.000087
H      -0.29178533      2.33503859      1.93908522     -0.000909    -0.000403     0.000616
H      -2.89165632      3.31164055     -1.62285931     -0.000633    -0.000460    -0.000628
H      -3.82702087      1.52242366      1.58021030      0.000162    -0.000380    -0.000547
H      -3.89237540      0.44705732     -1.00946661      0.000457    -0.000537    -0.001426
H      -2.10773906     -0.59563694      0.89044713      0.000425     0.001392    -0.000261
H       0.49833800      0.92180835     -0.78089886     -0.000406     0.000861    -0.001463
H       0.03405137      3.26934183      0.75080740     -0.000362     0.000162     0.000139
N       2.71468219      2.49428889     -0.94442667      0.000003     0.000069     0.000158
H       3.71244112      2.63864887     -1.11290776     -0.001944     0.000095     0.000754
H       2.58891411      2.84906609      0.02422065     -0.000550     0.000990    -0.000534
H       2.68069561      1.47274050     -0.88008436     -0.000204    -0.000361     0.000823
23
Frame 9  Energy = -756.6496987487 Hartree
Al     -1.79159032      1.71676058     -0.02611116     -0.000208    -0.000096    -0.000067
O      -0.32499502      1.27388947     -1.14575175     -0.000007     0.000091    -0.000207
H      -0.04712347      1.79725624     -1.91994062      0.001547     0.000178     0.001370
O      -2.09309243      3.26716497     -1.07725593      0.000199    -0.000162    -0.000044
H      -1.84587718      4.20076392     -0.88440736     -0.000066    -0.000289    -0.001157
O      -2.97069210      0.72427031     -1.17034596     -0.000246     0.000125     0.000095
H      -2.60246330      0.17116593     -1.86419469      0.001273    -0.000600    -0.001059
O      -1.54483955      0.18450241      1.03972222      0.000067     0.000077    -0.000086
H      -0.68620267     -0.17065610      1.34987759     -0.000203    -0.000184     0.001130
O      -3.27870617      2.18449202      1.10101423     -0.000174    -0.000108     0.000026
H      -3.75072565      3.02807606      1.14143048     -0.000279    -0.001549    -0.000426
O      -0.61734494      2.68801302      1.09901879     -0.000251     0.000274     0.000194
H      -0.32055824      2.34899896      1.95983934     -0.000552    -0.000641    -0.000847
H      -2.86545417      3.31165446     -1.64924635     -0.000919    -0.001041     0.000888
H      -3.79224408      1.55127571      1.59518001     -0.000481     0.000095     0.000515
H      -3.89427745      0.44453306     -1.02178512      0.000155    -0.000409    -0.000181
H      -2.11694195     -0.59725422      0.89510668     -0.001249     0.001035    -0.000236
H       0.51223855      0.94596787     -0.79121858      0.000165    -0.001280     0.000642
H       0.07231506      3.28113293      0.77360355     -0.000641    -0.000055    -0.000352
N       2.71549697      2.49932113     -0.94841443      0.000210     0.000349     0.000151
H       3.69336391      2.66264313     -1.14523987      0.000138     0.000058    -0.000353
H       2.58088392      2.84230422     -0.00348359      0.000589     0.000427     0.000385
H       2.69243930      1.50405297     -0.84759599     -0.000709     0.000327    -0.000948
23
Frame 10  Energy = -756.6603224427 Hartree
Al     -1.78923163      1.71391830     -0.02513913      0.000280    -0.000059     0.000080
O      -0.32115361      1.28183261     -1.14609341      0.000147    -0.000099    -0.000114
H      -0.01266723      1.82847128     -1.90294313     -0.000469    -0.000596    -0.000353
O      -2.08535732      3.26704062     -1.08158951      0.000277     0.000152     0.000082
H      -1.81556070      4.18999892     -0.92187279      0.000706    -0.000411     0.001428
O      -2.97017395      0.71884705     -1.17431859     -0.000027     0.000047    -0.000004
H      -2.60338662      0.15937457     -1.86211702      0.000623    -0.000724    -0.000488
O      -1.54431893      0.18129601      1.04378676     -0.000057    -0.000231    -0.000089
H      -0.73746206     -0.19814512      1.41153923      0.000437     0.000227     0.000499
O      -3.28416313      2.17317138      1.09818190     -0.000046     0.000043     0.000235
H      -3.71141905      3.06161682      1.17525538      0.000921     0.000506     0.000492
O      -0.61676180      2.68872101      1.10201740      0.000041     0.000042     0.000216
H      -0.34041574      2.34967782      1.97974507     -0.001160    -0.000240    -0.000146
H      -2.87330897      3.32526871     -1.66364483      0.000061     0.000147     0.000020
H      -3.77641680      1.52767124      1.64827513      0.000402    -0.001114    -0.000149
H      -3.90913422      0.48261653     -1.03529144     -0.000316     0.000488     0.000641
H      -2.12643469     -0.58623733      0.89196913     -0.000218     0.000167     0.000721
H       0.51874272      0.93264864     -0.81402972      0.000212    -0.000256     0.001226
H       0.11452670      3.26283157      0.78460713      0.000228     0.000103    -0.000297
N       2.71237909      2.49749665     -0.93873773     -0.000206     0.000103    -0.000124
H       3.70042543      2.65436319     -1.19174308     -0.000967     0.001703    -0.000203
H       2.59647998      2.86514004      0.01189740      0.000260     0.000840     0.000323
H       2.73597387      1.48087101     -0.85009571      0.000603    -0.001496     0.000398
23
Frame 11  Energy = -756.6537331792 Hartree
Al     -1.78476003      1.70888738     -0.02272946      0.000052    -0.000224     0.000162
O      -0.32383132      1.27786820     -1.15832922     -0.000095    -0.000204     0.000243
H      -0.01545807      1.82000412     -1.90413925     -0.000585     0.000850     0.000236
O      -2.08485393      3.27977105     -1.07977089      0.000302    -0.000153     0.000280
H      -1.78536221      4.19016806     -0.91272996     -0.000266    -0.000378     0.000956
O      -2.98004923      0.72052346     -1.16852506     -0.000101    -0.000376     0.000033
H      -2.64086396      0.13420411     -1.86664408      0.000853    -0.000248     0.000237
O      -1.55154384      0.17201426      1.05502871     -0.000042    -0.000043     0.000016
H      -0.69379680     -0.20217675      1.37802332      0.001279    -0.001050    -0.000543
O      -3.28207211      2.17012171      1.10101136     -0.000014    -0.000004     0.000264
H      -3.69710744      3.05530309      1.20467828     -0.000828     0.000345    -0.000232
O      -0.60639059      2.68331085      1.09655255     -0.000229    -0.000255    -0.000051
H      -0.35457578      2.35872348      1.97757693      0.000698     0.000824     0.000425
H      -2.86984983      3.34188034     -1.65126476      0.000906    -0.000062    -0.000376
H      -3.78313276      1.55216158      1.65801854     -0.000805    -0.000472     0.000688
H      -3.93283025      0.47332093     -1.03894639     -0.000446     0.001395     0.000433
H      -2.14825925     -0.58983550      0.95533689     -0.000193     0.001242    -0.000238
H       0.52743666      0.93299937     -0.81866638     -0.000328    -0.000321    -0.000665
H       0.12321474      3.28568622      0.79305809      0.001181    -0.000195    -0.000988
N       2.71419770      2.49455167     -0.93867911     -0.000248    -0.000163     0.000126
H       3.67028957      2.70305905     -1.22655766      0.000180    -0.000998    -0.000373
H       2.63443528      2.85350534      0.03044787      0.000142     0.000066     0.000739
H       2.75523867      1.49547052     -0.82083992      0.001644    -0.000908     0.001349
23
Frame 12  Energy = -756.6621315573 Hartree
Al     -1.79372150      1.70795963     -0.02412797      0.000041    -0.000059     0.000055
O      -0.32430149      1.27825360     -1.15379351      0.000010     0.000175    -0.000288
H      -0.03326356      1.84268014     -1.92767139      0.000795    -0.000498    -0.000407
O      -2.07242720      3.27821548     -1.07026592     -0.000072    -0.000133    -0.000036
H      -1.77592719      4.19693139     -0.88514736      0.000015    -0.000914     0.000667
O      -2.98432822      0.71852266     -1.16764714      0.000310     0.000106    -0.000316
H      -2.63107754      0.15237819     -1.86396185     -0.000891     0.000103    -0.000263
O      -1.54624753      0.16939698      1.05095859     -0.000012     0.000140    -0.000089
H      -0.72238973     -0.18893615      1.40203172     -0.000053    -0.000291     0.000427
O      -3.28466480      2.16507657      1.10373329      0.000180    -0.000226     0.000299
H      -3.70641980      3.03765861      1.17357234     -0.000392     0.000669    -0.000366
O      -0.60056368      2.68093067      1.10453479     -0.000305     0.000183    -0.000268
H      -0.35449476      2.38547990      1.98790743     -0.000721    -0.000074     0.000793
H      -2.84859564      3.35872697     -1.67188904      0.000091     0.000621    -0.000036
H      -3.76282073      1.52822708      1.67695421     -0.000086     0.001047    -0.000089
H      -3.92505350      0.52386585     -1.03120996      0.000641    -0.000723     0.000411
H      -2.12292364     -0.62344121      0.95516661      0.000119     0.000421     0.000230
H       0.53452415      0.90415016     -0.83442035      0.001206     0.000274     0.000020
H       0.12530292      3.24620318      0.76923581      0.000460     0.000430    -0.000845
N       2.71726152      2.48880976     -0.93032003     -0.000144    -0.000203    -0.000011
H       3.65262913      2.72992067     -1.24967585      0.001564    -0.001313    -0.001152
H       2.68979466      2.84039509      0.02167856      0.000220    -0.000193    -0.000482
H       2.79372663      1.48870122     -0.78252209      0.000241    -0.000971     0.001544
23
Frame 13  Energy = -756.6666190325 Hartree
Al     -1.79600404      1.70277795     -0.02794607      0.000261     0.000112     0.000076
O      -0.30972543      1.27875181     -1.17053531      0.000144     0.000021    -0.000423
H      -0.03391999      1.84076931     -1.92058460      0.001149    -0.000299     0.000162
O      -2.08559511      3.28363631     -1.07696847      0.000103    -0.000161     0.000275
H      -1.75523515      4.18884105     -0.89218322      0.000011    -0.000948     0.000179
O      -2.98080819      0.72727746     -1.16589111     -0.000005    -0.000248    -0.000042
H      -2.64638862      0.12989908     -1.87409281      0.000242    -0.001336    -0.000685
O      -1.54351666      0.16885149      1.04054206     -0.000147    -0.000118    -0.000236
H      -0.73199996     -0.16909522      1.40783330      0.000290    -0.000155     0.000250
O      -3.28459016      2.15939248      1.10100988     -0.000288    -0.000104     0.000104
H      -3.71725896      3.03181772      1.15846169      0.000251     0.000836    -0.000554
O      -0.60087202      2.67739680      1.09638396      0.000074    -0.000084    -0.000001
H      -0.38676370      2.38722996      2.00813014     -0.000152     0.000236    -0.000299
H      -2.84527093      3.35127649     -1.68246520     -0.000853     0.000005    -0.000451
H      -3.79423888      1.55356710      1.65699892      0.000757    -0.000121     0.000195
H      -3.93163900      0.56292420     -1.03514442     -0.000805    -0.000694     0.000368
H      -2.15803540     -0.60677465      0.95964363     -0.000075     0.000742     0.000141
H       0.51454520      0.89620327     -0.84857571      0.000308     0.000145    -0.000888
H       0.12629108      3.24825494      0.79698350      0.000441    -0.000799    -0.000675
N       2.72194776      2.48192561     -0.92574583     -0.000111     0.000382     0.000088
H       3.65772933      2.74650988     -1.25891148     -0.000283     0.000772     0.000374
H       2.69848349      2.85877139      0.03261813     -0.000503     0.000830    -0.001618
H       2.85853447      1.48382318     -0.75527322     -0.000607     0.000121     0.000112
23
Frame 14  Energy = -756.6673766336 Hartree
Al     -1.79539608      1.70672845     -0.03014749      0.000017    -0.000151     0.000199
O      -0.31330813      1.27038990     -1.16947971     -0.000128    -0.000020     0.000005
H      -0.00637228      1.82307823     -1.92226659     -0.000364    -0.000351     0.000708
O      -2.08503587      3.27981025     -1.07400474      0.000257     0.000060    -0.000046
H      -1.72955929      4.16496806     -0.86391603      0.000915     0.000084    -0.000372
O      -2.99062338      0.72588002     -1.17232482      0.000270     0.000039     0.000157
H      -2.64323951      0.13220193     -1.88010232     -0.000884    -0.001293     0.001065
O      -1.54610148      0.17361053      1.04258010      0.000125     0.000125     0.000036
H      -0.73073899     -0.17326987      1.44354066      0.000274     0.000850    -0.000197
O      -3.28369493      2.15937467      1.10314107     -0.000057    -0.000219    -0.000029
H      -3.70504819      3.03520870      1.14919935      0.000690     0.000642     0.000825
O      -0.60301365      2.67328903      1.10223447      0.000021    -0.000028    -0.000084
H      -0.42344653      2.40974538      2.03117448     -0.001006    -0.000422     0.000376
H      -2.84898517      3.37066889     -1.66135066     -0.000690    -0.000238    -0.000873
H      -3.81627207      1.54141884      1.64559289     -0.000828     0.000976     0.000006
H      -3.94370528      0.56667937     -1.04907535      0.000824     0.000406     0.000924
H      -2.13394911     -0.59705232      0.99090169      0.000688    -0.001346    -0.000634
H       0.50765277      0.88512674     -0.85194817      0.000606     0.000669     0.000682
H       0.16689859      3.19563165      0.80337052      0.000583     0.000182     0.000665
N       2.71178849      2.48437839     -0.93231494      0.000032    -0.000127    -0.000366
H       3.64323063      2.75934292     -1.26239967      0.000280     0.000752    -0.000714
H       2.65917462      2.85532512      0.01674483     -0.000286     0.000026     0.001384
H       2.87016307      1.47863469     -0.79650062     -0.000211     0.000648    -0.000396
23
Frame 15  Energy = -756.6632768961 Hartree
Al     -1.79588903      1.70757125     -0.03139060     -0.000062     0.000085    -0.000088
O      -0.31501247      1.26229309     -1.18299940     -0.000181    -0.000272    -0.000097
H      -0.04363636      1.85867387     -1.92946557     -0.000850    -0.000470    -0.000763
O      -2.07682333      3.27976517     -1.07256418      0.000245    -0.000053     0.000162
H      -1.72275123      4.17241452     -0.92317215      0.000755    -0.000492    -0.000270
O      -2.99472278      0.73181239     -1.16996602     -0.000039     0.000071     0.000018
H      -2.71076334      0.11857431     -1.86262992      0.000528    -0.000158    -0.001199
O      -1.54356808      0.17619693      1.04700975      0.000028     0.000217    -0.000156
H      -0.71426856     -0.20322290      1.43063556      0.000316     0.000453     0.001168
O      -3.29130803      2.15811524      1.10019531     -0.000476     0.000199    -0.000208
H      -3.69240927      3.06220122      1.15933716     -0.000034     0.000594     0.000884
O      -0.59629121      2.67738587      1.11276701      0.000378     0.000114     0.000248
H      -0.44870427      2.44795501      2.03933453      0.000303    -0.000898     0.001427
H      -2.83519185      3.36091262     -1.68267978      0.001350    -0.001028    -0.000072
H      -3.83809302      1.57664055      1.65740090      0.000506    -0.000149     0.001040
H      -3.94402363      0.54070373     -1.02943330      0.000503    -0.000130     0.000152
H      -2.08688690     -0.59643368      0.96205129     -0.000487    -0.000021    -0.000181
H       0.53883837      0.94041534     -0.87135623     -0.000245     0.000980     0.000219
H       0.16620167      3.20945259      0.84718967      0.000645     0.001413     0.000495
N       2.71351622      2.48197813     -0.92636583     -0.000149    -0.000043     0.000086
H       3.61329130      2.80440349     -1.33289490     -0.000507    -0.000147     0.000744
H       2.69998433      2.85051609      0.02371971      0.000872     0.000135    -0.000242
H       2.86338279      1.48400654     -0.80456886     -0.000705     0.001325    -0.000193
23
Frame 16  Energy = -756.6670357342 Hartree
Al     -1.79894827      1.71413731     -0.02738885      0.000291    -0.000056     0.000131
O      -0.30497404      1.26017075     -1.19935622     -0.000015     0.000185     0.000182
H      -0.04123994      1.87268013     -1.93802633      0.000348    -0.001091     0.000897
O      -2.07185024      3.28395584     -1.06573679     -0.000227     0.000421     0.000112
H      -1.74192640      4.16982511     -0.90794963      0.000011    -0.000034     0.000086
O      -2.99519498      0.72925125     -1.17026556      0.000107    -0.000122     0.000193
H      -2.67765595      0.15046045     -1.87717382     -0.000527    -0.000794     0.000488
O      -1.55075154      0.16953599      1.04609369     -0.000231     0.000124    -0.000230
H      -0.73226734     -0.15412866      1.46529417     -0.001838     0.000038     0.000793
O      -3.29246958      2.17162703      1.09901689     -0.000044    -0.000158     0.000247
H      -3.71686096      3.07024348      1.17906332      0.000926    -0.000581     0.000454
O      -0.59267195      2.67751941      1.12736889      0.000054     0.000075     0.000234
H      -0.48094014      2.44895710      2.05061722      0.000509    -0.000196     0.001382
H      -2.81393670      3.38831828     -1.69546545      0.000428    -0.000550     0.000532
H      -3.84920235      1.60318254      1.65192959     -0.000252    -0.000027    -0.000674
H      -3.94252665      0.54513228     -1.03484187     -0.000542     0.000779     0.000546
H      -2.08314666     -0.61649488      1.00138836     -0.000478    -0.000127     0.000028
H       0.55945972      0.94150843     -0.88259633     -0.001065    -0.001316     0.000512
H       0.17959363      3.20260545      0.82882261      0.000387    -0.000663     0.000456
N       2.69504661      2.48407419     -0.92284663     -0.000259    -0.000055    -0.000282
H       3.53997383      2.78776120     -1.35643901     -0.000525     0.000400    -0.000641
H       2.72038475      2.86994967      0.02415990      0.000333     0.000503     0.000073
H       2.89921244      1.49105453     -0.80987135      0.000523     0.000035     0.000066
23
Frame 17  Energy = -756.6697385359 Hartree
Al     -1.79040358      1.71534916     -0.01915312      0.000004    -0.000098    -0.000119
O      -0.31217371      1.27346866     -1.20100684     -0.000084    -0.000115    -0.000211
H      -0.03626699      1.82825803     -1.95478920     -0.001499     0.000355    -0.000770
O      -2.07069412      3.29739961     -1.05300184      0.000191    -0.000166     0.000064
H      -1.74068108      4.19268492     -0.88501951     -0.000484    -0.000492    -0.000986
O      -2.99725137      0.73606655     -1.17162401     -0.000065     0.000014     0.000220
H      -2.68769731      0.16601376     -1.90432605     -0.000543    -0.000797    -0.000613
O      -1.54572143      0.16033417      1.03802275     -0.000103    -0.000058    -0.000025
H      -0.73428646     -0.12177882      1.48291575      0.001378     0.000099     0.000111
O      -3.29328890      2.17623517      1.09820551     -0.000073     0.000076     0.000136
H      -3.67421147      3.07088536      1.17827099     -0.000346     0.000386    -0.000284
O      -0.58921102      2.67935736      1.13250514     -0.000125    -0.000333    -0.000187
H      -0.49124988      2.50757356      2.09126637      0.000089     0.001291    -0.000732
H      -2.82909136      3.38288518     -1.69131611     -0.000629     0.000182     0.001196
H      -3.85267375      1.59671635      1.67021422      0.000765    -0.000013     0.000769
H      -3.93172448      0.54210885     -1.00952801     -0.000866     0.000730    -0.000162
H      -2.09770478     -0.64146536      0.99464989     -0.000289     0.000583     0.000034
H       0.55954290      0.89221902     -0.91421785      0.000058    -0.001357     0.000749
H       0.14135281      3.23674730      0.83453748     -0.000814     0.001047    -0.000923
N       2.69759987      2.48810762     -0.91973649      0.000016    -0.000013     0.000316
H       3.57827824      2.80568391     -1.34350085     -0.001843    -0.000808     0.000391
H       2.75363754      2.84167577      0.05686140      0.000570    -0.000199     0.000293
H       2.89586619      1.48451097     -0.81489593      0.000500     0.000575    -0.000489
23
Frame 18  Energy = -756.6619126799 Hartree
Al     -1.79080058      1.71668780     -0.02820828      0.000166     0.000028    -0.000067
O      -0.30645606      1.27291802     -1.20555832      0.000229    -0.000449    -0.000048
H      -0.04741824      1.81590650     -1.97792910      0.000472     0.000448     0.000150
O      -2.08043624      3.30020887     -1.05459968      0.000200    -0.000093    -0.000125
H      -1.73855810      4.18600196     -0.85455148     -0.000551     0.000041     0.000615
O      -3.00073012      0.73431653     -1.17335825      0.000157    -0.000218     0.000277
H      -2.68501228      0.17688653     -1.91482115     -0.000552     0.001425    -0.000754
O      -1.55569903      0.16402479      1.02552790     -0.000420    -0.000252    -0.000162
H      -0.74303025     -0.10310274      1.51971577      0.000549     0.000225     0.000163
O      -3.29687690      2.18372829      1.09457103     -0.000080     0.000188    -0.000037
H      -3.68581494      3.07259947      1.15419829     -0.000377    -0.001836    -0.000477
O      -0.59428927      2.66034072      1.12614521     -0.000107     0.000352     0.000154
H      -0.49397825      2.51593213      2.08848538     -0.000925     0.000578    -0.000871
H      -2.82573218      3.36363490     -1.67797343      0.000325    -0.000970     0.000102
H      -3.83365802      1.66109744      1.70606279     -0.000247    -0.001392    -0.000607
H      -3.94894811      0.55429232     -1.00141484     -0.000340     0.000937    -0.000448
H      -2.09857638     -0.63727988      0.98722204     -0.000240     0.001143     0.000386
H       0.55615058      0.91541180     -0.89571811      0.000800     0.000183     0.001054
H       0.10736445      3.26990326      0.81637410     -0.001263     0.000610     0.001118
N       2.69332298      2.49197137     -0.92221167     -0.000058    -0.000223    -0.000052
H       3.55683852      2.82420691     -1.37006599     -0.000988     0.000766    -0.000061
H       2.78990303      2.82611103      0.01709151      0.000106     0.001587     0.000884
H       2.88488881      1.49646111     -0.82247457      0.000405    -0.000016    -0.000670
23
Frame 19  Energy = -756.6639682062 Hartree
Al     -1.78552788      1.70826766     -0.03724692     -0.000176     0.000070    -0.000106
O      -0.30797121      1.27220724     -1.20160370      0.000335    -0.000121     0.000159
H      -0.04224269      1.80830737     -1.98815864     -0.000499    -0.000705    -0.000104
O      -2.09123203      3.30274934     -1.05041342     -0.000105     0.000283     0.000255
H      -1.77651243      4.21902463     -0.86149792      0.000619    -0.001593    -0.000265
O      -3.00272573      0.73739730     -1.16344025      0.000107     0.000144    -0.000098
H      -2.68676864      0.15603797     -1.87102710      0.001246    -0.000114     0.000692
O      -1.56861347      0.16325764      1.02166000     -0.000464    -0.000115    -0.000225
H      -0.76126703     -0.10244898      1.50164310      0.000314     0.001496     0.000447
O      -3.30965815      2.18702798      1.08460120      0.000208    -0.000129    -0.000255
H      -3.68157684      3.08983294      1.15465922      0.000201     0.000462    -0.000570
O      -0.59185842      2.65894005      1.13256774     -0.000079     0.000144     0.000096
H      -0.46982450      2.54404978      2.10290673     -0.000307     0.000853    -0.000072
H      -2.85410040      3.36516099     -1.66650368     -0.000440    -0.000167    -0.001049
H      -3.83138980      1.61045109      1.69020760      0.001604     0.001531    -0.000158
H      -3.95032796      0.52660928     -1.05343722     -0.000843     0.000016     0.001332
H      -2.13051416     -0.63484677      1.01673818      0.000692    -0.000875     0.000223
H       0.56507588      0.89545266     -0.92331922      0.000529     0.000971     0.000849
H       0.08502522      3.28744539      0.83001925     -0.000115    -0.000018     0.000232
N       2.69000286      2.48895955     -0.92954781     -0.000031    -0.000336    -0.000277
H       3.51639446      2.83131549     -1.39229937      0.000525     0.000457    -0.001510
H       2.80095805      2.81447648      0.03355504     -0.000328    -0.000000    -0.000022
H       2.90879232      1.48870302     -0.84530728      0.000163    -0.000711    -0.000180
23
Frame 20  Energy = -756.6726476647 Hartree
Al     -1.78823748      1.70257155     -0.03240206      0.000002    -0.000172    -0.000280
O      -0.29747928      1.27285923     -1.19212887     -0.000113    -0.000086    -0.000180
H      -0.05618160      1.82878623     -1.96885005     -0.000552     0.000512     0.000140
O      -2.09047948      3.30156346     -1.05883311      0.000080    -0.000089     0.000004
H      -1.76907521      4.21141257     -0.90623826     -0.000475    -0.000302    -0.000410
O      -3.00198535      0.74147962     -1.16744353      0.000072    -0.000113    -0.000329
H      -2.72156383      0.14817221     -1.89591813      0.000802    -0.000153     0.000601
O      -1.57697224      0.16277489      1.01996075      0.000229     0.000248     0.000052
H      -0.75921858     -0.07565459      1.49621934     -0.000747     0.000144    -0.000477
O      -3.30568504      2.18859215      1.08202711     -0.000076    -0.000264    -0.000191
H      -3.68588249      3.08220028      1.17423401      0.000061     0.000212    -0.000771
O      -0.60291649      2.65515853      1.12012283     -0.000100     0.000210    -0.000059
H      -0.45265118      2.54676825      2.08966057     -0.000395     0.000314    -0.001636
H      -2.83571541      3.35019283     -1.67613011     -0.000258    -0.000285    -0.001332
H      -3.80587429      1.63368242      1.72248469     -0.000741     0.001129    -0.000542
H      -3.94579625      0.54742306     -0.97877367     -0.001123    -0.001080    -0.001393
H      -2.12323788     -0.62450064      1.02533747     -0.000597     0.000926     0.000330
H       0.58068927      0.92400809     -0.92957561     -0.000007    -0.000245    -0.000183
H       0.11531793      3.28559817      0.84005554      0.000682    -0.000636     0.000581
N       2.68373401      2.48258405     -0.94149538     -0.000044     0.000226     0.000234
H       3.49757251      2.87474236     -1.43242872      0.000098    -0.000858     0.000178
H       2.81565156      2.82667184      0.01781075      0.000252    -0.000986    -0.000764
H       2.93627763      1.48504305     -0.83428009      0.000687     0.000489     0.000685
23
Frame 21  Energy = -756.6738762165 Hartree
Al     -1.78867407      1.69967349     -0.03574232     -0.000139     0.000266    -0.000010
O      -0.30380627      1.25723629     -1.18765246     -0.000123     0.000105     0.000094
H      -0.06845339      1.79954643     -1.97488043     -0.000161    -0.000126    -0.000124
O      -2.08605201      3.30367214     -1.05376508     -0.000059    -0.000025     0.000230
H      -1.76764296      4.21171033     -0.87397863     -0.000775     0.000091    -0.000467
O      -3.00249945      0.74289256     -1.15927382     -0.000224    -0.000107    -0.000011
H      -2.69631782      0.17830106     -1.89090295     -0.000737    -0.000604     0.000695
O      -1.57153242      0.15763393      1.02051074     -0.000052     0.000034     0.000159
H      -0.75174414     -0.09136423      1.51388652     -0.000132     0.000126    -0.000638
O      -3.31269066      2.19076609      1.07845202     -0.000173    -0.000101    -0.000158
H      -3.62755242      3.09060348      1.21337189     -0.000052    -0.000512     0.000330
O      -0.60642427      2.65632910      1.12563225      0.000209    -0.000262     0.000227
H      -0.48190552      2.55210583      2.07976052      0.000325    -0.000970     0.000560
H      -2.85275292      3.37771615     -1.66935795      0.000484     0.000285     0.000393
H      -3.79051770      1.65445453      1.73324375      0.001452    -0.000540    -0.000383
H      -3.94572864      0.54751830     -0.97199599     -0.000783     0.000121     0.000444
H      -2.16076499     -0.61994033      1.04332298     -0.000404    -0.000323    -0.001452
H       0.57481237      0.91457492     -0.91349021      0.000236    -0.000190    -0.000271
H       0.11633754      3.25353218      0.86588696      0.000750     0.001059    -0.002237
N       2.68286455      2.47940561     -0.93989997      0.000520    -0.000121     0.000268
H       3.47904262      2.89405158     -1.45444939     -0.000004    -0.000803     0.000019
H       2.87411731      2.83056223      0.00994863      0.000259     0.000382     0.000018
H       2.95394712      1.49204073     -0.80900522     -0.000474     0.000478    -0.000057
23
Frame 22  Energy = -756.6751639495 Hartree
Al     -1.79214567      1.71076439     -0.04047989     -0.000078     0.000301    -0.000217
O      -0.30407040      1.25377055     -1.17769005      0.000194    -0.000233     0.000047
H      -0.05610934      1.82332565     -1.95118016      0.000390    -0.000179     0.000445
O      -2.09989297      3.30470219     -1.05165257      0.000255    -0.000017    -0.000174
H      -1.80042701      4.21330599     -0.89088049      0.000342    -0.000049     0.001934
O      -3.00244197      0.74200695     -1.15180529      0.000014    -0.000110     0.000014
H      -2.71928384      0.16713923     -1.87494067     -0.000886     0.000780     0.000574
O      -1.57288949      0.15967165      1.03513061      0.000269     0.000008     0.000017
H      -0.75754752     -0.07152172      1.50047531     -0.000329    -0.000775    -0.000940
O      -3.31913813      2.18119595      1.06481927      0.000046     0.000028    -0.000162
H      -3.63601617      3.09971997      1.21893592      0.000190    -0.000456    -0.000495
O      -0.59261587      2.65241270      1.12984663     -0.000001     0.000274     0.000057
H      -0.48630919      2.54323778      2.07989179      0.000084    -0.000147     0.000162
H      -2.85966484      3.37879121     -1.65839911      0.000254    -0.000676    -0.000018
H      -3.76724872      1.64294861      1.73493724      0.000553     0.001442    -0.001382
H      -3.94797122      0.53666551     -0.98902210     -0.001273    -0.000564     0.000041
H      -2.14473998     -0.60717293      1.03908960      0.000484    -0.000119     0.000905
H       0.56874876      0.95517879     -0.89146254      0.000757    -0.000236     0.000250
H       0.14834275      3.21751437      0.83855924     -0.000457    -0.000239     0.000900
N       2.68670148      2.45859029     -0.93516057     -0.000237    -0.000267    -0.000283
H       3.42326211      2.86289075     -1.50603680     -0.000441    -0.000493    -0.000901
H       2.88400763      2.84283720      0.01024787     -0.000618    -0.000865    -0.000168
H       2.99320156      1.47769611     -0.80043441      0.000103     0.000189    -0.000933
23
Frame 23  Energy = -756.6782051939 Hartree
Al     -1.78651443      1.71914923     -0.03927101     -0.000116    -0.000115     0.000106
O      -0.30842561      1.25184704     -1.17312254     -0.000079     0.000110     0.000160
H      -0.09769993      1.80750640     -1.93297168     -0.000388     0.001152    -0.000512
O      -2.09537847      3.30594329     -1.05850628      0.000074     0.000035     0.000017
H      -1.78629232      4.21837224     -0.90384840      0.000374    -0.000866    -0.000304
O      -3.00626275      0.73909126     -1.15912073      0.000391    -0.000288     0.000176
H      -2.72298414      0.18689518     -1.89336958     -0.000324    -0.000963    -0.000141
O      -1.57235643      0.16253756      1.03815028      0.000187    -0.000113    -0.000077
H      -0.74063873     -0.04735806      1.47502479     -0.001156     0.000822    -0.000215
O      -3.31478976      2.18742793      1.06005997     -0.000331     0.000001     0.000038
H      -3.62217158      3.10651214      1.16961369      0.000149     0.000128     0.000425
O      -0.59294767      2.64920265      1.13048886     -0.000342    -0.000047     0.000141
H      -0.50413635      2.59106537      2.08626876     -0.001017    -0.000575    -0.000561
H      -2.86785486      3.38291442     -1.64417251     -0.000552     0.000308    -0.000584
H      -3.77957581      1.66790216      1.76004239      0.000057    -0.000811    -0.001184
H      -3.94380721      0.55867401     -1.00416862     -0.000114    -0.000538     0.000192
H      -2.13433140     -0.63616756      1.05991303     -0.000597    -0.000989     0.001837
H       0.59811050      0.94689666     -0.91033265     -0.000347    -0.000187     0.000527
H       0.13328154      3.21868653      0.81899351      0.000483    -0.000147    -0.000846
N       2.68729661      2.45647175     -0.92473620     -0.000012     0.000051     0.000177
H       3.41117027      2.84863328     -1.49435383     -0.000559    -0.000351     0.000141
H       2.87096078      2.86783423     -0.02190156     -0.000459    -0.000571    -0.000645
H       3.00154722      1.50237578     -0.79550807      0.000546    -0.001104    -0.000374
23
Frame 24  Energy = -756.6748265090 Hartree
Al     -1.78341689      1.71542783     -0.02733393      0.000104     0.000138     0.000046
O      -0.31468629      1.25633203     -1.15554737     -0.000119    -0.000219     0.000023
H      -0.11151572      1.82607140     -1.94643057     -0.000741     0.000674    -0.001125
O      -2.09471036      3.30245839     -1.05800405      0.000088    -0.000095     0.000082
H      -1.77534885      4.21538232     -0.88095840      0.000355     0.000555     0.000256
O      -2.99965332      0.73544557     -1.15568992     -0.000136    -0.000172     0.000229
H      -2.66873187      0.16716927     -1.87712320     -0.001444    -0.001666    -0.000430
O      -1.56354782      0.16334769      1.03768988     -0.000272     0.000393    -0.000079
H      -0.73840119     -0.06412397      1.50205347     -0.000867    -0.000256    -0.000463
O      -3.31599029      2.19114850      1.05881119      0.000099     0.000127    -0.000061
H      -3.60862695      3.11931552      1.21131750      0.000106     0.000624     0.000299
O      -0.59336996      2.63971099      1.13273115      0.000122     0.000334     0.000130
H      -0.52117972      2.54938128      2.09725975      0.000566     0.000035     0.000132
H      -2.86386934      3.36574545     -1.68883828      0.000549    -0.000250    -0.000916
H      -3.74355798      1.67801566      1.76482180      0.000828    -0.000250     0.001360
H      -3.94359771      0.61188766     -1.05672256     -0.000985    -0.000155     0.000270
H      -2.13492726     -0.62372971      1.10047959      0.002056     0.001510    -0.000344
H       0.58233063      0.94770920     -0.91551491     -0.000779     0.000417     0.000467
H       0.13975752      3.21801351      0.84189956     -0.000826    -0.001034     0.000544
N       2.67999004      2.45801646     -0.92082196      0.000156    -0.000091     0.000088
H       3.38702529      2.85678149     -1.56019865     -0.000186     0.000490    -0.000715
H       2.89768227      2.88207117     -0.01599229     -0.000251    -0.000055     0.000734
H       3.00128374      1.49656541     -0.81189715     -0.000288    -0.000045     0.000273
23
Frame 25  Energy = -756.6786061642 Hartree
Al     -1.78745187      1.72010786     -0.02812549      0.000229     0.000254    -0.000076
O      -0.32291215      1.25809532     -1.15607981      0.000181     0.000100     0.000263
H      -0.13449866      1.78936365     -1.95703662     -0.000218     0.000141    -0.000258
O      -2.09429678      3.30825193     -1.05302816      0.000072     0.000165    -0.000178
H      -1.79060537      4.21878913     -0.90351240     -0.000200     0.000967    -0.001229
O      -3.00256099      0.73461217     -1.15414412     -0.000471     0.000102    -0.000153
H      -2.71632676      0.15014647     -1.89383862      0.000585     0.000058     0.000963
O      -1.56061413      0.16472991      1.02895621      0.000108    -0.000026     0.000056
H      -0.74912425     -0.04826431      1.51133680     -0.000087    -0.000364    -0.000761
O      -3.31500394      2.19269347      1.05695173     -0.000115     0.000422     0.000067
H      -3.61253339      3.10541862      1.17906228     -0.000235    -0.000353    -0.000351
O      -0.58942239      2.64522366      1.13105897      0.000041     0.000116    -0.000069
H      -0.54147767      2.56857576      2.09286448     -0.000897    -0.000057     0.000340
H      -2.84096226      3.36403017     -1.68146476      0.000363     0.000821    -0.001022
H      -3.71105653      1.68254053      1.78256468     -0.000076    -0.000074     0.000669
H      -3.96490887      0.56969480     -1.01685740      0.000838     0.000867    -0.000306
H      -2.16069362     -0.59667680      1.12602488      0.000438     0.000450     0.001079
H       0.59952738      0.95166647     -0.90435299     -0.000956     0.000612    -0.000621
H       0.16502754      3.23619706      0.84252476     -0.000060    -0.000423    -0.000199
N       2.67764198      2.45922331     -0.92513915     -0.000280     0.000098    -0.000218
H       3.33599628      2.87878635     -1.59551202     -0.001406    -0.000219     0.000187
H       2.88161317      2.88964633     -0.02227395      0.000598    -0.000027    -0.001229
H       3.01251606      1.50971627     -0.79047662     -0.000076    -0.000680    -0.000348
23
Frame 26  Energy = -756.6726935674 Hartree
Al     -1.78151030      1.72209113     -0.03445499     -0.000091     0.000111    -0.000147
O      -0.32307680      1.26319433     -1.16167891     -0.000048    -0.000202    -0.000003
H      -0.12602391      1.83619521     -1.96857993     -0.000679     0.000412     0.000791
O      -2.09892424      3.29592770     -1.05917404     -0.000412    -0.000310    -0.000402
H      -1.79121663      4.21067240     -0.89440464     -0.001062     0.000317     0.000099
O      -3.00458291      0.73788475     -1.14446524     -0.000007     0.000015     0.000116
H      -2.69150300      0.17162818     -1.85522301     -0.000024     0.001048     0.000192
O      -1.56471619      0.16876580      1.02848551     -0.000050     0.000350     0.000124
H      -0.75585906     -0.05572900      1.51402732     -0.000444     0.000171    -0.000298
O      -3.31388117      2.19483932      1.06370001     -0.000199     0.000015    -0.000113
H      -3.64406461      3.10990220      1.21064278      0.000596    -0.000379    -0.000310
O      -0.57721188      2.64612147      1.12755129      0.000037     0.000280    -0.000130
H      -0.55173506      2.58497692      2.11290685      0.000855     0.000837     0.000239
H      -2.82065754      3.36753349     -1.73074396      0.001760     0.000096     0.000526
H      -3.70318953      1.66277446      1.78985023      0.000812     0.000566    -0.000561
H      -3.95342774      0.54833723     -1.02363168      0.002528     0.000380    -0.000027
H      -2.16652468     -0.57330102      1.17424647     -0.000546    -0.000167    -0.001018
H       0.58654733      1.01135335     -0.93016674      0.000549    -0.000128    -0.000425
H       0.18898889      3.18072723      0.83664941      0.000803     0.001448     0.000125
N       2.67085374      2.46557166     -0.92066190     -0.000119     0.000139     0.000003
H       3.30038003      2.92213019     -1.60201893     -0.000252    -0.001356    -0.000023
H       2.91380167      2.92782985     -0.05386349     -0.000139     0.000323    -0.000239
H       3.01537949      1.52989339     -0.83449134     -0.000079    -0.001061     0.001201
23
Frame 27  Energy = -756.6843625922 Hartree
Al     -1.77574480      1.72017265     -0.04316767     -0.000070     0.000041    -0.000012
O      -0.32158003      1.27490610     -1.17077601      0.000205     0.000032    -0.000144
H      -0.12881906      1.83845020     -1.94628025      0.000222     0.000827     0.000131
O      -2.09515202      3.30061237     -1.05976515      0.000104     0.000284    -0.000145
H      -1.80366405      4.20175025     -0.88355930     -0.001220    -0.000228     0.000752
O      -3.00958142      0.74085467     -1.15000356      0.000003     0.000182     0.000176
H      -2.67162951      0.19112713     -1.87664599      0.001052    -0.001460    -0.000854
O      -1.56395049      0.16420885      1.02620703     -0.000362     0.000253     0.000199
H      -0.73438244     -0.06538101      1.49228601     -0.000239     0.000119    -0.000788
O      -3.31847023      2.19717635      1.07020809     -0.000109     0.000052    -0.000270
H      -3.65327432      3.08324450      1.23026025     -0.000507     0.000711    -0.000416
O      -0.57884970      2.65530781      1.13087339     -0.000094    -0.000048     0.000078
H      -0.57758305      2.64000128      2.10891605     -0.000457    -0.000643    -0.000881
H      -2.78725347      3.37760635     -1.72330385     -0.000159    -0.000791     0.000227
H      -3.69629409      1.63674379      1.76638925     -0.000242    -0.000421     0.000283
H      -3.94430062      0.53835237     -1.00851583      0.000222    -0.000509    -0.001221
H      -2.17947287     -0.57806103      1.13463299      0.000031     0.000281     0.000461
H       0.57582152      0.98987317     -0.92517400      0.000208     0.000072    -0.000313
H       0.18715294      3.18519445      0.85207499      0.000228    -0.000344     0.000580
N       2.66186243      2.47461911     -0.91369504      0.000344    -0.000082     0.000161
H       3.27702147      2.91790924     -1.60679102     -0.000410     0.000055    -0.001231
H       2.87221518      2.91992497     -0.03001768     -0.000043     0.000871     0.000947
H       3.05203470      1.52501184     -0.82040664      0.000052     0.001146    -0.000299
23
Frame 28  Energy = -756.6761281365 Hartree
Al     -1.78249206      1.72252880     -0.04288160     -0.000088     0.000186    -0.000089
O      -0.31827469      1.28016346     -1.17572736      0.000199    -0.000054     0.000059
H      -0.10038774      1.84201501     -1.92240755     -0.000253    -0.000408    -0.000227
O      -2.09394760      3.29379023     -1.06714473      0.000356     0.000288     0.000263
H      -1.78809718      4.20104517     -0.89940818     -0.000032    -0.000291    -0.000984
O      -3.01193697      0.74212813     -1.15613003      0.000207    -0.000182     0.000153
H      -2.65388361      0.17832192     -1.86783022     -0.000838     0.000896    -0.000924
O      -1.56295456      0.16587979      1.02573698      0.000164    -0.000040    -0.000033
H      -0.71818683     -0.05087509      1.49155306     -0.001794     0.000122    -0.000299
O      -3.32267291      2.19974259      1.06148232     -0.000305    -0.000049     0.000083
H      -3.62119488      3.11561045      1.23288169      0.000094    -0.000181     0.001788
O      -0.57353111      2.65509381      1.13194782     -0.000030     0.000037     0.000176
H      -0.58570891      2.65676969      2.10471430     -0.000545    -0.000456    -0.001015
H      -2.79784838      3.38574494     -1.73066863      0.000880     0.000179     0.000977
H      -3.69479827      1.66531983      1.78239711     -0.000281    -0.001259     0.000410
H      -3.94347497      0.50755861     -1.01649579      0.000588    -0.001047    -0.000874
H      -2.14525650     -0.59996505      1.15358730     -0.000946     0.000298    -0.000691
H       0.57186899      0.98784251     -0.90428360      0.000924    -0.001234     0.001026
H       0.21352718      3.14163866      0.85742313     -0.000633    -0.000272    -0.001058
N       2.66166692      2.47254870     -0.91515153     -0.000006     0.000004    -0.000106
H       3.25328785      2.92986630     -1.61102351     -0.000239     0.000179    -0.001527
H       2.90439159      2.94188856     -0.05045984      0.001155     0.000064     0.000150
H       3.06730846      1.55816388     -0.82213631     -0.000424     0.000594     0.000676
23
Frame 29  Energy = -756.6830276210 Hartree
Al     -1.78299487      1.72568641     -0.04450013      0.000002    -0.000096    -0.000064
O      -0.31854320      1.28410116     -1.18403930      0.000098    -0.000066    -0.000166
H      -0.09292435      1.82969959     -1.96233204      0.000098     0.000715     0.000436
O      -2.09163062      3.29301138     -1.06285726     -0.000054     0.000028    -0.000268
H      -1.76550412      4.20973947     -0.89152484     -0.000909    -0.000074     0.001436
O      -3.01527426      0.74858653     -1.15987061      0.000075     0.000066     0.000125
H      -2.66050423      0.19393856     -1.85250327     -0.001028     0.000180    -0.000480
O      -1.54581550      0.17546829      1.02224819     -0.000021     0.000106    -0.000224
H      -0.73250234     -0.05073213      1.51090380      0.000088     0.000006    -0.000284
O      -3.32824872      2.19946004      1.06164607      0.000271    -0.000391    -0.000057
H      -3.59602229      3.12398150      1.21320330     -0.000098    -0.000555    -0.000272
O      -0.57263454      2.65491626      1.12858372     -0.000325    -0.000010     0.000297
H      -0.58739715      2.69256817      2.10306820      0.000109    -0.000435     0.001711
H      -2.75226225      3.39827068     -1.77013838      0.000990    -0.000639    -0.000557
H      -3.69706576      1.67627150      1.78504981      0.000174    -0.001018    -0.000872
H      -3.95547999      0.53035841     -1.02169788     -0.000113     0.001380    -0.000154
H      -2.14195678     -0.60366936      1.12889486      0.000055     0.001022     0.000500
H       0.57892353      0.98477100     -0.91958435     -0.000431     0.001196     0.000703
H       0.22248409      3.11392114      0.84315388      0.000098    -0.000495     0.000015
N       2.65628678      2.47378223     -0.91686264      0.000030     0.000121     0.000273
H       3.21309533      2.91513833     -1.63609221      0.000483    -0.000294    -0.000170
H       2.94438081      2.94801845     -0.05447443     -0.000972     0.000136    -0.000149
H       3.05746053      1.53679031     -0.84397984     -0.000531     0.000238     0.001563
23
Frame 30  Energy = -756.6764678701 Hartree
Al     -1.77943218      1.72502371     -0.05494893      0.000042    -0.000102     0.000012
O      -0.32140081      1.28435222     -1.18817368     -0.000369     0.000096     0.000107
H      -0.08935629      1.85546757     -1.93246108      0.000732    -0.000007     0.000763
O      -2.08998236      3.30011063     -1.06647937     -0.000140     0.000332     0.000232
H      -1.80783977      4.20212524     -0.85678572      0.000594    -0.000441     0.000104
O      -3.01494414      0.74826958     -1.15565240      0.000103     0.000103    -0.000072
H      -2.68330104      0.18780972     -1.86290486     -0.001532    -0.000962    -0.000185
O      -1.54702756      0.18111199      1.00723562     -0.000052     0.000003     0.000188
H      -0.73383615     -0.00329155      1.50701255     -0.000178    -0.000282     0.000018
O      -3.32388217      2.19409487      1.05935848      0.000650    -0.000028    -0.000193
H      -3.56302542      3.11837319      1.21369721      0.001517     0.000027    -0.000157
O      -0.58405742      2.64996804      1.12963944     -0.000093     0.000282     0.000160
H      -0.58647403      2.72296874      2.08289361     -0.000253     0.000098     0.000876
H      -2.76170745      3.39357921     -1.78254531      0.000944    -0.001460     0.000522
H      -3.67074699      1.68144443      1.81057833      0.000503     0.000612    -0.000739
H      -3.95825034      0.54655934     -0.99971466     -0.000578     0.000162     0.000251
H      -2.12771745     -0.59333951      1.10859395     -0.000947    -0.000309    -0.000587
H       0.57412508      0.94428400     -0.94089630     -0.000369     0.001255     0.000262
H       0.25043339      3.09287242      0.80385898     -0.001230    -0.000766     0.000423
N       2.65809695      2.47292099     -0.91527856     -0.000378    -0.000059    -0.000212
H       3.19653524      2.93651649     -1.66996953      0.000310     0.000896    -0.000212
H       2.96232905      2.92741401     -0.06428116      0.000352     0.000436    -0.000683
H       3.04106913      1.54298141     -0.86062851      0.000183    -0.001031     0.000262
23
Frame 31  Energy = -756.6780036325 Hartree
Al     -1.77955080      1.72000235     -0.04371723      0.000263    -0.000288    -0.000022
O      -0.32033766      1.29324689     -1.18543564     -0.000197     0.000123    -0.000257
H      -0.05496474      1.85613938     -1.93168352      0.000587     0.000552    -0.000034
O      -2.09409576      3.30948547     -1.05367262      0.000265    -0.000424    -0.000238
H      -1.79418085      4.20683495     -0.84738604      0.000321     0.000130    -0.000144
O      -3.01407635      0.74271949     -1.15285512     -0.000308     0.000037     0.000172
H      -2.69498984      0.16808497     -1.84337252      0.000539    -0.001202     0.000318
O      -1.55154803      0.16996695      1.01048651     -0.000012    -0.000195     0.000132
H      -0.72328572     -0.03666075      1.51056068     -0.000210    -0.000592     0.000377
O      -3.31272184      2.18912503      1.06030953      0.000168    -0.000039    -0.000211
H      -3.58806609      3.10173121      1.22581048     -0.001102     0.001060     0.000386
O      -0.58101027      2.64822707      1.12710049     -0.000015    -0.000095     0.000046
H      -0.58256596      2.73252436      2.10222654      0.000951    -0.000416     0.001246
H      -2.73514272      3.37007698     -1.78804579      0.000080    -0.000782     0.000884
H      -3.64806057      1.65324118      1.79989306     -0.000637     0.000203    -0.000789
H      -3.96463595      0.60255488     -0.99241720      0.000967     0.000184     0.000449
H      -2.15297144     -0.61819403      1.10368453      0.000653    -0.000059    -0.001172
H       0.55727653      0.94438116     -0.92102189      0.000684    -0.000909     0.000488
H       0.22616275      3.07527605      0.82404455      0.000764    -0.000618    -0.000225
N       2.65858984      2.47024642     -0.92869711      0.000135     0.000347    -0.000389
H       3.16780542      2.96318735     -1.67086340     -0.001298     0.000360     0.001122
H       2.95854210      2.93336762     -0.07126793      0.000481     0.000150     0.000311
H       3.07122322      1.53626173     -0.87109627      0.000100     0.000085    -0.000868
23
Frame 32  Energy = -756.6875132828 Hartree
Al     -1.78732839      1.72095712     -0.03854033     -0.000001    -0.000162    -0.000003
O      -0.31608019      1.28825760     -1.18405179      0.000267     0.000124     0.000148
H      -0.02289960      1.86787923     -1.93646550     -0.000615    -0.000292     0.000200
O      -2.08242083      3.30532464     -1.06373564      0.000062    -0.000276    -0.000061
H      -1.74120110      4.18951516     -0.85014507      0.000690     0.000762    -0.000746
O      -3.01368029      0.73907872     -1.15270618     -0.000261     0.000158    -0.000008
H      -2.69632111      0.15134786     -1.84882500     -0.000686    -0.001713     0.001010
O      -1.54555274      0.16879887      1.01927792     -0.000089     0.000085    -0.000429
H      -0.71948525     -0.02481014      1.48076333      0.000038    -0.000228     0.000500
O      -3.30833500      2.19635994      1.05251692      0.000191     0.000017    -0.000135
H      -3.57800049      3.13133402      1.21970871      0.000489    -0.000000    -0.000110
O      -0.57843448      2.64924216      1.14214657      0.000192     0.000010    -0.000046
H      -0.60400140      2.76379793      2.11961741     -0.000790     0.000300     0.000602
H      -2.72518328      3.36134512     -1.78031129     -0.000031    -0.000733     0.000298
H      -3.67557487      1.65318832      1.78850005     -0.000658     0.000020    -0.000031
H      -3.96780229      0.60816051     -1.02619788     -0.000277     0.000145    -0.000508
H      -2.11123011     -0.62218387      1.06900622      0.000138     0.000160     0.000114
H       0.55366180      0.91928236     -0.93514635     -0.000277     0.000015     0.000098
H       0.26011164      3.07073907      0.85610769      0.001125    -0.000182    -0.000346
N       2.65516155      2.47778005     -0.93414760      0.000112     0.000472     0.000173
H       3.13138779      2.97005359     -1.67889972     -0.000156    -0.001023     0.001306
H       2.96399317      2.96117808     -0.08585915     -0.000106     0.001360     0.000086
H       3.04509449      1.54193180     -0.90082520      0.000008    -0.000251     0.000719
23
Frame 33  Energy = -756.6782453397 Hartree
Al     -1.78717680      1.72185938     -0.04115325      0.000017     0.000259    -0.000056
O      -0.31089226      1.28550006     -1.17519415     -0.000062    -0.000024    -0.000120
H      -0.09841588      1.86921996     -1.94395912      0.000879    -0.000236     0.000451
O      -2.09071375      3.30447363     -1.06628174      0.000035    -0.000038    -0.000065
H      -1.74367905      4.21537035     -0.89670066      0.000081    -0.000180    -0.000495
O      -3.01386566      0.73974698     -1.14278070     -0.000358     0.000119     0.000049
H      -2.70221683      0.13175673     -1.84147784     -0.000013    -0.000104    -0.000594
O      -1.54769378      0.17580672      1.01008910     -0.000176    -0.000228     0.000290
H      -0.70780576     -0.03049101      1.47970880      0.000463    -0.000693    -0.000215
O      -3.30948531      2.20282628      1.05173982      0.000133     0.000174     0.000433
H      -3.58589088      3.12654848      1.19859686      0.002198     0.000570    -0.000641
O      -0.57216442      2.64197530      1.15140283     -0.000161    -0.000085    -0.000320
H      -0.62287277      2.77907848      2.11270215     -0.000341     0.000594    -0.002015
H      -2.75906846      3.35392605     -1.80565042      0.000948    -0.000374    -0.000057
H      -3.67353681      1.67208741      1.79291110     -0.000506     0.000248    -0.001018
H      -3.96669175      0.62499789     -1.04233376     -0.000012    -0.000968    -0.000461
H      -2.10630940     -0.62479103      1.03856556      0.000968    -0.001085     0.000062
H       0.54061235      0.89745178     -0.94265835      0.000649     0.000736     0.001585
H       0.26288566      3.04322768      0.86720293      0.000171    -0.000029     0.000187
N       2.64891051      2.48925485     -0.93378168     -0.000083    -0.000050     0.000081
H       3.11867825      2.97459626     -1.69178211     -0.000337     0.000073    -0.000211
H       2.98170508      2.93391465     -0.08122455     -0.000506     0.000156    -0.000229
H       3.09071489      1.55970630     -0.90967581      0.001044     0.001573    -0.001433
23
Frame 34  Energy = -756.6770086249 Hartree
Al     -1.79230965      1.72120918     -0.03851678     -0.000047     0.000086    -0.000147
O      -0.31712275      1.28383447     -1.18779589     -0.000005    -0.000045     0.000354
H      -0.08525541      1.83494075     -1.93163405     -0.000274     0.002285    -0.000481
O      -2.09691915      3.30235338     -1.07719623     -0.000209    -0.000346     0.000181
H      -1.74129443      4.21421821     -0.91719118      0.000192    -0.000440    -0.000453
O      -3.01690583      0.73085226     -1.14521363      0.000205     0.000160     0.000214
H      -2.69378617      0.15957629     -1.86558320     -0.000504     0.001418     0.001303
O      -1.55363459      0.16730473      1.01806675      0.000218     0.000332    -0.000035
H      -0.72274276     -0.04932111      1.46982529     -0.000470     0.000333    -0.000314
O      -3.31305056      2.20979366      1.05791821      0.000022    -0.000149    -0.000450
H      -3.55010183      3.14383460      1.19616019     -0.000325    -0.000728    -0.000800
O      -0.57434094      2.65044597      1.14303374     -0.000063     0.000139    -0.000138
H      -0.63259386      2.79942753      2.10087098     -0.000324     0.000912    -0.001316
H      -2.75018225      3.37229518     -1.78974221      0.000332    -0.000081    -0.000570
H      -3.72155742      1.66689003      1.75487341      0.000461     0.000031    -0.000577
H      -3.97565619      0.59456458     -1.02143971      0.001727    -0.000661     0.000982
H      -2.07270097     -0.66121857      1.06495770     -0.000929     0.000550    -0.000768
H       0.55172254      0.88908537     -0.94719514      0.000457     0.000077     0.000446
H       0.27404033      3.01395191      0.84965573      0.000489     0.000123     0.000746
N       2.65060179      2.49098763     -0.93538812     -0.000196    -0.000141     0.000227
H       3.09726118      2.98428629     -1.68887758      0.000658     0.000714     0.000648
H       2.95922854      2.96223254     -0.07760359     -0.000455     0.000376    -0.001163
H       3.12023790      1.58673282     -0.91458669     -0.000731     0.000754     0.000325
23
Frame 35  Energy = -756.6787923782 Hartree
Al     -1.79167007      1.72162898     -0.03356627     -0.000044    -0.000054    -0.000105
O      -0.31933894      1.28009756     -1.18452847     -0.000103     0.000112     0.000131
H      -0.11933858      1.89904359     -1.94064422      0.001167    -0.000154    -0.000480
O      -2.08745111      3.30483467     -1.08249996      0.000145     0.000345     0.000043
H      -1.72327230      4.19211888     -0.92189372      0.000276    -0.000456     0.000002
O      -3.01241240      0.74498219     -1.14545600      0.000134     0.000147    -0.000245
H      -2.67751499      0.16687285     -1.85237654      0.000060     0.000606     0.000223
O      -1.54996203      0.16605619      1.00885095     -0.000128    -0.000252    -0.000239
H      -0.69718785     -0.03783050      1.45636785      0.000031    -0.000108    -0.000942
O      -3.31832721      2.21806213      1.04946769      0.000016     0.000003     0.000064
H      -3.56040446      3.12947581      1.21884493      0.001443    -0.001089     0.000318
O      -0.57628595      2.65881177      1.13680307      0.000056     0.000154    -0.000341
H      -0.67532400      2.77544945      2.08778384      0.000561     0.000160    -0.000363
H      -2.76203488      3.38305610     -1.77237288      0.000889     0.000701     0.000495
H      -3.74813033      1.67268973      1.76223247      0.000546     0.000011    -0.001201
H      -3.96627702      0.60112960     -1.05344348      0.001149    -0.000525     0.000578
H      -2.08105548     -0.64855109      1.06131114      0.000674     0.000051     0.000870
H       0.56122632      0.88560791     -0.93730683     -0.002080     0.001199     0.000609
H       0.27296692      3.03857356      0.85902793     -0.001269     0.000463     0.000462
N       2.63715134      2.48876217     -0.93925688      0.000183     0.000041     0.000018
H       3.12605981      3.00361785     -1.64520763     -0.000634     0.001431     0.000328
H       2.94628584      2.92667932     -0.07887179     -0.000468    -0.000849    -0.000356
H       3.13565582      1.60036097     -0.85939483     -0.001367    -0.001459    -0.000300
23
Frame 36  Energy = -756.6750484835 Hartree
Al     -1.79710696      1.71662264     -0.03271656     -0.000088     0.000079    -0.000115
O      -0.32183549      1.27522864     -1.17839607      0.000172     0.000205     0.000495
H      -0.06032902      1.86318720     -1.91813768      0.001708     0.000460    -0.000249
O      -2.08918101      3.30179694     -1.06929446      0.000064     0.000275    -0.000397
H      -1.73320800      4.21257504     -0.93127754     -0.001394     0.000407     0.000332
O      -3.01043251      0.74466320     -1.15210798      0.000260     0.000184     0.000264
H      -2.67287303      0.17274062     -1.85590132     -0.000507    -0.000697     0.001203
O      -1.54323429      0.16773357      1.00195865      0.000061     0.000276     0.000145
H      -0.69361342     -0.03247967      1.43654135     -0.000378     0.001369    -0.000908
O      -3.32034402      2.22463445      1.05929333     -0.000048     0.000427    -0.000030
H      -3.57366651      3.16577739      1.17120748     -0.000310     0.000870     0.000576
O      -0.58072542      2.65227265      1.12976650     -0.000240     0.000060     0.000160
H      -0.68009913      2.75568154      2.09223257      0.000306    -0.000898    -0.001018
H      -2.77706126      3.41726044     -1.76211858      0.000232    -0.000102    -0.000851
H      -3.71510472      1.63345607      1.72039488     -0.000169     0.000599    -0.000303
H      -3.97050437      0.60239367     -1.06087336      0.001779     0.000321    -0.000474
H      -2.07777602     -0.63848261      1.06392418      0.000673     0.000524     0.000840
H       0.54420408      0.87733829     -0.92290410      0.000373     0.000180     0.000128
H       0.28195093      3.02390555      0.85798177      0.000870     0.000945    -0.000348
N       2.63857001      2.47731827     -0.92370854     -0.000174    -0.000290     0.000120
H       3.11049363      3.01288141     -1.65094476      0.000093     0.000183     0.000836
H       2.94086976      2.93360628     -0.07786831     -0.000351    -0.000189     0.000102
H       3.11961463      1.57188045     -0.90604764     -0.001197     0.000563    -0.000167
23
Frame 37  Energy = -756.6803074882 Hartree
Al     -1.79482736      1.71956978     -0.03050427     -0.000029    -0.000156    -0.000021
O      -0.31893901      1.27930658     -1.17182909      0.000016     0.000440    -0.000099
H      -0.06595669      1.86841878     -1.90090790      0.000465    -0.000756     0.000732
O      -2.08491924      3.30198630     -1.07010056     -0.000100     0.000004     0.000168
H      -1.72994399      4.19304521     -0.93666209      0.000790     0.000540     0.000433
O      -3.01234839      0.75863048     -1.15473168     -0.000009     0.000139     0.000053
H      -2.67217950      0.16656550     -1.86158864      0.000300     0.000101     0.000267
O      -1.54190624      0.16472274      1.00481869      0.000235     0.000358    -0.000336
H      -0.71043993     -0.03546133      1.42770225      0.000002    -0.000249     0.000676
O      -3.32375306      2.24003491      1.06744795      0.000390    -0.000235     0.000287
H      -3.62752395      3.14674019      1.19457179      0.001160    -0.000401     0.000026
O      -0.57373103      2.65579367      1.13237296      0.000011    -0.000193    -0.000174
H      -0.69193555      2.77209291      2.09875820      0.000568     0.001042     0.001202
H      -2.75776528      3.40470101     -1.76462321     -0.000311     0.000203     0.000320
H      -3.75590616      1.62988482      1.69672973     -0.001046    -0.000678    -0.000277
H      -3.95286129      0.58758613     -1.01180924      0.000780     0.000407     0.000622
H      -2.06936067     -0.64385602      1.04220428      0.001981     0.000261    -0.000459
H       0.54278669      0.88466907     -0.91879599      0.000252     0.000549     0.000159
H       0.30767175      3.01001911      0.86919366      0.000930     0.001063    -0.000223
N       2.63641174      2.46878887     -0.93233297      0.000077     0.000148     0.000060
H       3.09968804      3.00234564     -1.67143284     -0.001256    -0.001155    -0.001104
H       2.90391913      2.97574273     -0.09016707      0.000891     0.000697     0.000485
H       3.13054457      1.57850396     -0.90702594      0.000439     0.000322     0.000574
23
Frame 38  Energy = -756.6890537083 Hartree
Al     -1.79479760      1.71189638     -0.03077042      0.000033     0.000041    -0.000107
O      -0.32091108      1.27522231     -1.17740236      0.000244     0.000150    -0.000013
H      -0.08064155      1.88428786     -1.89905270      0.000497    -0.000494    -0.000342
O      -2.10142022      3.30419531     -1.06904896      0.000022    -0.000065     0.000282
H      -1.71937812      4.16055482     -0.90048230     -0.000202    -0.000622    -0.000504
O      -3.00610888      0.75145488     -1.14528836     -0.000093    -0.000261    -0.000203
H      -2.68183853      0.16221876     -1.84857878      0.000992    -0.000020     0.000428
O      -1.53446800      0.15685194      1.00045763     -0.000167    -0.000237     0.000394
H      -0.71655117     -0.06723968      1.47456063      0.000433     0.001552     0.000900
O      -3.31786587      2.23071633      1.06258686     -0.000136    -0.000094     0.000078
H      -3.65795812      3.11754780      1.18386540      0.000058    -0.000522    -0.000437
O      -0.56388239      2.65194956      1.13409925     -0.000020     0.000170    -0.000293
H      -0.67944322      2.77545238      2.09851593      0.000404     0.000088    -0.000089
H      -2.77369520      3.38626610     -1.78624139      0.001016     0.000848     0.000972
H      -3.78238585      1.64183847      1.69369032     -0.000368    -0.000589    -0.000694
H      -3.96464447      0.57115517     -1.00565739     -0.000174     0.001117    -0.001197
H      -2.03918838     -0.67434016      0.99373835      0.000279     0.000699     0.000285
H       0.56880718      0.91793307     -0.91392041      0.000435     0.000428    -0.000872
H       0.30499609      3.01904639      0.85681568     -0.000488    -0.000133     0.000331
N       2.64154181      2.47785107     -0.92807016      0.000054    -0.000245    -0.000149
H       3.10347738      2.99644208     -1.67392933     -0.000179    -0.001022     0.000234
H       2.94205168      2.95336300     -0.08159961     -0.000342    -0.001290    -0.000643
H       3.14973261      1.59848216     -0.93044937     -0.000136     0.000364    -0.000006
23
Frame 39  Energy = -756.6816764806 Hartree
Al     -1.80225507      1.71405181     -0.02752916      0.000075     0.000076    -0.000135
O      -0.31642690      1.27382724     -1.17947277     -0.000072    -0.000335     0.000386
H      -0.08083675      1.87826375     -1.90177158      0.000960     0.000093    -0.000761
O      -2.09549925      3.29665413     -1.07206777      0.000232    -0.000045    -0.000004
H      -1.69387992      4.18359313     -0.87976954      0.000412     0.000244     0.000367
O      -2.99910765      0.74935981     -1.15026598      0.000299    -0.000235     0.000051
H      -2.66684335      0.19277806     -1.86173962     -0.001301     0.000225    -0.000781
O      -1.52527733      0.14601455      1.00283730      0.000004     0.000279     0.000226
H      -0.72948222     -0.09975381      1.48728472      0.000899    -0.000856     0.000378
O      -3.31976128      2.22129725      1.05978697      0.000178    -0.000189    -0.000164
H      -3.71027163      3.11252804      1.14279431     -0.000052     0.000260     0.000909
O      -0.55814232      2.64549163      1.12515944     -0.000073     0.000012     0.000104
H      -0.65786207      2.79560875      2.06427648     -0.000129    -0.000048    -0.000316
H      -2.77649570      3.39518875     -1.77012651     -0.001087     0.000469    -0.001166
H      -3.79985923      1.68101397      1.71561106     -0.001017    -0.000618     0.000931
H      -3.94169245      0.56272215     -1.02446081     -0.000076    -0.001241    -0.000908
H      -2.07085352     -0.67159084      1.01023706      0.000271     0.001386     0.000147
H       0.58333801      0.96342889     -0.94849601     -0.000118    -0.001682    -0.000393
H       0.28367121      3.00864903      0.82515097      0.000618    -0.001321    -0.000277
N       2.63940797      2.46480787     -0.93090954     -0.000085    -0.000471     0.000113
H       3.11814118      2.98990411     -1.66168262     -0.000677    -0.000306    -0.000662
H       2.94297176      2.95194197     -0.08843218      0.000203    -0.000360    -0.000270
H       3.15658660      1.57061691     -0.91371102     -0.000688     0.000026     0.000103
23
Frame 40  Energy = -756.6752979266 Hartree
Al     -1.80388768      1.71124604     -0.02993915      0.000056    -0.000377     0.000134
O      -0.31919497      1.27143942     -1.15965429      0.000179    -0.000488     0.000329
H      -0.06482141      1.85934201     -1.91068437     -0.001183    -0.000704     0.000706
O      -2.09981521      3.29168353     -1.06924733     -0.000126     0.000365     0.000102
H      -1.71509897      4.17436763     -0.87187901     -0.000646     0.000327     0.000657
O      -3.00155626      0.73827666     -1.15041859      0.000058    -0.000072    -0.000148
H      -2.67008378      0.16786451     -1.88130794     -0.001354     0.000598    -0.001401
O      -1.52000492      0.14527926      1.01171993      0.000272    -0.000205    -0.000236
H      -0.69224266     -0.07900235      1.48766899     -0.000384    -0.000372    -0.000942
O      -3.31803453      2.21077857      1.05836861      0.000128     0.000393     0.000154
H      -3.72609220      3.09649395      1.16538173      0.000927     0.000759    -0.000529
O      -0.55689821      2.63769029      1.12190436      0.000132     0.000094     0.000014
H      -0.62759995      2.81170773      2.09720138     -0.000067     0.000268    -0.000655
H      -2.79496793      3.42172994     -1.73523554     -0.000070    -0.000215     0.000770
H      -3.75561363      1.66494177      1.74279008      0.000449    -0.001085     0.000673
H      -3.95404424      0.51644099     -1.01166776     -0.000067    -0.000327    -0.000564
H      -2.06837240     -0.65498137      1.00528261      0.000264    -0.001052     0.000066
H       0.59289164      0.94105166     -0.95052972     -0.000402     0.000098     0.001539
H       0.29746861      2.98231292      0.84048263     -0.000208     0.000285    -0.000481
N       2.63719257      2.45848076     -0.93730876      0.000118     0.000047    -0.000110
H       3.09360312      2.98516550     -1.67004062      0.000297     0.000739     0.000323
H       2.91257757      2.95078170     -0.08192465      0.000072    -0.001448    -0.001432
H       3.12145030      1.56032028     -0.92744374     -0.001251     0.000968     0.000179
23
Frame 41  Energy = -756.6876715529 Hartree
Al     -1.80299617      1.70760388     -0.02422085      0.000165     0.000194     0.000023
O      -0.31550660      1.27588691     -1.16020174      0.000184     0.000096    -0.000193
H      -0.10020965      1.80034206     -1.95029340     -0.000673    -0.000093    -0.001429
O      -2.10508332      3.29939908     -1.06556546     -0.000348    -0.000236    -0.000176
H      -1.68796626      4.17946062     -0.89014607      0.000540     0.001254    -0.001319
O      -3.00471881      0.73628381     -1.14744146     -0.000005    -0.000162    -0.000070
H      -2.67532857      0.17103517     -1.89695672     -0.001852    -0.000181     0.000361
O      -1.52171885      0.14439165      1.01875468      0.000028     0.000014     0.000098
H      -0.72324746     -0.07772485      1.51557173      0.000356    -0.000185     0.000039
O      -3.31814765      2.20865933      1.06827171      0.000108    -0.000073     0.000268
H      -3.70332608      3.09172769      1.16744932     -0.000365     0.000445    -0.000406
O      -0.56636039      2.63671937      1.13011762     -0.000186    -0.000212     0.000197
H      -0.62691211      2.81449235      2.09074493     -0.000873    -0.000846    -0.000696
H      -2.80071129      3.38647193     -1.75643029     -0.000165     0.000129     0.000191
H      -3.74270363      1.65703773      1.77314694     -0.000378    -0.000281     0.000323
H      -3.94580800      0.54499587     -0.98405048      0.000821     0.000468     0.000821
H      -2.05466480     -0.67054052      1.01546593     -0.000075    -0.000253     0.000345
H       0.57661683      0.96585070     -0.90651174      0.000160     0.000393     0.000201
H       0.29242686      2.98337106      0.80624485     -0.001008    -0.000035     0.001192
N       2.64868328      2.46624260     -0.94166756     -0.000259     0.000209     0.000188
H       3.09466232      3.01216437     -1.67510862     -0.000038     0.000604     0.000230
H       2.92330232      2.92575081     -0.05340158      0.000620    -0.001054     0.000216
H       3.14976524      1.57822859     -0.96671788     -0.000305     0.001116    -0.000306
23
Frame 42  Energy = -756.6863140091 Hartree
Al     -1.78996093      1.70729691     -0.03110228      0.000168     0.000053     0.000149
O      -0.31742776      1.27787153     -1.16623227      0.000271     0.000108    -0.000036
H      -0.10070211      1.75576985     -1.99656111      0.000779    -0.001130    -0.000317
O      -2.10269238      3.29312690     -1.07079152      0.000187     0.000168     0.000011
H      -1.70028389      4.15454643     -0.92554671     -0.000170    -0.000287     0.000814
O      -3.00285801      0.73173337     -1.14689315     -0.000065    -0.000179    -0.000103
H      -2.74103320      0.16725474     -1.91296868      0.001031    -0.000300     0.000130
O      -1.52537309      0.13974926      1.02189620      0.000133     0.000049    -0.000008
H      -0.70732890     -0.07972543      1.51818052     -0.000463     0.000075    -0.001259
O      -3.32353824      2.20985947      1.07814663     -0.000064     0.000309    -0.000230
H      -3.70679389      3.08526146      1.17243352     -0.000363    -0.000994     0.001627
O      -0.56287912      2.61927356      1.12823130      0.000177     0.000002     0.000150
H      -0.60903953      2.78265944      2.07669979      0.000226     0.000887     0.001475
H      -2.75939782      3.39143782     -1.76481989      0.000521    -0.000847    -0.001139
H      -3.73759780      1.63622961      1.77416825     -0.000542     0.000609    -0.000263
H      -3.93710183      0.54750737     -0.96268288     -0.001189     0.000411     0.000741
H      -2.05758345     -0.68563729      0.99445056     -0.000343     0.000011     0.000523
H       0.57568583      0.96853025     -0.89750477     -0.000439     0.000017    -0.000056
H       0.28485822      3.00132377      0.81087714     -0.000146     0.000899    -0.001423
N       2.65660538      2.46666208     -0.94489164     -0.000184     0.000121    -0.000233
H       3.09258559      3.05047949     -1.65895776     -0.000265     0.000458     0.000978
H       2.92795184      2.89222132     -0.05775021      0.000181     0.000584     0.000785
H       3.18218117      1.61198493     -0.94519546      0.001158     0.000405     0.000524
23
Frame 43  Energy = -756.6927308160 Hartree
Al     -1.78704231      1.70781537     -0.03056832     -0.000123     0.000039     0.000052
O      -0.31447749      1.28594573     -1.17286621      0.000026    -0.000094     0.000236
H      -0.08678977      1.71521299     -2.00657387     -0.000788    -0.000241    -0.000585
O      -2.09982268      3.29871799     -1.06941419      0.000102     0.000054     0.000180
H      -1.65694966      4.16721868     -0.92085055     -0.000373    -0.000362     0.000005
O      -2.99968922      0.72962711     -1.15396784     -0.000239     0.000191     0.000032
H      -2.73617735      0.18356963     -1.90045228      0.000247    -0.000873    -0.000479
O      -1.52791762      0.13567082      1.01270038     -0.000145    -0.000111    -0.000012
H      -0.71521576     -0.05387392      1.53721678      0.000837     0.000070    -0.000140
O      -3.32128221      2.21189888      1.08112808      0.000086    -0.000300     0.000162
H      -3.67882484      3.10559804      1.18378528     -0.000003    -0.000905     0.000237
O      -0.56037327      2.60506082      1.12540816      0.000061     0.000182     0.000260
H      -0.59491304      2.81172608      2.07837516     -0.001538     0.000569    -0.001301
H      -2.75575910      3.41489533     -1.76503709      0.000420     0.000928     0.000492
H      -3.72052561      1.64149780      1.73438907     -0.000375     0.000433     0.000405
H      -3.93099641      0.55849071     -0.95315471      0.000205     0.000904     0.000833
H      -2.02675020     -0.70175151      1.00273830      0.000484     0.000234     0.000049
H       0.59120708      0.94489756     -0.91430445      0.001097    -0.000040     0.000617
H       0.26279662      2.99205085      0.80627632     -0.000249     0.000294    -0.000569
N       2.66182381      2.46450284     -0.94233135      0.000049     0.000340     0.000128
H       3.09177074      3.06172997     -1.64773967     -0.000225     0.000209    -0.000223
H       2.96035153      2.88385060     -0.05583378     -0.001128     0.000284     0.000200
H       3.17310361      1.60050984     -0.95025168      0.000377    -0.000884     0.000269
23
Frame 44  Energy = -756.6772728271 Hartree
Al     -1.78811351      1.70918034     -0.02809860      0.000292     0.000034     0.000133
O      -0.31211805      1.27577894     -1.17345348     -0.000235    -0.000030     0.000060
H      -0.10544694      1.76882422     -1.99806831      0.000410    -0.000530     0.001022
O      -2.09342052      3.28921254     -1.07564368      0.000071    -0.000089    -0.000776
H      -1.68816130      4.16242322     -0.94180951      0.000177    -0.000089    -0.000742
O      -2.99674827      0.73643706     -1.14870770     -0.000204    -0.000487    -0.000281
H      -2.73525159      0.16828599     -1.87530788     -0.000540     0.000573    -0.000780
O      -1.52830122      0.12732314      1.02120740      0.000094     0.000083     0.000101
H      -0.71469952     -0.02681020      1.53531230     -0.000354     0.000602     0.000949
O      -3.31070797      2.20885560      1.07430754     -0.000010     0.000268    -0.000059
H      -3.71733671      3.09686565      1.21415805      0.000713    -0.000614     0.000213
O      -0.56233146      2.60683141      1.12315734      0.000045     0.000027    -0.000166
H      -0.62050952      2.81376069      2.07496177      0.000084     0.000952    -0.000662
H      -2.79303624      3.42478328     -1.75832915     -0.000818     0.000965    -0.000755
H      -3.70943391      1.66169916      1.78531634      0.000387     0.000447     0.000454
H      -3.94633251      0.58898077     -0.97905131     -0.001169     0.000420    -0.000488
H      -2.03936525     -0.69488422      1.00272151     -0.000650    -0.000027    -0.000382
H       0.58728628      0.93485795     -0.89749973     -0.001644     0.001663    -0.001567
H       0.24846864      3.02933411      0.80155361     -0.000354    -0.000079    -0.000570
N       2.66789259      2.47257412     -0.93988822      0.000243    -0.000088    -0.000011
H       3.09990589      3.06190746     -1.64641682     -0.000011    -0.000235     0.000035
H       2.93271462      2.89534567     -0.05014938     -0.000682     0.000662    -0.000143
H       3.17668509      1.59887473     -0.94278103      0.000461    -0.000567    -0.000091
23
Frame 45  Energy = -756.6950053773 Hartree
Al     -1.78625274      1.71461603     -0.01919634     -0.000103    -0.000039     0.000022
O      -0.32285973      1.28565432     -1.16155045     -0.000216    -0.000018     0.000060
H      -0.10517442      1.76452988     -1.97330689     -0.000099     0.000431    -0.001132
O      -2.09284807      3.28863004     -1.09244534     -0.000038    -0.000301    -0.000225
H      -1.68329086      4.17876153     -0.93756064     -0.000212    -0.000759    -0.000391
O      -2.99979540      0.72879816     -1.15613932     -0.000062    -0.000200     0.000163
H      -2.75947735      0.15475919     -1.91628725     -0.000061    -0.001314     0.000724
O      -1.53829061      0.13699786      1.01491452      0.000014     0.000039     0.000171
H      -0.70912316     -0.04137989      1.50336500     -0.000111    -0.000894     0.001163
O      -3.31316524      2.21049554      1.07457011      0.000030    -0.000132    -0.000034
H      -3.71351921      3.08339728      1.21639860      0.001569     0.000039     0.000369
O      -0.56601231      2.61326716      1.11866540      0.000008     0.000086     0.000010
H      -0.61036604      2.83410498      2.06409633      0.000188     0.001441    -0.000605
H      -2.80366664      3.42497116     -1.75721020      0.000525    -0.000319     0.000116
H      -3.67527528      1.66585012      1.79720038     -0.001081     0.000625    -0.000050
H      -3.95978437      0.60365207     -1.00152195      0.000687     0.000113     0.000267
H      -2.06210867     -0.71092895      0.99885963     -0.000003    -0.000438    -0.000414
H       0.58114108      0.99505190     -0.86275216     -0.000514     0.000381     0.000130
H       0.26781901      2.99747494      0.78699293     -0.000720    -0.001133    -0.000636
N       2.66548007      2.46748511     -0.93841593      0.000108    -0.000040    -0.000043
H       3.04615699      3.06567036     -1.67397664     -0.000077    -0.000555    -0.000293
H       2.94809576      2.89055587     -0.07398373      0.000363     0.001020    -0.000122
H       3.16957236      1.55991391     -0.96775979     -0.000146    -0.000353    -0.000529
23
Frame 46  Energy = -756.6853265265 Hartree
Al     -1.79469920      1.71817044     -0.02019846      0.000038    -0.000037     0.000121
O      -0.32818848      1.28864834     -1.17589159      0.000097    -0.000061    -0.000390
H      -0.13040516      1.79824455     -1.97198986      0.001316     0.001098    -0.000008
O      -2.09254286      3.29924379     -1.08944270      0.000349     0.000271     0.000216
H      -1.64746346      4.16535329     -0.91170685     -0.000349     0.000514     0.000764
O      -3.00680058      0.72295202     -1.15723633     -0.000269    -0.000298     0.000324
H      -2.75811883      0.12710747     -1.87812795      0.000908     0.000252     0.000218
O      -1.54435522      0.13820127      1.01657365     -0.000053     0.000031    -0.000007
H      -0.75361168     -0.04818641      1.51197508      0.000182     0.000321     0.000191
O      -3.31111075      2.19892922      1.07031558      0.000146    -0.000111     0.000186
H      -3.68467298      3.09017504      1.24307086      0.000732     0.000456    -0.000972
O      -0.57448191      2.61680861      1.10954227      0.000356     0.000241     0.000135
H      -0.64920763      2.87837111      2.04515287     -0.000274     0.000599    -0.000435
H      -2.78127784      3.42113826     -1.76992112      0.000446     0.000048     0.000336
H      -3.73491116      1.66215862      1.76318664     -0.001349     0.000824    -0.000116
H      -3.95996524      0.65229447     -0.97820634      0.000515     0.000275    -0.000746
H      -2.05021122     -0.68085706      0.97454049     -0.000962    -0.000065     0.000768
H       0.57068087      0.99864100     -0.88327122     -0.000243    -0.000170    -0.000115
H       0.27414261      2.97120430      0.77622589      0.001174    -0.001186    -0.001097
N       2.66041668      2.46281249     -0.94540242     -0.000356    -0.000109     0.000070
H       3.02007339      3.08107944     -1.69771733     -0.000423    -0.000342     0.000326
H       2.95999261      2.91722507     -0.09462959      0.000417     0.000615    -0.000415
H       3.17872870      1.59534868     -0.98592054      0.000393     0.000904    -0.000036
23
Frame 47  Energy = -756.6860454712 Hartree
Al     -1.79919832      1.71745851     -0.02020255     -0.000012     0.000098     0.000028
O      -0.32938910      1.28818292     -1.18145696      0.000326    -0.000244    -0.000243
H      -0.13496099      1.80516193     -1.98779436     -0.000391    -0.000538     0.000998
O      -2.09466182      3.29782896     -1.08973037      0.000304    -0.000181    -0.000354
H      -1.69301741      4.14402176     -0.91126858      0.000383    -0.000408     0.000108
O      -3.01786672      0.71447202     -1.15138396      0.000334    -0.000053    -0.000154
H      -2.76372744      0.08599226     -1.87800585     -0.001618     0.000426     0.000571
O      -1.54721846      0.13281979      1.00932132      0.000287     0.000214     0.000394
H      -0.74208155     -0.05723809      1.52354330     -0.000103     0.000836     0.000412
O      -3.30484226      2.19905606      1.07786849      0.000225     0.000057     0.000204
H      -3.65285976      3.10961151      1.20066174      0.000189     0.000034     0.000646
O      -0.57531788      2.61182852      1.11082152     -0.000099    -0.000024     0.000173
H      -0.68347316      2.86208386      2.04233709      0.000981    -0.000746     0.000354
H      -2.77368655      3.42106119     -1.77455552      0.000379    -0.000636    -0.000387
H      -3.73187806      1.64018866      1.75813705      0.000670     0.000652     0.000174
H      -3.96012930      0.64067113     -0.96084442     -0.000962    -0.000001    -0.001330
H      -2.02311929     -0.70941015      0.96747606      0.000476    -0.000015    -0.000422
H       0.57760185      1.00110272     -0.89078729     -0.000824     0.000311     0.000101
H       0.28340295      2.93264410      0.82666344     -0.000464    -0.000666     0.000586
N       2.64779244      2.46330572     -0.95106771     -0.000167     0.000035     0.000137
H       2.96482683      3.05473094     -1.70101715     -0.000848     0.000091     0.000220
H       2.98061083      2.92470449     -0.10202547      0.000393    -0.000869     0.000494
H       3.20749973      1.60875649     -0.97451404      0.000697    -0.001649    -0.000328
23
Frame 48  Energy = -756.6867639588 Hartree
Al     -1.80321922      1.71875839     -0.01729601     -0.000016     0.000425     0.000258
O      -0.32093159      1.28828134     -1.18245618      0.000286     0.000264     0.000117
H      -0.14066139      1.82217865     -1.99126553     -0.001229    -0.000298     0.001148
O      -2.07798217      3.29509959     -1.09294252      0.000076     0.000008    -0.000146
H      -1.65868628      4.14874914     -0.90537496      0.000852    -0.000300    -0.000483
O      -3.02648321      0.71105776     -1.15135948     -0.000128     0.000337     0.000069
H      -2.78750748      0.11042875     -1.88150043     -0.001290     0.000337     0.000704
O      -1.54281778      0.13991262      1.01805292     -0.000014     0.000084    -0.000240
H      -0.74285529     -0.05249031      1.54094872      0.000025    -0.000831     0.000871
O      -3.30501033      2.21135046      1.08186841     -0.000120    -0.000078     0.000041
H      -3.64815775      3.09268592      1.17709450     -0.000802     0.000367    -0.000435
O      -0.58307945      2.60038880      1.11065720     -0.000114     0.000141    -0.000112
H      -0.67748539      2.87211447      2.03767000      0.000272     0.001549    -0.001401
H      -2.73830462      3.42680674     -1.79558099      0.000148     0.000345    -0.000608
H      -3.72540453      1.65885725      1.77363331      0.000558    -0.000119     0.000039
H      -3.96663417      0.60501979     -0.98621117      0.000142    -0.000084     0.001026
H      -2.02760621     -0.70804590      0.95524701     -0.000355    -0.000471     0.001165
H       0.58851163      1.04098577     -0.93159417      0.000415    -0.000476     0.000007
H       0.31902160      2.89943762      0.84591709      0.000830    -0.000402    -0.000714
N       2.64276822      2.46305584     -0.95061651     -0.000013    -0.000223     0.000320
H       2.95808567      3.07693588     -1.71611906     -0.000670    -0.000813    -0.000019
H       3.00000385      2.92144721     -0.12362766     -0.000461     0.000428     0.000669
H       3.24147921      1.64868827     -1.00254561     -0.000352     0.000435     0.000562
23
Frame 49  Energy = -756.6856620781 Hartree
Al     -1.80600796      1.72280677     -0.01626242     -0.000222     0.000074    -0.000098
O      -0.32161941      1.29678706     -1.17821455     -0.000096    -0.000105    -0.000074
H      -0.16817216      1.80125851     -1.98543628      0.000205    -0.000579    -0.000243
O      -2.08219661      3.30505175     -1.09429091      0.000222    -0.000224    -0.000148
H      -1.63048313      4.15489656     -0.95703554      0.000552     0.001182    -0.000110
O      -3.03078323      0.71921982     -1.14339300      0.000002     0.000341    -0.000056
H      -2.75364725      0.11796906     -1.88297248     -0.000555     0.000484     0.000796
O      -1.54560838      0.13415599      1.01934992     -0.000076     0.000004     0.000085
H      -0.75560696     -0.06379492      1.55529896     -0.000407    -0.000817     0.000422
O      -3.29733750      2.19923371      1.08594538      0.000046    -0.000004     0.000250
H      -3.64550194      3.10652938      1.19640085     -0.000176     0.000150    -0.000308
O      -0.58160846      2.59925048      1.11692029     -0.000308    -0.000253    -0.000288
H      -0.66920099      2.88516408      2.02619334     -0.000909     0.000509     0.000126
H      -2.71027407      3.41512344     -1.80523294     -0.002172    -0.000357    -0.000695
H      -3.67493559      1.65071653      1.78801669     -0.000375    -0.000570    -0.000364
H      -3.97865982      0.59171921     -0.98302219      0.001258    -0.000078    -0.000850
H      -2.07530386     -0.68900577      0.96710572      0.001044    -0.000213    -0.000449
H       0.60959754      1.01624090     -0.92789526     -0.000137    -0.000348    -0.000638
H       0.29273424      2.89810480      0.79977883     -0.001124     0.000890     0.001054
N       2.64071007      2.45332976     -0.95590514     -0.000171    -0.000193     0.000283
H       2.92628445      3.06304385     -1.74324244     -0.001101    -0.000534     0.001165
H       3.00192832      2.93933077     -0.15683477      0.000477    -0.001255    -0.000894
H       3.24322001      1.63779144     -1.01656003     -0.000348    -0.000943     0.000215
23
Frame 50  Energy = -756.6890431778 Hartree
Al     -1.80627909      1.72932980     -0.01797896      0.000237     0.000010    -0.000031
O      -0.32330053      1.29507301     -1.18199313     -0.000284     0.000069     0.000439
H      -0.16722616      1.82914807     -1.97154074     -0.000234    -0.000815     0.000140
O      -2.08036294      3.30003817     -1.10066160      0.000003     0.000058     0.000103
H      -1.64770220      4.16059038     -0.93982543     -0.001179     0.000231    -0.000269
O      -3.03308798      0.72725185     -1.14310123      0.000288    -0.000192    -0.000030
H      -2.75869085      0.15097622     -1.89482962     -0.000924     0.000066     0.000784
O      -1.54018041      0.13516471      1.02451148      0.000052    -0.000268    -0.000028
H      -0.77525808     -0.05700075      1.57287284     -0.000074    -0.000574     0.000526
O      -3.30014756      2.20314672      1.09452877      0.000069    -0.000335    -0.000012
H      -3.67166577      3.10409040      1.21570444     -0.000171    -0.000384     0.000073
O      -0.58445950      2.60793657      1.11212525     -0.000018     0.000010    -0.000054
H      -0.68030161      2.90692475      2.03510211      0.000446     0.000713    -0.000202
H      -2.71031689      3.40823327     -1.84277601      0.001213    -0.000157    -0.000344
H      -3.65489247      1.59628105      1.76881669     -0.001375    -0.000283    -0.000110
H      -3.97038233      0.61350281     -1.01344471     -0.000821    -0.000069     0.000210
H      -2.06149964     -0.69996158      0.97774485     -0.001749    -0.000498    -0.000336
H       0.58429237      1.02810878     -0.91132901      0.001444     0.000593     0.000305
H       0.28036365      2.92681044      0.79367434     -0.000655    -0.000816     0.000231
N       2.63213642      2.44636161     -0.94593037     -0.000285     0.000029     0.000041
H       2.86058390      3.05307144     -1.72864866     -0.000073    -0.000754     0.000140
H       2.98193635      2.96070503     -0.15447525      0.000488     0.000979     0.001423
H       3.26937401      1.64985823     -0.99859477     -0.000269    -0.001399    -0.000868
23
Frame 51  Energy = -756.6949173530 Hartree
Al     -1.80074756      1.72580739     -0.01991218     -0.000138     0.000121     0.000104
O      -0.32571530      1.28942469     -1.16910157     -0.000016     0.000194     0.000052
H      -0.16807624      1.80231444     -1.97417707      0.000376     0.000602     0.000535
O      -2.07949677      3.30368385     -1.09888281      0.000046    -0.000059    -0.000193
H      -1.68910636      4.16726217     -0.92599840      0.000149    -0.000420    -0.000771
O      -3.02813583      0.73275226     -1.14481749     -0.000171    -0.000085     0.000236
H      -2.80700197      0.13369105     -1.88808724     -0.000588     0.001248    -0.001180
O      -1.52562715      0.12414874      1.02916910     -0.000070     0.000092    -0.000036
H      -0.78402467     -0.06141119      1.63451424     -0.000248    -0.000170     0.000016
O      -3.30002823      2.20160244      1.09207707      0.000111     0.000000     0.000025
H      -3.70707601      3.08104373      1.18673838      0.000846    -0.000554    -0.000723
O      -0.58144058      2.60746828      1.10509314     -0.000303     0.000047     0.000179
H      -0.70437876      2.91513945      2.01868196      0.000856     0.000320    -0.000394
H      -2.69527523      3.41231109     -1.83648886     -0.000041     0.000644    -0.000315
H      -3.61924419      1.59871370      1.77091366      0.000946    -0.000985     0.000669
H      -4.00098496      0.59617624     -1.00717567      0.001115     0.001374    -0.000585
H      -2.07913954     -0.66578487      1.02353479     -0.001066     0.000890    -0.000487
H       0.56995716      1.03967778     -0.87576955     -0.000243     0.000262     0.000021
H       0.29085233      2.89027346      0.78822470     -0.000227    -0.000106    -0.000341
N       2.62905746      2.45567987     -0.94171058      0.000077     0.000024    -0.000436
H       2.84695365      3.04119422     -1.74571005      0.000888    -0.000701     0.000053
H       2.97203704      2.98923339     -0.14569196      0.001021     0.000896     0.000489
H       3.27493922      1.64617929     -1.00019364     -0.000270     0.000719    -0.000056
23
Frame 52  Energy = -756.7023064258 Hartree
Al     -1.80386581      1.72094818     -0.02373620     -0.000151     0.000140     0.000197
O      -0.33139344      1.28723258     -1.17402020      0.000104     0.000021     0.000061
H      -0.13701596      1.82007953     -1.96727053      0.000194    -0.001342     0.000645
O      -2.07496658      3.29929335     -1.10329616     -0.000003     0.000051     0.000294
H      -1.69051273      4.17283880     -0.91841362     -0.000093    -0.000790     0.000223
O      -3.02887203      0.72401731     -1.14395852     -0.000070    -0.000100     0.000067
H      -2.84002487      0.15442220     -1.90279460     -0.000042    -0.000620    -0.000863
O      -1.52691332      0.13442611      1.01899983     -0.000187     0.000217    -0.000026
H      -0.78192471     -0.02332544      1.62167896     -0.000248     0.000739     0.000013
O      -3.29121516      2.20069473      1.10223526      0.000023     0.000042    -0.000035
H      -3.72818244      3.06298355      1.19561678     -0.000723    -0.000012    -0.000191
O      -0.59103525      2.60648254      1.11671782      0.000057     0.000170     0.000118
H      -0.77064073      2.96464144      2.00983938      0.000397     0.001026    -0.000609
H      -2.69921541      3.42353742     -1.85431667     -0.000435    -0.000087     0.000389
H      -3.64284150      1.59695913      1.80041768     -0.000014     0.000334     0.000738
H      -3.97797384      0.64318676     -1.00784771     -0.000572     0.000740    -0.000334
H      -2.08776931     -0.66501276      1.01956980     -0.001412    -0.000359    -0.001270
H       0.57575685      1.03001288     -0.86901046     -0.000193    -0.000596    -0.000099
H       0.31362476      2.84873793      0.81092638     -0.000145     0.000214    -0.000003
N       2.62531463      2.45009982     -0.94394830      0.000095    -0.000020    -0.000028
H       2.87604391      3.03844468     -1.75502034     -0.000110    -0.000873     0.000834
H       2.97587464      3.00356170     -0.15239763     -0.000028     0.000486    -0.000248
H       3.24560576      1.64152924     -0.96064476     -0.000728    -0.000076     0.000337
23
Frame 53  Energy = -756.6890425093 Hartree
Al     -1.79954407      1.72138101     -0.02434473      0.000206    -0.000110     0.000110
O      -0.33579237      1.28787446     -1.16450946      0.000132    -0.000035    -0.000355
H      -0.14682872      1.81338459     -1.97000386      0.000190     0.000138     0.001031
O      -2.07486723      3.30171104     -1.09590658      0.000233    -0.000069    -0.000310
H      -1.70023226      4.20306840     -0.91792972     -0.000268    -0.001111    -0.000375
O      -3.03451022      0.71710850     -1.14367393      0.000356    -0.000010    -0.000013
H      -2.83829894      0.16997220     -1.91198941     -0.000517    -0.000664    -0.000416
O      -1.52309221      0.14135106      1.00818232     -0.000275     0.000166    -0.000287
H      -0.79229609     -0.05584255      1.61749882      0.000133    -0.000830     0.000333
O      -3.29148233      2.19741123      1.11554552     -0.000076    -0.000248    -0.000274
H      -3.72951140      3.06343246      1.20209954      0.000731    -0.000956     0.001323
O      -0.58871005      2.60268144      1.11898775     -0.000047     0.000011     0.000004
H      -0.77834424      2.96973345      1.99086198     -0.000476     0.001022     0.000134
H      -2.69451343      3.43468266     -1.83782228     -0.000685     0.000741     0.000724
H      -3.67239312      1.60027997      1.80946320     -0.000605     0.000062     0.000276
H      -4.00839056      0.64634220     -1.02695799     -0.000727    -0.000082    -0.000086
H      -2.08149741     -0.64046892      1.03259886      0.001275     0.000048     0.000315
H       0.55714093      1.02332406     -0.85041466      0.000236     0.001324    -0.000218
H       0.32698546      2.88113169      0.84423871      0.000396    -0.000335    -0.000679
N       2.62479091      2.45521822     -0.94265386      0.000248    -0.000097     0.000204
H       2.87989018      3.00066614     -1.74758327      0.000592     0.001126    -0.000217
H       2.97703493      3.04002951     -0.18783815     -0.000548     0.000354    -0.000419
H       3.22380581      1.66541018     -0.97274070      0.000708    -0.000813    -0.000513
23
Frame 54  Energy = -756.6843494102 Hartree
Al     -1.79901960      1.72005583     -0.01510196      0.000085     0.000162     0.000226
O      -0.32727351      1.28017709     -1.16618402      0.000283     0.000199     0.000129
H      -0.13015665      1.81024644     -1.94988864      0.000968     0.000465    -0.000892
O      -2.06795953      3.29658730     -1.10311929      0.000140    -0.000145    -0.000189
H      -1.67869472      4.17518733     -0.93151398     -0.000082     0.000201    -0.001772
O      -3.03389618      0.71891990     -1.16197561     -0.000268     0.000333     0.000161
H      -2.84288336      0.14565611     -1.92648521     -0.000149     0.000431     0.000085
O      -1.52328502      0.13993367      1.00359975     -0.000093     0.000033     0.000098
H      -0.77668125     -0.00553462      1.61631665     -0.000471     0.000783    -0.001026
O      -3.28869111      2.20372033      1.12499993     -0.000349    -0.000125    -0.000098
H      -3.73807698      3.05915415      1.19540772      0.000251    -0.000243    -0.000303
O      -0.58527487      2.59971112      1.12975691     -0.000222    -0.000006    -0.000234
H      -0.77616482      3.02393337      1.98535201     -0.000515    -0.000222    -0.000482
H      -2.71175279      3.45353479     -1.82562734     -0.001254    -0.000134     0.000006
H      -3.68503288      1.62230572      1.79723439     -0.001153     0.002351     0.000677
H      -4.00147269      0.67664653     -1.02127981      0.000234     0.000034    -0.000632
H      -2.08859852     -0.66795088      1.01329721      0.001505     0.000881     0.000220
H       0.58229633      1.05908578     -0.84668564      0.000892    -0.000310     0.000234
H       0.31456724      2.84428873      0.86096426      0.000837    -0.000005    -0.000487
N       2.62374646      2.45025943     -0.93636966     -0.000286     0.000188    -0.000073
H       2.85253244      3.01645648     -1.76279484      0.000531    -0.000489     0.001215
H       2.98213260      3.02202222     -0.15506430     -0.000390    -0.000420     0.000775
H       3.26963085      1.68730164     -0.98256354      0.000754    -0.000668     0.000589
23
Frame 55  Energy = -756.6881527034 Hartree
Al     -1.79886859      1.72094804     -0.01373835      0.000181    -0.000036    -0.000094
O      -0.33532580      1.29198418     -1.16735629     -0.000262    -0.000024     0.000126
H      -0.12750411      1.80970304     -1.97296215     -0.000123     0.000800     0.002006
O      -2.06729570      3.28880142     -1.10861467     -0.000036     0.000062    -0.000152
H      -1.67804549      4.15474834     -0.94249072     -0.000513    -0.000125    -0.001835
O      -3.04161492      0.72388222     -1.17250270      0.000020    -0.000072    -0.000070
H      -2.83971367      0.13563613     -1.92565748      0.000227    -0.000159    -0.000949
O      -1.52913368      0.13151493      1.00968100      0.000031    -0.000236     0.000136
H      -0.79653245      0.00577773      1.64008322     -0.000748     0.000117    -0.000022
O      -3.28919564      2.19561554      1.11719159      0.000187    -0.000006     0.000073
H      -3.73541472      3.06467160      1.16032296     -0.000290    -0.000186     0.000639
O      -0.58630517      2.59259070      1.12866079      0.000002     0.000102    -0.000092
H      -0.74863420      3.04441814      1.97417494     -0.000236    -0.000327     0.000232
H      -2.71147175      3.45064869     -1.82346367     -0.000228    -0.000686     0.000482
H      -3.68483828      1.62398443      1.80855766     -0.000628     0.000352     0.000748
H      -3.99104704      0.65069660     -1.03175648      0.000397    -0.000181     0.000780
H      -2.10001744     -0.66587804      1.03664462      0.000114     0.000058     0.000266
H       0.58326182      1.09188211     -0.87070516     -0.001020    -0.001254     0.000787
H       0.31139960      2.84637872      0.87526506      0.000387    -0.000307     0.000317
N       2.61795313      2.44812112     -0.93701463     -0.000094    -0.000439    -0.000606
H       2.86082034      2.97630842     -1.77483472      0.000205     0.001403    -0.001264
H       2.97196774      3.00885301     -0.16618213     -0.001410     0.000168     0.000593
H       3.28485359      1.65969021     -0.97795142     -0.000970     0.000267     0.000077
23
Frame 56  Energy = -756.6911855655 Hartree
Al     -1.79083350      1.72042145     -0.01577058      0.000094    -0.000029    -0.000116
O      -0.33997107      1.29382714     -1.16632912      0.000150     0.000224     0.000185
H      -0.12880945      1.82894584     -1.94576292     -0.000973     0.000388     0.000173
O      -2.07949672      3.30545353     -1.10868811     -0.000212     0.000112     0.000262
H      -1.62712235      4.17421207     -0.96247959     -0.000209    -0.000133     0.001583
O      -3.03745617      0.72217458     -1.16523281     -0.000024     0.000007    -0.000034
H      -2.86272270      0.15192915     -1.93200770      0.001033     0.000039     0.000487
O      -1.53530004      0.12579915      1.01390858     -0.000134     0.000005     0.000151
H      -0.79301140     -0.03179338      1.61247794      0.002116    -0.000908    -0.000594
O      -3.29306801      2.18984919      1.11982916     -0.000052     0.000027    -0.000119
H      -3.70226386      3.07277093      1.15438874     -0.000362    -0.000027    -0.000091
O      -0.57633877      2.60595399      1.13494734      0.000003     0.000043     0.000018
H      -0.74082888      3.02730359      1.99653880     -0.000413     0.000874    -0.001214
H      -2.72873079      3.46978518     -1.82110641     -0.000188    -0.000112     0.000463
H      -3.65249916      1.66783049      1.84991231      0.000221    -0.001077     0.000722
H      -4.01267278      0.65732138     -1.04061275      0.000115     0.001076     0.000208
H      -2.09143428     -0.67312264      1.01772267     -0.000202     0.001514     0.001183
H       0.57922502      1.06812455     -0.86344158     -0.000383    -0.000103     0.001544
H       0.32328543      2.84983128      0.85812324      0.000197    -0.000813     0.000737
N       2.61239393      2.43072990     -0.95055700      0.000004    -0.000182     0.000044
H       2.85026798      2.99835676     -1.75602629      0.000161     0.000409     0.000124
H       2.94907693      3.02074870     -0.16363677      0.000151    -0.000900     0.000202
H       3.27919501      1.65571766     -0.98579860     -0.000591    -0.001522     0.000856
23
Frame 57  Energy = -756.6891517612 Hartree
Al     -1.78680061      1.72106545     -0.02111746      0.000003    -0.000076     0.000234
O      -0.34068009      1.29586651     -1.16199202     -0.000130    -0.000133    -0.000017
H      -0.16308393      1.82909264     -1.95837707     -0.000408     0.000068    -0.000016
O      -2.08071103      3.29865498     -1.12099382     -0.000016     0.000201    -0.000133
H      -1.62473431      4.16477186     -0.95520293      0.000046     0.001279     0.000071
O      -3.03504606      0.72245868     -1.16876680     -0.000056    -0.000068     0.000029
H      -2.82723387      0.14732107     -1.95028709     -0.000886     0.000144     0.000478
O      -1.53433655      0.12251262      1.01960102     -0.000001     0.000183     0.000264
H      -0.78306715     -0.04345547      1.62000282     -0.001129    -0.000239     0.001078
O      -3.29857140      2.18536881      1.11623487      0.000330     0.000106    -0.000123
H      -3.70427315      3.07932751      1.15919977      0.000104     0.001141     0.000394
O      -0.57167405      2.60206222      1.12479719     -0.000124    -0.000159    -0.000164
H      -0.73972364      3.04648416      1.97021942      0.000638     0.000164     0.000292
H      -2.72393680      3.45660216     -1.83075403      0.001017    -0.000373    -0.001324
H      -3.67729365      1.65892569      1.84794064     -0.000617     0.002015    -0.001359
H      -4.00178964      0.65671831     -0.97423965      0.000992    -0.000582     0.000520
H      -2.07620006     -0.68870009      1.00900077     -0.000152    -0.000907     0.000435
H       0.58627372      1.05445497     -0.86079733     -0.001516     0.000258     0.000344
H       0.31606423      2.81229108      0.83058784      0.000130     0.000568    -0.001080
N       2.62748309      2.42882364     -0.94353957     -0.000327     0.000141     0.000172
H       2.83418974      2.98755061     -1.76755821      0.000279     0.000034     0.000646
H       2.97789946      2.98926002     -0.15615851     -0.000227     0.000359    -0.000252
H       3.28260624      1.64683354     -1.00273661      0.001223     0.000702    -0.000058
23
Frame 58  Energy = -756.7004112397 Hartree
Al     -1.79818469      1.71597673     -0.02159190     -0.000016     0.000080     0.000072
O      -0.33932936      1.29201216     -1.15112463      0.000058     0.000112     0.000100
H      -0.16806292      1.83598955     -1.94349810     -0.000302     0.000379     0.000123
O      -2.08159161      3.30063565     -1.11337103      0.000102    -0.000196    -0.000055
H      -1.63235068      4.13931938     -0.93718705     -0.000183    -0.000165    -0.000317
O      -3.05113703      0.71549830     -1.16628616      0.000245     0.000181     0.000086
H      -2.87268925      0.14399657     -1.94533319     -0.000729    -0.000037    -0.000491
O      -1.53469365      0.12809386      1.02641210     -0.000098    -0.000219    -0.000026
H      -0.81429439     -0.05924807      1.66438857     -0.000888     0.000008     0.000104
O      -3.29373448      2.18725533      1.12247467      0.000066    -0.000141     0.000159
H      -3.70674533      3.07427127      1.18501496     -0.000301     0.000472    -0.000464
O      -0.56561345      2.61266890      1.11485649     -0.000021    -0.000122     0.000063
H      -0.69567327      3.05411455      1.97727916     -0.000502    -0.000584    -0.000230
H      -2.68432228      3.45833286     -1.84018818     -0.000727    -0.000766    -0.000198
H      -3.69196894      1.66328362      1.83919888     -0.000277    -0.001059    -0.001632
H      -4.00363074      0.66885365     -0.97644775     -0.000216    -0.001046    -0.000695
H      -2.06960118     -0.70011918      0.95748480      0.000125     0.000741     0.000045
H       0.58385100      1.04912079     -0.86056528     -0.000558     0.000489     0.000759
H       0.33959709      2.78997785      0.79703300      0.000479     0.001251    -0.000746
N       2.62137123      2.43091500     -0.94667664     -0.000432    -0.000056     0.000051
H       2.85089597      2.97226539     -1.79072985      0.000365    -0.000265    -0.000080
H       2.95831920      3.01746781     -0.19186604     -0.000628    -0.000738    -0.000352
H       3.32151121      1.67572874     -0.98334657     -0.000778    -0.000461     0.000847
23
Frame 59  Energy = -756.6933270215 Hartree
Al     -1.79727814      1.71323240     -0.02112763     -0.000275    -0.000170     0.000095
O      -0.33409982      1.28934121     -1.15599611     -0.000198     0.000072    -0.000134
H      -0.17529128      1.81412184     -1.94612785     -0.000166     0.000284     0.001088
O      -2.07254318      3.29684533     -1.10834822      0.000128     0.000128     0.000095
H      -1.61812023      4.15552282     -0.94436617     -0.001267    -0.000168     0.000533
O      -3.04670817      0.71882362     -1.16181467     -0.000212     0.000024     0.000190
H      -2.88601976      0.17649031     -1.95237484      0.000650    -0.000928    -0.000035
O      -1.53912909      0.11781137      1.02847204     -0.000199    -0.000025     0.000056
H      -0.83362484     -0.07052295      1.63133872      0.000711    -0.000282    -0.000005
O      -3.29537192      2.18744278      1.11336606      0.000192    -0.000104     0.000287
H      -3.72392583      3.04527599      1.17738506      0.000044    -0.000179    -0.000549
O      -0.55762293      2.61195979      1.10968920     -0.000101    -0.000223    -0.000136
H      -0.72138088      3.05130705      1.94996753      0.000265    -0.001219    -0.000600
H      -2.68303273      3.42663405     -1.84635174      0.000192     0.001046     0.000270
H      -3.67320835      1.62777373      1.82936122     -0.001272     0.000812    -0.000046
H      -4.00678854      0.62597246     -1.00015788     -0.000704     0.000577     0.000613
H      -2.11226442     -0.67627966      0.91450117      0.000610     0.000164     0.000589
H       0.58520678      1.05318043     -0.85907643     -0.000120    -0.001038     0.000175
H       0.37145442      2.78559101      0.79174078      0.000405    -0.000220     0.000412
N       2.61508239      2.42859084     -0.94199122     -0.000111     0.000192     0.000031
H       2.83972471      2.97182671     -1.77638571     -0.000919    -0.000604    -0.000535
H       2.98660972      3.01621994     -0.18866808      0.000814    -0.000123     0.001087
H       3.29331427      1.65652200     -0.96902062     -0.000021     0.000140     0.001748
23
Frame 60  Energy = -756.6988441709 Hartree
Al     -1.80199937      1.70969984     -0.01778820     -0.000055    -0.000112    -0.000115
O      -0.32765040      1.28676725     -1.16478199     -0.000401     0.000103     0.000040
H      -0.16284680      1.80107658     -1.96609932      0.000406    -0.000838    -0.001190
O      -2.07448076      3.30900467     -1.10868029     -0.000231     0.000070    -0.000151
H      -1.64244879      4.18692527     -0.91870649      0.000003    -0.000294    -0.000342
O      -3.05110458      0.71624892     -1.15076199     -0.000258     0.000311     0.000068
H      -2.90375414      0.19373304     -1.96334904      0.000314     0.000764    -0.000276
O      -1.54465572      0.11940023      1.02502440      0.000013     0.000086    -0.000304
H      -0.83497722     -0.08744812      1.65399068      0.000846    -0.000478    -0.000025
O      -3.28830606      2.19457900      1.11858545     -0.000063    -0.000154     0.000003
H      -3.75528582      3.05672939      1.15280859     -0.000079    -0.000323    -0.000024
O      -0.55837427      2.60397802      1.10734791      0.000115    -0.000099     0.000181
H      -0.70051966      3.07686427      1.93355899     -0.000401    -0.000661     0.000489
H      -2.70440902      3.39269366     -1.86933455     -0.001154    -0.000126     0.000107
H      -3.67579867      1.65719863      1.83641794      0.000690    -0.000533    -0.000203
H      -4.00529743      0.64837001     -0.99446506     -0.000355    -0.001023    -0.001266
H      -2.09101815     -0.69351441      0.91657895     -0.000338    -0.000329    -0.000172
H       0.58815399      1.05125446     -0.87530283      0.000354    -0.000476    -0.000389
H       0.33183201      2.80565055      0.80645265      0.000320    -0.001239    -0.000011
N       2.61754358      2.42780576     -0.94800880      0.000060    -0.000157    -0.000067
H       2.81513672      2.94405370     -1.79626873     -0.000051    -0.001152     0.000581
H       2.98666543      2.99901051     -0.18649606     -0.000807    -0.000403     0.000134
H       3.24913849      1.63792955     -0.96622694     -0.000432    -0.000304     0.000486
23
Frame 61  Energy = -756.6881184159 Hartree
Al     -1.80292441      1.71244518     -0.02224072      0.000035     0.000168     0.000122
O      -0.32929973      1.28218695     -1.15925755     -0.000143     0.000076    -0.000218
H      -0.15931177      1.80345269     -1.96739425      0.000496     0.001311    -0.001016
O      -2.07548767      3.30763688     -1.10479525      0.000153     0.000052    -0.000014
H      -1.65889272      4.16842109     -0.95638302     -0.000485     0.000121    -0.000011
O      -3.05415114      0.72359080     -1.14688204     -0.000073     0.000119    -0.000344
H      -2.84798866      0.21016869     -1.96872008     -0.000571     0.000343     0.001220
O      -1.54562335      0.11700588      1.02687425      0.000243     0.000021     0.000090
H      -0.82473232     -0.07774696      1.64684896      0.000045    -0.000920    -0.000662
O      -3.29343057      2.19174913      1.11157396      0.000111     0.000076     0.000091
H      -3.76584792      3.04419198      1.15586687      0.000229    -0.000168    -0.000071
O      -0.56168774      2.60776074      1.10516727      0.000262     0.000122    -0.000414
H      -0.68926131      3.10360972      1.93591314     -0.000507    -0.000113    -0.000017
H      -2.69353215      3.40120013     -1.87005282     -0.000110    -0.001883    -0.000599
H      -3.66014934      1.65021832      1.82266325     -0.000145    -0.000875    -0.000019
H      -4.00796650      0.61091014     -0.99348984     -0.001547     0.000629    -0.000187
H      -2.08050639     -0.68479657      0.89734083      0.000287    -0.000256     0.000798
H       0.59435090      1.03017811     -0.90183503     -0.000457    -0.000324     0.000237
H       0.36733244      2.77743605      0.80151584     -0.000627     0.000343    -0.001067
N       2.61251331      2.42452211     -0.93967093     -0.000051    -0.000074     0.000579
H       2.83496555      2.95948876     -1.78675111      0.000121    -0.000560     0.001686
H       3.01058654      2.98747047     -0.18464601      0.000040     0.000069     0.001704
H       3.26253114      1.66282840     -0.96125389     -0.000291    -0.000149     0.000654
23
Frame 62  Energy = -756.6840081450 Hartree
Al     -1.80046758      1.71645073     -0.01610774      0.000097     0.000243    -0.000046
O      -0.32164612      1.29066040     -1.16332435      0.000471    -0.000023     0.000211
H      -0.15229229      1.78542757     -1.97359585     -0.000285     0.000662    -0.000305
O      -2.07456987      3.31135029     -1.11795499      0.000012    -0.000088    -0.000343
H      -1.71741307      4.19288429     -0.94070063     -0.000601    -0.000710    -0.000390
O      -3.05218039      0.72181857     -1.15515501     -0.000120     0.000100    -0.000061
H      -2.82344158      0.18966560     -1.93251109     -0.000153    -0.000838    -0.000892
O      -1.52837342      0.11993601      1.04087491     -0.000329     0.000127    -0.000027
H      -0.80860616     -0.08910462      1.66298929      0.000753     0.001678     0.000108
O      -3.28919603      2.19647685      1.12024583      0.000180     0.000261    -0.000058
H      -3.77647863      3.05500868      1.13639202      0.000309    -0.001755     0.000482
O      -0.55590424      2.61427250      1.09272202      0.000210    -0.000015    -0.000070
H      -0.69319405      3.10778490      1.92066870      0.000936    -0.000482     0.000856
H      -2.68064325      3.40831873     -1.83519346     -0.000876    -0.000207    -0.000506
H      -3.67391660      1.59844759      1.79730360      0.000076    -0.000856     0.000016
H      -4.00586765      0.59975593     -0.99164044     -0.000162    -0.000550    -0.000232
H      -2.04854554     -0.69958714      0.93488368      0.001270     0.000073    -0.000681
H       0.59878923      1.08693358     -0.87359079      0.000691    -0.000262    -0.001927
H       0.36509938      2.78253204      0.76542630     -0.000242    -0.001286     0.001190
N       2.61117773      2.43406257     -0.92651632      0.000088    -0.000493    -0.000194
H       2.83354111      2.94030169     -1.79270596     -0.000336    -0.000342    -0.000666
H       2.99927608      2.99741152     -0.17572743     -0.000307     0.000654    -0.000520
H       3.24460866      1.64022934     -0.95685444      0.000311     0.001091    -0.000152
23
Frame 63  Energy = -756.6948340962 Hartree
Al     -1.79632360      1.72315121     -0.02446965      0.000090     0.000186     0.000037
O      -0.32500845      1.28708850     -1.16045462      0.000157    -0.000144    -0.000263
H      -0.12570006      1.81293700     -1.95805078     -0.000706    -0.000370    -0.000404
O      -2.07512085      3.31016900     -1.11623683      0.000026     0.000481     0.000112
H      -1.70144082      4.18779688     -0.92610127      0.000560    -0.000338     0.000604
O      -3.04904288      0.72214618     -1.15541261      0.000215    -0.000059     0.000131
H      -2.85194361      0.17706938     -1.94609559      0.000715     0.000407     0.000209
O      -1.53407253      0.12250074      1.03509249     -0.000098    -0.000157     0.000059
H      -0.82662557     -0.06177524      1.67027449     -0.000425    -0.001180    -0.001101
O      -3.29124744      2.19686608      1.11779711     -0.000220    -0.000048     0.000077
H      -3.77953678      3.03079558      1.14759594     -0.000650     0.001001    -0.000103
O      -0.54918346      2.61003521      1.08870552     -0.000061     0.000136    -0.000097
H      -0.66803423      3.08589468      1.92498346     -0.000426    -0.000062    -0.000517
H      -2.72902415      3.42007047     -1.83106257     -0.000953    -0.000003     0.000411
H      -3.65216704      1.60575602      1.77888441     -0.000727     0.000129     0.000892
H      -3.99330900      0.61544575     -0.99847298      0.001252    -0.000901    -0.000109
H      -1.99716744     -0.69069618      0.86840941      0.000263     0.000250    -0.000551
H       0.60770310      1.05447337     -0.87872867      0.000390    -0.000045     0.000040
H       0.37052634      2.73676399      0.79538518      0.000154    -0.000268     0.000078
N       2.61088033      2.42408753     -0.93031131     -0.000139    -0.000418     0.000030
H       2.85120901      2.91845060     -1.79704264     -0.000348     0.001129     0.000068
H       3.00544189      2.99049009     -0.19611515      0.000031    -0.000056    -0.000947
H       3.24843946      1.60012118     -0.97182024      0.000665    -0.000940     0.001615
23
Frame 64  Energy = -756.6875235639 Hartree
Al     -1.79161968      1.72893378     -0.02766711      0.000004    -0.000049     0.000193
O      -0.32656595      1.29496213     -1.16749148      0.000046    -0.000442    -0.000124
H      -0.17425297      1.79117893     -1.99122502     -0.000246    -0.000209    -0.001056
O      -2.07441198      3.31776039     -1.11683043     -0.000231     0.000151     0.000026
H      -1.69464126      4.19756431     -0.93965473     -0.000012     0.000233     0.000214
O      -3.04364508      0.73006269     -1.15924826      0.000120     0.000081    -0.000026
H      -2.85582066      0.20502949     -1.96418575     -0.001585    -0.000403    -0.000779
O      -1.54037731      0.12380306      1.02565456     -0.000079     0.000186     0.000264
H      -0.82865722     -0.06110257      1.66867996     -0.000684     0.000114     0.001200
O      -3.29945390      2.20380072      1.10718353     -0.000089    -0.000252    -0.000166
H      -3.77134910      3.05496990      1.17417149     -0.000096     0.000310    -0.002000
O      -0.54454849      2.60569580      1.08914889      0.000185     0.000071    -0.000004
H      -0.67221947      3.08695526      1.91753795      0.001243    -0.000560     0.001045
H      -2.73689696      3.38175823     -1.82240923      0.000692     0.001244    -0.000317
H      -3.67616386      1.64377138      1.82777632     -0.000529    -0.000806     0.000289
H      -4.01049066      0.63710476     -0.99332332      0.000392     0.001091     0.000669
H      -1.98474466     -0.72301157      0.90145536     -0.000839    -0.001228    -0.001455
H       0.59213753      1.06837280     -0.90153124     -0.000326     0.000432    -0.001328
H       0.38726433      2.74556056      0.78999521     -0.001202    -0.000328    -0.000219
N       2.61018359      2.42130006     -0.92902260      0.000117    -0.000143     0.000134
H       2.84511983      2.93694826     -1.79472190      0.000347     0.000099    -0.000483
H       3.01925575      3.00266977     -0.22713854      0.000512     0.000416     0.001026
H       3.25835290      1.61929820     -0.92927467     -0.000826     0.000416    -0.000384
23
Frame 65  Energy = -756.6911156410 Hartree
Al     -1.79437698      1.72745042     -0.02839033     -0.000229     0.000034     0.000031
O      -0.32531347      1.28355828     -1.17536949     -0.000037    -0.000014     0.000007
H      -0.16359751      1.78606094     -2.01260932     -0.000536    -0.000492     0.000411
O      -2.07639003      3.32341965     -1.11424188     -0.000183    -0.000436     0.000011
H      -1.67507161      4.19723173     -0.94094844      0.000718     0.000186     0.000695
O      -3.04436052      0.73208487     -1.16324050      0.000165     0.000305     0.000197
H      -2.84823882      0.16207378     -1.93742950     -0.000766     0.000076     0.000578
O      -1.54137757      0.12227156      1.03246521     -0.000419    -0.000018     0.000246
H      -0.83954638     -0.04851405      1.69692198      0.000553    -0.000999    -0.000747
O      -3.29831198      2.20314526      1.10689388      0.000143    -0.000086    -0.000097
H      -3.79679727      3.00600917      1.14532964      0.000584     0.001525     0.000504
O      -0.54400257      2.60663856      1.09474556     -0.000183     0.000118     0.000294
H      -0.62890823      3.09513099      1.94441189     -0.001070    -0.000083     0.000637
H      -2.76579354      3.40893992     -1.80955199     -0.000011     0.000045    -0.001475
H      -3.64192577      1.62474051      1.80241055      0.000201    -0.000848     0.000756
H      -4.00494624      0.62842328     -0.98932740     -0.000595    -0.000127    -0.000052
H      -1.98956309     -0.71110442      0.85988778      0.000207    -0.000089    -0.000436
H       0.59216885      1.08613551     -0.89319089     -0.000545     0.001348    -0.001100
H       0.36100305      2.71248635      0.75714186     -0.000737     0.000691    -0.000729
N       2.61139840      2.42375183     -0.92249120      0.000105     0.000152    -0.000184
H       2.80897547      2.94899264     -1.76881869     -0.000432     0.000806     0.000250
H       3.01375718      3.00449174     -0.17196899     -0.000492    -0.000995     0.000026
H       3.21148558      1.60055225     -0.94615799      0.000560     0.000028    -0.000816
23
Frame 66  Energy = -756.6951599086 Hartree
Al     -1.79310117      1.72704484     -0.03386528     -0.000145     0.000074     0.000147
O      -0.33340065      1.28278496     -1.17556056      0.000018     0.000128    -0.000088
H      -0.16171523      1.76063745     -2.00446623      0.000139     0.000049    -0.000768
O      -2.07793135      3.31687230     -1.11004269     -0.000214    -0.000219    -0.000118
H      -1.68565491      4.19884206     -0.95829343      0.000207    -0.000001     0.000414
O      -3.04049171      0.73352572     -1.15906812      0.000238    -0.000073    -0.000067
H      -2.84478059      0.18467018     -1.95205551     -0.000003    -0.000581     0.000968
O      -1.55155672      0.12067735      1.03674003      0.000382    -0.000274    -0.000146
H      -0.82774641     -0.05333437      1.67488241      0.000259     0.000512     0.000798
O      -3.29681864      2.18834214      1.10464909      0.000160     0.000011     0.000302
H      -3.78455462      3.03793767      1.14413039     -0.001113    -0.000797     0.000257
O      -0.55935509      2.60033066      1.09885742      0.000257    -0.000286    -0.000462
H      -0.64503135      3.10216885      1.92124377      0.000505    -0.000018     0.000394
H      -2.75200139      3.41207227     -1.81204268      0.000180     0.000043    -0.000503
H      -3.66304735      1.58279282      1.78005377      0.000107     0.001007     0.000072
H      -4.00957328      0.64319414     -0.99453517     -0.000549     0.000036    -0.000652
H      -1.97900592     -0.74229374      0.87703282      0.000690    -0.000828    -0.001051
H       0.59898450      1.07310978     -0.88838756     -0.000177    -0.000645     0.000294
H       0.33879246      2.71820029      0.69971517      0.000439    -0.000358     0.000563
N       2.60363806      2.41209194     -0.91492180      0.000180    -0.000251    -0.000123
H       2.79151270      2.95462514     -1.77043362      0.001490    -0.000037    -0.000542
H       2.99607936      2.97830172     -0.16964966      0.000416     0.000251    -0.000760
H       3.22559715      1.60576425     -0.97443797     -0.000360    -0.000455     0.000685
23
Frame 67  Energy = -756.6935763219 Hartree
Al     -1.79941901      1.72393932     -0.03391587      0.000099     0.000226     0.000000
O      -0.33586477      1.28496897     -1.16892925     -0.000060    -0.000037    -0.000058
H      -0.16100242      1.79378906     -1.98412807      0.000663    -0.001678    -0.000531
O      -2.08357131      3.30676989     -1.11427822      0.000154     0.000276     0.000137
H      -1.70638216      4.19574545     -0.92091008      0.000006     0.001855    -0.001261
O      -3.04505306      0.73454204     -1.16307784     -0.000043     0.000022    -0.000196
H      -2.85003676      0.20905872     -1.95532430      0.001167     0.001138     0.000104
O      -1.54673803      0.10632923      1.03964876      0.000034    -0.000245    -0.000100
H      -0.86291765     -0.02681380      1.68079327      0.000775     0.000721     0.001118
O      -3.29859897      2.18604714      1.09337302     -0.000236     0.000237     0.000360
H      -3.77260437      3.03679222      1.13969930     -0.001194    -0.000279     0.000097
O      -0.56721349      2.60326377      1.09136401     -0.000077     0.000048     0.000078
H      -0.63036463      3.06724327      1.94597488      0.000417     0.000178    -0.000259
H      -2.76104928      3.39192661     -1.81908536      0.000170    -0.000301     0.000375
H      -3.65397371      1.59925260      1.79157581      0.000330    -0.000344    -0.000062
H      -3.99535589      0.63796797     -0.97290138      0.000313    -0.000925     0.000676
H      -1.95791136     -0.74927335      0.85258572     -0.000124     0.000088    -0.000923
H       0.56655928      1.03363383     -0.88399149      0.000121    -0.000077     0.000412
H       0.33840409      2.70242411      0.72529067     -0.000982    -0.000405    -0.000502
N       2.60024743      2.42107776     -0.91809283      0.000206     0.000073     0.000149
H       2.78723034      2.96402448     -1.77913621      0.000188    -0.000065     0.000775
H       2.98454325      2.97964506     -0.16740082      0.000360     0.001479     0.000282
H       3.21604676      1.60444385     -0.98951709     -0.000393     0.000385    -0.000012
23
Frame 68  Energy = -756.6943680075 Hartree
Al     -1.80018587      1.72377978     -0.02711824      0.000078    -0.000209     0.000061
O      -0.33938041      1.28133642     -1.16564714      0.000176     0.000263    -0.000125
H      -0.15194803      1.75104938     -1.99474364      0.000599     0.000202    -0.000293
O      -2.08387064      3.32248309     -1.11022335      0.000087     0.000395    -0.000083
H      -1.69319192      4.20242515     -0.97633372     -0.000135    -0.001134     0.000040
O      -3.04707498      0.72966410     -1.16685244      0.000290    -0.000664    -0.000145
H      -2.83626780      0.20259839     -1.94093862      0.000416    -0.001562     0.000039
O      -1.54666305      0.11259698      1.03168440     -0.000013     0.000122    -0.000136
H      -0.84898284     -0.02258921      1.69717456      0.000136    -0.000119     0.000086
O      -3.30214385      2.18879935      1.10472601      0.000211    -0.000087    -0.000226
H      -3.74804531      3.06284901      1.12775834     -0.001161     0.000145    -0.000022
O      -0.55441262      2.60534428      1.09453679     -0.000048    -0.000117    -0.000045
H      -0.59985919      3.04084838      1.95187548      0.000377     0.000097     0.000266
H      -2.76183652      3.41029941     -1.78717682      0.000439    -0.000149    -0.000014
H      -3.63873433      1.63892470      1.82121931      0.000354    -0.000651    -0.000202
H      -4.00321026      0.59770034     -0.95377239      0.000185     0.000389    -0.000543
H      -1.96306321     -0.73543209      0.84512482     -0.001203    -0.000009     0.000240
H       0.56391768      1.01766307     -0.86534910      0.000799     0.000362    -0.000429
H       0.34513071      2.73820408      0.73064322      0.000141    -0.000009    -0.000665
N       2.60338730      2.41355382     -0.91719402     -0.000157     0.000225     0.000149
H       2.77260930      2.93980269     -1.77006516     -0.000777     0.001654     0.000042
H       2.99981434      2.99275194     -0.19415457      0.000350    -0.000554    -0.000476
H       3.20697692      1.59237865     -0.97682438      0.000364    -0.000528     0.000365
23
Frame 69  Energy = -756.6980601200 Hartree
Al     -1.79578805      1.71736407     -0.02944016     -0.000078     0.000083    -0.000023
O      -0.34487160      1.28109120     -1.16951101      0.000217    -0.000200     0.000116
H      -0.16607084      1.74447562     -2.01608260      0.001140     0.000756     0.000166
O      -2.07958731      3.32813238     -1.10466354      0.000152    -0.000176    -0.000279
H      -1.68117495      4.20567847     -0.96193489     -0.000216     0.000233     0.000400
O      -3.03920363      0.73118393     -1.16267590      0.000195    -0.000149    -0.000027
H      -2.78441710      0.18620997     -1.93073009      0.000442     0.001024    -0.000206
O      -1.54334123      0.11214248      1.03837690     -0.000183    -0.000028    -0.000003
H      -0.88214840     -0.00814221      1.73551499      0.000642    -0.000318    -0.000436
O      -3.30093489      2.19185827      1.10517396      0.000242    -0.000028     0.000001
H      -3.80152578      3.04019970      1.12571316     -0.000405     0.001678    -0.000129
O      -0.55151511      2.59440850      1.09392821      0.000147    -0.000226    -0.000157
H      -0.59592237      3.02611205      1.95885121      0.000128    -0.000183    -0.000069
H      -2.75305973      3.40116533     -1.78169688      0.000687    -0.000281    -0.000711
H      -3.68814573      1.64202029      1.80518797      0.000224     0.000909    -0.001193
H      -3.96431179      0.55381596     -0.95345867      0.000306    -0.000057     0.000872
H      -1.96276130     -0.76003749      0.86300027     -0.000037     0.000346     0.000772
H       0.55487801      1.00852885     -0.87878954      0.001610     0.000636     0.001023
H       0.36824772      2.72454807      0.75954747      0.000911     0.000034     0.000191
N       2.59010249      2.41489720     -0.91366367     -0.000115    -0.000072    -0.000169
H       2.78480774      2.94514998     -1.76426455      0.000154    -0.000293     0.000311
H       3.01881687      2.98887650     -0.16062099     -0.000764     0.000543     0.000010
H       3.22435762      1.61937276     -0.97755917     -0.000853    -0.001313    -0.000467
23
Frame 70  Energy = -756.6880135289 Hartree
Al     -1.79188841      1.71654848     -0.03719993      0.000010     0.000060    -0.000170
O      -0.34168877      1.27953558     -1.16939695      0.000623     0.000102    -0.000151
H      -0.18066563      1.72224262     -2.04251710     -0.000668    -0.000613    -0.000299
O      -2.07925575      3.32170147     -1.10834668      0.000029    -0.000071     0.000153
H      -1.68788251      4.21073113     -0.98696820     -0.000240    -0.001271    -0.001085
O      -3.03238762      0.73434890     -1.15442952     -0.000372     0.000049    -0.000206
H      -2.80066345      0.19375549     -1.93038765     -0.000796    -0.000607    -0.001296
O      -1.54582541      0.10947553      1.04111989     -0.000065    -0.000115     0.000244
H      -0.90074132     -0.00995213      1.75411750      0.000412     0.000960    -0.000313
O      -3.28876679      2.19871338      1.10598434      0.000088    -0.000234    -0.000054
H      -3.79681950      3.03013688      1.11486969     -0.000464     0.000733     0.000985
O      -0.55077045      2.58784710      1.09485289     -0.000060    -0.000039    -0.000048
H      -0.61593073      3.03854874      1.95285685      0.000609    -0.000212    -0.000678
H      -2.75819552      3.42629749     -1.80318571     -0.001078     0.000143     0.000221
H      -3.66690519      1.59975652      1.78384183     -0.000861     0.000715    -0.000241
H      -3.98226571      0.56934915     -0.94418472      0.001270    -0.001095    -0.000641
H      -1.96604559     -0.75128179      0.86002210      0.000486     0.001070     0.000827
H       0.57764990      1.05058057     -0.86237497     -0.000817    -0.000508     0.000079
H       0.37801369      2.70028989      0.75556942     -0.001122    -0.000527    -0.000301
N       2.58457921      2.40996165     -0.91279287     -0.000109    -0.000051    -0.000278
H       2.80440419      2.92277018     -1.77127930     -0.000095    -0.000823     0.001422
H       3.00255346      2.97913424     -0.18601026      0.000124     0.000633     0.000941
H       3.20286881      1.60000229     -0.96214245      0.001337     0.000397     0.000025
23
Frame 71  Energy = -756.6915090985 Hartree
Al     -1.79683616      1.71830605     -0.03536673     -0.000206    -0.000023    -0.000136
O      -0.34180632      1.27800410     -1.17737485      0.000230    -0.000413    -0.000277
H      -0.17933295      1.71323627     -2.05382061     -0.001124    -0.000870     0.000764
O      -2.09264522      3.31230396     -1.10702819      0.000173    -0.000058     0.000242
H      -1.68596772      4.20229556     -0.97119598     -0.000672     0.000549    -0.000100
O      -3.02820902      0.74085125     -1.15923913     -0.000114     0.000257     0.000200
H      -2.79975883      0.16292523     -1.92908867      0.000247     0.000897     0.000341
O      -1.54216298      0.10547748      1.04355748     -0.000211    -0.000231    -0.000246
H      -0.91436060      0.02066433      1.75849332      0.000724    -0.001024    -0.000334
O      -3.28690370      2.19520343      1.10727776      0.000331    -0.000035    -0.000039
H      -3.78387421      3.03462880      1.14454800      0.000208    -0.000017    -0.000613
O      -0.54470548      2.58954860      1.09571264      0.000156     0.000137     0.000107
H      -0.63289247      3.05390329      1.94386930     -0.000468     0.000190    -0.000695
H      -2.76066978      3.37987861     -1.78278535     -0.000094     0.001255    -0.000584
H      -3.70351617      1.61223442      1.75401542     -0.001479    -0.000270    -0.000334
H      -3.97071987      0.56055527     -0.98042253     -0.000430     0.000300    -0.001403
H      -1.95344441     -0.75239404      0.86840729      0.000478     0.000458     0.000083
H       0.57885152      1.06281823     -0.88515214     -0.000803     0.000438    -0.000707
H       0.37989436      2.73765137      0.80080334      0.000489    -0.000570    -0.000388
N       2.58635679      2.41539624     -0.92015187     -0.000104    -0.000049     0.000036
H       2.81887639      2.91067337     -1.78412625     -0.000614     0.000204     0.000749
H       2.99026551      3.02063308     -0.16856723     -0.000021    -0.000498     0.000258
H       3.23461203      1.63202544     -1.00107948      0.000822     0.001392     0.000020
23
Frame 72  Energy = -756.7019409177 Hartree
Al     -1.79638840      1.71827934     -0.03807661      0.000065     0.000134    -0.000023
O      -0.34492462      1.26811854     -1.18637230     -0.000233    -0.000031     0.000121
H      -0.20014101      1.72309447     -2.03540769      0.001428     0.000300     0.000166
O      -2.09031766      3.31236624     -1.10684033      0.000096    -0.000030     0.000135
H      -1.68215729      4.19173702     -0.99397328     -0.000175    -0.000914    -0.000117
O      -3.03138353      0.74244566     -1.15616326     -0.000086    -0.000037    -0.000009
H      -2.79258161      0.18370628     -1.93064139     -0.000239     0.000468    -0.000595
O      -1.54991425      0.11273571      1.04450270      0.000003    -0.000146     0.000134
H      -0.90118949     -0.02370235      1.75965901      0.000635     0.000914    -0.000697
O      -3.28226276      2.19019614      1.10292469     -0.000005    -0.000338     0.000119
H      -3.78291203      3.02904141      1.10835570      0.000865     0.000648     0.000230
O      -0.54193748      2.58522611      1.09429995     -0.000178    -0.000181     0.000216
H      -0.63991884      3.03740442      1.95795137      0.000742     0.000509    -0.000121
H      -2.77840980      3.41578688     -1.78854911     -0.000386     0.000184    -0.000061
H      -3.70358975      1.59936718      1.76366292     -0.000762    -0.001039     0.000203
H      -3.96796189      0.59263104     -0.95853496     -0.000920    -0.000226     0.000302
H      -1.94262472     -0.77180884      0.91035830     -0.000071    -0.000116     0.000761
H       0.57449774      1.07619074     -0.89942211     -0.000634    -0.000673    -0.001077
H       0.34784764      2.76405228      0.78768978     -0.000259    -0.000484    -0.000090
N       2.58142194      2.41959885     -0.92396437     -0.000276    -0.000036     0.000111
H       2.79450445      2.92772971     -1.77614116      0.000714     0.001129    -0.000300
H       2.94341678      3.00332302     -0.16075685     -0.000487     0.000862     0.000519
H       3.24301531      1.63006343     -0.96796551     -0.000400     0.000575    -0.001162
23
Frame 73  Energy = -756.6904015302 Hartree
Al     -1.79183718      1.71305785     -0.03468326      0.000150     0.000116     0.000043
O      -0.34520304      1.28090437     -1.18550803      0.000067    -0.000194    -0.000036
H      -0.19519660      1.74036941     -2.03907596      0.000516     0.000593     0.000571
O      -2.11034965      3.30504018     -1.10068029     -0.000122     0.000151     0.000154
H      -1.69133856      4.18260836     -1.00831270      0.000958    -0.000024    -0.000165
O      -3.02632188      0.74047307     -1.15961356     -0.000180    -0.000110     0.000076
H      -2.81340514      0.21034841     -1.92025012      0.001322    -0.000336     0.000309
O      -1.54219481      0.10995140      1.04575180     -0.000305    -0.000303     0.000253
H      -0.89517517     -0.03284572      1.75398138     -0.000292     0.000321     0.000243
O      -3.28300107      2.18636168      1.10887187     -0.000348     0.000189    -0.000076
H      -3.78170756      3.02445125      1.12845991      0.000603    -0.000311     0.000439
O      -0.54632955      2.59097214      1.09283131     -0.000286     0.000238    -0.000186
H      -0.65928312      3.02551783      1.96461070     -0.000643     0.001042    -0.001159
H      -2.78819896      3.42199895     -1.78123017      0.000582    -0.000255    -0.000243
H      -3.70402300      1.62857363      1.79795986      0.000416    -0.000578     0.001322
H      -3.98664316      0.61498485     -0.97215636      0.000847     0.000041    -0.000014
H      -1.95616537     -0.74252528      0.91441502     -0.000343    -0.000351    -0.001653
H       0.58224263      1.08030680     -0.90735585     -0.000288     0.000827    -0.000549
H       0.36758943      2.81121132      0.78355989     -0.000021    -0.000444     0.000669
N       2.56931272      2.42647467     -0.92443774     -0.000257     0.000048    -0.000198
H       2.79663728      2.93296804     -1.77045783     -0.001279     0.000603    -0.001122
H       2.96781860      2.98215879     -0.17600957      0.000534     0.001060    -0.000398
H       3.23536857      1.66181424     -0.94068577      0.000655     0.000829    -0.001512
23
Frame 74  Energy = -756.6917352087 Hartree
Al     -1.79337815      1.70830948     -0.02864053      0.000101    -0.000099    -0.000160
O      -0.34318473      1.27202811     -1.18602992      0.000105    -0.000195     0.000104
H      -0.20253836      1.73226413     -2.02533656      0.000374     0.001163     0.000716
O      -2.10399433      3.30931443     -1.10342171     -0.000070    -0.000197    -0.000164
H      -1.67695316      4.17369957     -1.02315054      0.000233     0.000317    -0.000289
O      -3.02498299      0.73676988     -1.15483602      0.000149    -0.000010    -0.000194
H      -2.75933726      0.18370805     -1.89166676      0.000959    -0.002376     0.000120
O      -1.54043151      0.10492400      1.04413218     -0.000161     0.000172     0.000195
H      -0.90425134     -0.04798699      1.76595817     -0.000235     0.000276    -0.001364
O      -3.28855766      2.19769070      1.11367724      0.000170    -0.000391     0.000103
H      -3.79535846      3.02936087      1.15717577      0.000045    -0.000722     0.000478
O      -0.54155471      2.59379157      1.10121757      0.000157     0.000002     0.000356
H      -0.67444870      3.05994178      1.95703724     -0.001343    -0.001344    -0.001119
H      -2.79608445      3.39290039     -1.77876599      0.000973     0.000025    -0.000453
H      -3.67059055      1.60227613      1.78690213      0.000514     0.000218     0.000466
H      -3.95663554      0.59493344     -0.96283462     -0.000139     0.000743     0.000367
H      -1.98897065     -0.75554065      0.87472735     -0.000399    -0.000567     0.000792
H       0.58978773      1.10051597     -0.90219343      0.000282    -0.000738     0.000136
H       0.37605404      2.81700142      0.80824822      0.000976    -0.000403    -0.000481
N       2.57614642      2.42446594     -0.91899077     -0.000074    -0.000051     0.000029
H       2.74220716      2.97471437     -1.75624708      0.000755     0.000227    -0.001064
H       2.98886670      3.01503927     -0.18777004     -0.000810     0.000934    -0.000072
H       3.24824373      1.65577975     -0.92476442     -0.000176    -0.000700    -0.000646
23
Frame 75  Energy = -756.6930114248 Hartree
Al     -1.78784775      1.71181363     -0.02877283     -0.000112     0.000038     0.000008
O      -0.33321735      1.26149733     -1.18226308     -0.000009     0.000027     0.000190
H      -0.20173386      1.73388465     -2.03472141     -0.001390     0.000155     0.000466
O      -2.10084804      3.31006680     -1.09215687      0.000167    -0.000007    -0.000113
H      -1.65263795      4.17756373     -1.06026892     -0.001502    -0.001004     0.000216
O      -3.01785095      0.74525107     -1.14799943      0.000047    -0.000080    -0.000195
H      -2.76059281      0.18467187     -1.90437551     -0.000574    -0.000204    -0.000127
O      -1.54734197      0.09794718      1.04890761      0.000212     0.000129     0.000156
H      -0.92210541     -0.02625782      1.78920481     -0.000801     0.000936    -0.000560
O      -3.28641931      2.20206503      1.11663961      0.000066    -0.000279     0.000223
H      -3.76954745      3.04507898      1.14424919      0.000747    -0.000530    -0.001768
O      -0.53809207      2.59496209      1.10318868     -0.000273    -0.000084    -0.000058
H      -0.66764519      3.04368226      1.95909498     -0.000973    -0.000930    -0.000107
H      -2.76946539      3.37971550     -1.80031215      0.000704    -0.000460     0.000440
H      -3.68080398      1.61695803      1.77885716     -0.001193     0.001471     0.000107
H      -3.98162812      0.57248024     -0.98980422      0.000553    -0.000692    -0.000411
H      -1.99637063     -0.74172735      0.87985718     -0.000253    -0.000194    -0.001009
H       0.58388913      1.09558344     -0.89195110      0.000471     0.001463    -0.000598
H       0.38139483      2.82595866      0.82519458      0.000907    -0.001064     0.001253
N       2.57081775      2.42903438     -0.91092362     -0.000085    -0.000132    -0.000006
H       2.74158079      2.93100371     -1.75031555     -0.001027     0.000427    -0.000705
H       2.97115767      3.02395791     -0.19184641     -0.000083     0.000564     0.000313
H       3.25510609      1.66368412     -0.94608353      0.000028    -0.000249    -0.000105
23
Frame 76  Energy = -756.6973673932 Hartree
Al     -1.79275193      1.71229472     -0.02586473     -0.000109    -0.000137    -0.000032
O      -0.33030371      1.25058293     -1.18275011     -0.000115     0.000080     0.000013
H      -0.17805949      1.73765408     -2.02432626     -0.000012     0.000356    -0.000375
O      -2.10669446      3.31142479     -1.09511852     -0.000128    -0.000155    -0.000054
H      -1.66757515      4.18235518     -1.05955887      0.000045    -0.000180     0.000248
O      -3.01470278      0.73758233     -1.14861082     -0.000219    -0.000061    -0.000217
H      -2.78656959      0.15345727     -1.90012632     -0.001147     0.000060    -0.000106
O      -1.55253749      0.10171080      1.05491953     -0.000327    -0.000081     0.000117
H      -0.93633483     -0.03053929      1.79201202      0.000674     0.000906     0.001582
O      -3.27346150      2.19084744      1.10828642      0.000354     0.000113     0.000255
H      -3.76991771      3.01745034      1.14323689     -0.000762     0.000627    -0.000436
O      -0.54721344      2.60063562      1.10011172      0.000036    -0.000285     0.000005
H      -0.69429186      3.01487231      1.95839910     -0.000023    -0.000437    -0.000468
H      -2.74815386      3.38468392     -1.81922730      0.000071     0.001169     0.000107
H      -3.69247753      1.61456809      1.78332447      0.000502     0.000951    -0.000226
H      -3.95955814      0.60075519     -0.98022393     -0.000260     0.000727     0.000067
H      -1.99369737     -0.73968863      0.86154719      0.000913    -0.000749    -0.000194
H       0.61198987      1.12422747     -0.89094613      0.000640    -0.000132    -0.001044
H       0.35907872      2.82437678      0.81471573      0.000776     0.000244    -0.001073
N       2.57381411      2.43039831     -0.90699289     -0.000162    -0.000176     0.000411
H       2.75374458      2.90954576     -1.78262397      0.000179    -0.000446    -0.000673
H       3.00348257      3.02843797     -0.19383350     -0.000767     0.001065     0.000529
H       3.25040937      1.65682872     -0.95717319     -0.000588     0.000884    -0.000054
23
Frame 77  Energy = -756.6895840281 Hartree
Al     -1.79661092      1.70966953     -0.02194130      0.000042     0.000122     0.000040
O      -0.32163173      1.24861125     -1.18300919     -0.000205    -0.000144     0.000193
H      -0.18183561      1.71225996     -2.02381432     -0.000144     0.000516    -0.001091
O      -2.10949828      3.31138918     -1.09093303      0.000007     0.000225     0.000072
H      -1.65375238      4.16314466     -1.05149721      0.001058     0.001664     0.001097
O      -3.01138931      0.74124086     -1.15002270      0.000089     0.000028    -0.000295
H      -2.78094818      0.15033264     -1.90047756      0.000765    -0.000121     0.000281
O      -1.55663162      0.10952335      1.04470690     -0.000267     0.000313     0.000185
H      -0.95413526     -0.04454497      1.79487251     -0.000951     0.002599     0.000749
O      -3.27586632      2.20110869      1.11424202      0.000187    -0.000312    -0.000132
H      -3.76048186      3.03078766      1.15226961     -0.000098     0.000034    -0.001413
O      -0.54220196      2.59203669      1.09598080      0.000084    -0.000130     0.000041
H      -0.72651843      2.99883109      1.97739073      0.000315     0.000209    -0.000302
H      -2.73060645      3.37256281     -1.83166865      0.000682     0.001175    -0.000745
H      -3.67605224      1.62742316      1.79120831      0.000308     0.000093    -0.000168
H      -3.96730129      0.62945498     -0.97871144     -0.000730    -0.000678    -0.000605
H      -1.98555872     -0.73270978      0.85470810      0.000082    -0.000426     0.000484
H       0.60648469      1.12401434     -0.89516877      0.000694     0.000526    -0.000162
H       0.35234157      2.83977244      0.78316237      0.000543     0.000105     0.001072
N       2.58269566      2.43011668     -0.89706104     -0.000122     0.000046    -0.000133
H       2.75006067      2.88855817     -1.79202788     -0.000024     0.000896     0.000901
H       3.03720258      3.05111900     -0.18636342     -0.000649     0.000200    -0.000541
H       3.24551560      1.65995828     -0.93429735     -0.000949    -0.000224    -0.001044
23
Frame 78  Energy = -756.6828870711 Hartree
Al     -1.79330727      1.71116697     -0.02168119      0.000122     0.000077    -0.000287
O      -0.32111734      1.25097020     -1.18653234     -0.000081    -0.000294     0.000143
H      -0.18695734      1.69711409     -2.03518314     -0.000086     0.000345    -0.000335
O      -2.10166871      3.29882337     -1.08051827      0.000061    -0.000389     0.000092
H      -1.68573222      4.18065433     -1.02474433      0.000352    -0.000929     0.000303
O      -3.01125914      0.74818249     -1.14528196     -0.000033     0.000037    -0.000106
H      -2.77913153      0.14903599     -1.88057063      0.000323    -0.000123     0.000685
O      -1.55907358      0.11177490      1.04691775     -0.000209    -0.000035     0.000029
H      -0.96629810     -0.01696193      1.80500452      0.000867    -0.000161    -0.000124
O      -3.27793000      2.19532509      1.10768379     -0.000114    -0.000034     0.000273
H      -3.75589211      3.03075817      1.12575007     -0.000811    -0.000556     0.000362
O      -0.54310084      2.58866215      1.09161327     -0.000235     0.000520    -0.000252
H      -0.70503520      2.97086477      1.95547601      0.000055    -0.000178     0.000620
H      -2.74287696      3.35714149     -1.81545509     -0.000527    -0.000753     0.000831
H      -3.69499933      1.64439251      1.82678453     -0.000162    -0.001085    -0.002690
H      -3.96273724      0.66683579     -0.99813634     -0.000286     0.000703    -0.000443
H      -1.97727532     -0.73001603      0.84831002      0.000152    -0.001025    -0.000300
H       0.59671931      1.12840479     -0.88855247      0.000922    -0.000373    -0.000441
H       0.35835397      2.81756038      0.79740706     -0.000380     0.000610     0.000449
N       2.58002088      2.43459068     -0.90511055     -0.000053    -0.000069    -0.000251
H       2.73092949      2.92327544     -1.78524907     -0.001091     0.000575     0.000134
H       3.00451979      3.09600018     -0.23739647      0.001912    -0.000814    -0.001432
H       3.22031875      1.65106004     -0.95437475      0.001001    -0.001380    -0.001361
23
Frame 79  Energy = -756.6963302611 Hartree
Al     -1.79427245      1.70963512     -0.02741015     -0.000000     0.000006    -0.000087
O      -0.31423270      1.23721225     -1.17984600      0.000061    -0.000080    -0.000126
H      -0.20526206      1.72539640     -2.01128493     -0.000546    -0.000985    -0.000738
O      -2.09442192      3.30097337     -1.07504688     -0.000041    -0.000037    -0.000130
H      -1.67126073      4.19315446     -1.05706417      0.000903     0.000427     0.000530
O      -3.01469049      0.74328146     -1.16188295     -0.000029     0.000130     0.000238
H      -2.75098214      0.15009092     -1.89282586     -0.000754    -0.000564    -0.000666
O      -1.56076350      0.10696319      1.05245887     -0.000080    -0.000046    -0.000151
H      -0.92075478     -0.03220898      1.79232478      0.000014     0.001288    -0.000074
O      -3.28641625      2.17880520      1.10892957      0.000220     0.000122     0.000143
H      -3.73743171      3.04245206      1.11818909     -0.000096     0.000533     0.001205
O      -0.55150480      2.59938189      1.08271542      0.000144    -0.000146     0.000071
H      -0.71337354      2.96881698      1.98039248      0.000227     0.000505    -0.001312
H      -2.75242544      3.34467883     -1.79543552      0.000334    -0.000930     0.000168
H      -3.66869995      1.59432372      1.80397909      0.000355    -0.000812    -0.001438
H      -3.98673466      0.71227726     -1.00487348      0.000215     0.000082     0.000470
H      -1.96856130     -0.75727633      0.83750644     -0.001188     0.000990     0.000082
H       0.62425595      1.15870288     -0.89931497     -0.000436     0.000620    -0.000808
H       0.36828901      2.82642625      0.80536437     -0.000579    -0.000377    -0.000477
N       2.57655057      2.43718507     -0.89952759      0.000125    -0.000503     0.000175
H       2.71697197      2.91094389     -1.77232339     -0.000387     0.000687    -0.000630
H       3.05302700      3.02463331     -0.23529676      0.000431    -0.000742    -0.000506
H       3.23444011      1.63764774     -1.00078561     -0.000600     0.001564     0.000090
23
Frame 80  Energy = -756.6964212198 Hartree
Al     -1.79492381      1.71511487     -0.03161102     -0.000178    -0.000095     0.000069
O      -0.31293312      1.24190912     -1.18481580      0.000166     0.000190     0.000043
H      -0.23144375      1.69469815     -2.05102082      0.000243    -0.000191     0.001175
O      -2.09654305      3.29043881     -1.08681032     -0.000117     0.000183    -0.000083
H      -1.67877714      4.17697446     -1.05051733      0.000089     0.000779    -0.000008
O      -3.01817831      0.73787445     -1.16624824      0.000063     0.000122    -0.000137
H      -2.74746560      0.16136213     -1.91287592      0.000236     0.000721     0.001385
O      -1.55748844      0.11048514      1.05194173     -0.000192     0.000028     0.000185
H      -0.94403635     -0.01846598      1.79288391      0.000253     0.000056    -0.000156
O      -3.28936235      2.18023378      1.11145341     -0.000080    -0.000053     0.000245
H      -3.74732115      3.02204309      1.13217681      0.000540     0.000787     0.001558
O      -0.56132306      2.60332982      1.07284441     -0.000036     0.000334     0.000082
H      -0.70841227      2.97763200      1.95861889     -0.000380    -0.000377     0.000030
H      -2.77808624      3.31341404     -1.79216936      0.000834     0.000801    -0.000744
H      -3.66186395      1.61305057      1.80072418     -0.000435    -0.000856    -0.000019
H      -3.98078175      0.67370753     -1.01472076      0.000911    -0.000989    -0.001058
H      -1.98398132     -0.72751061      0.81967543      0.001420     0.000522     0.000151
H       0.65509906      1.19310865     -0.92224307      0.000393    -0.000599     0.000039
H       0.35018506      2.84156584      0.82371710      0.001813    -0.000206    -0.000514
N       2.58736552      2.42893360     -0.88453461      0.000101    -0.000305     0.000029
H       2.68314231      2.90258303     -1.79484232      0.000478     0.000196     0.000866
H       3.05933370      3.01871578     -0.22972016     -0.000003    -0.000564    -0.000902
H       3.22474239      1.64112895     -1.00595153     -0.000817     0.000211    -0.000422
23
Frame 81  Energy = -756.6940977277 Hartree
Al     -1.78364378      1.71562516     -0.03500526      0.000210    -0.000187     0.000056
O      -0.30842498      1.24318553     -1.19017768      0.000132     0.000151     0.000093
H      -0.23568669      1.71306664     -2.04122666     -0.000348    -0.001653     0.000371
O      -2.10090135      3.30577367     -1.09001234     -0.000043     0.000003    -0.000278
H      -1.69140185      4.19015297     -1.05905904      0.000036    -0.000724     0.000624
O      -3.02065528      0.74466880     -1.15698960      0.000195     0.000137     0.000182
H      -2.79017732      0.19212068     -1.90542767      0.001818    -0.000047    -0.001054
O      -1.55999249      0.10641926      1.05063462      0.000040    -0.000281     0.000074
H      -0.96612442     -0.06373963      1.79297903     -0.000002    -0.000482     0.000145
O      -3.28961037      2.17979083      1.11312417      0.000342     0.000056     0.000080
H      -3.79049500      3.03116778      1.13806902     -0.001031    -0.000811    -0.000068
O      -0.55920684      2.61579059      1.06805727      0.000130     0.000174    -0.000086
H      -0.71466939      2.95765447      1.96831935      0.000043     0.000440    -0.000157
H      -2.74874929      3.33211761     -1.81496142     -0.001028     0.001050     0.000454
H      -3.70194323      1.60073907      1.79797949      0.000040    -0.000041     0.000327
H      -3.98345806      0.67486832     -1.01494315     -0.000686    -0.000801     0.000148
H      -1.97207303     -0.75924734      0.82803651     -0.000993     0.000244     0.001576
H       0.63241333      1.20126018     -0.90437456      0.000835    -0.000108    -0.000051
H       0.35497964      2.81752322      0.81975430     -0.000060    -0.000833     0.000142
N       2.59013544      2.42342475     -0.88241280     -0.000110    -0.000024     0.000274
H       2.65770501      2.89866060     -1.77595161      0.000198     0.000084    -0.000493
H       3.07801465      3.02997901     -0.22126647     -0.000519    -0.000923    -0.001906
H       3.22482401      1.65109304     -0.96932184     -0.000290    -0.000567    -0.000479
23
Frame 82  Energy = -756.7061473889 Hartree
Al     -1.77936784      1.70931063     -0.03771606      0.000074     0.000260     0.000086
O      -0.31004653      1.24502143     -1.19713278      0.000043    -0.000057     0.000173
H      -0.23158184      1.68355330     -2.07040533     -0.000155     0.001024    -0.000791
O      -2.10157346      3.30720695     -1.09581909     -0.000039     0.000126     0.000178
H      -1.69304272      4.19259082     -1.01298607      0.000690     0.000074     0.000733
O      -3.02163612      0.74547970     -1.15505472      0.000094    -0.000103    -0.000046
H      -2.75752914      0.22305539     -1.92735666      0.000684    -0.000726    -0.000237
O      -1.55692744      0.10215169      1.06018623      0.000221     0.000232     0.000223
H      -0.95332189     -0.07010760      1.79724356     -0.000738    -0.000157     0.000332
O      -3.28945231      2.18578686      1.12632964      0.000168    -0.000044    -0.000143
H      -3.80349175      3.01816651      1.12214995     -0.000617     0.000302    -0.000260
O      -0.55099913      2.61357080      1.06479686     -0.000028    -0.000113    -0.000022
H      -0.70957601      2.98721975      1.93232533      0.000080     0.000804     0.000452
H      -2.75175293      3.35183013     -1.82041436     -0.000515    -0.000914     0.000683
H      -3.65484786      1.60159951      1.82073311     -0.000038     0.000279    -0.001781
H      -3.99069986      0.63815247     -1.02234667      0.000778    -0.000390    -0.000305
H      -1.99236032     -0.71450534      0.81260518     -0.000445     0.000545     0.000120
H       0.66235819      1.21161431     -0.89959588     -0.000933    -0.000163    -0.000382
H       0.36837619      2.78922058      0.77962384     -0.000424     0.000211     0.000542
N       2.57204480      2.41872226     -0.88075919     -0.000090     0.000086    -0.000028
H       2.65238642      2.88325830     -1.80179017     -0.000621    -0.000147    -0.000512
H       3.07638424      3.02640043     -0.24977048     -0.001061     0.000267    -0.000463
H       3.20863740      1.62218123     -0.97698653     -0.000245    -0.000184     0.000184
23
Frame 83  Energy = -756.6999552432 Hartree
Al     -1.78395639      1.70626868     -0.03206126     -0.000154    -0.000050    -0.000088
O      -0.30966366      1.24649980     -1.19713630      0.000008     0.000014     0.000279
H      -0.24940483      1.66519245     -2.06631956     -0.000398     0.000178     0.000831
O      -2.10766756      3.31145186     -1.08979577      0.000051     0.000086    -0.000059
H      -1.67122619      4.17702199     -1.01958050     -0.000286    -0.000730     0.000097
O      -3.01902836      0.74584122     -1.16105491     -0.000265     0.000032    -0.000040
H      -2.75951502      0.21065021     -1.94690790     -0.000045     0.000637    -0.000312
O      -1.55677649      0.09803322      1.06895937     -0.000299     0.000219     0.000068
H      -0.94323471     -0.05814152      1.80396405     -0.000079    -0.000894     0.000190
O      -3.29262667      2.18588240      1.13297793     -0.000070     0.000139     0.000016
H      -3.80694461      3.00965084      1.14552024      0.000710     0.000024    -0.001096
O      -0.54506918      2.60513217      1.07365901     -0.000148    -0.000131    -0.000037
H      -0.71289714      2.96995541      1.94715459     -0.000086     0.000180    -0.000089
H      -2.73413699      3.32525587     -1.81695375      0.000627     0.000124     0.000973
H      -3.65565433      1.60529034      1.83572271      0.000670     0.000411    -0.000928
H      -3.98671784      0.58832042     -1.01726191      0.000984     0.000093    -0.000208
H      -2.01336088     -0.72282454      0.83514972     -0.000377    -0.000460     0.001595
H       0.66566141      1.19319539     -0.90971931     -0.000262    -0.000433     0.000366
H       0.36502341      2.83585283      0.79552628      0.001993     0.000895     0.000404
N       2.56502827      2.42561324     -0.87578519      0.000030    -0.000179     0.000028
H       2.61342485      2.85358329     -1.78258092     -0.001233    -0.000840     0.000208
H       3.09351126      3.02923075     -0.24394580      0.000326    -0.000275    -0.000682
H       3.17380311      1.60791150     -0.95802740     -0.001311     0.000790    -0.000307
23
Frame 84  Energy = -756.6868716943 Hartree
Al     -1.79127531      1.70804326     -0.03181322     -0.000355    -0.000227     0.000081
O      -0.30642453      1.24012997     -1.19250110     -0.000065     0.000254     0.000181
H      -0.22645218      1.66921585     -2.05390271     -0.000394     0.000228    -0.000560
O      -2.10645479      3.31054306     -1.08353393     -0.000185    -0.000090    -0.000105
H      -1.65808284      4.15446432     -1.02307492     -0.000307    -0.000305     0.001921
O      -3.03321577      0.75775282     -1.16617041     -0.000090    -0.000272     0.000031
H      -2.75274041      0.23131006     -1.93864566      0.000155    -0.000636    -0.000281
O      -1.57671169      0.09633792      1.07146915      0.000095     0.000116    -0.000193
H      -0.96486702     -0.09252519      1.80617975     -0.000703    -0.000116    -0.000269
O      -3.29235876      2.18337887      1.14169962     -0.000150     0.000032    -0.000107
H      -3.82196359      3.02960896      1.13735724      0.001871    -0.000526    -0.000497
O      -0.54501667      2.60081133      1.06783578      0.000233     0.000152    -0.000131
H      -0.71438746      3.00851988      1.94599016      0.000753    -0.001051     0.000721
H      -2.73907609      3.33694456     -1.79936181     -0.000751    -0.000459    -0.000558
H      -3.66348488      1.59523956      1.81610418     -0.001107    -0.000157     0.000719
H      -3.97359956      0.63100115     -1.03725426      0.000501     0.000769     0.000437
H      -2.01386485     -0.74397035      0.83699734     -0.000551     0.000251    -0.000177
H       0.64326435      1.21888596     -0.89788319     -0.001141    -0.001248    -0.000006
H       0.36956543      2.82851060      0.78076720      0.000811     0.001132     0.001279
N       2.56598247      2.41849267     -0.88680526     -0.000362    -0.000141     0.000475
H       2.63370359      2.88125892     -1.77729902     -0.000013    -0.000602    -0.000014
H       3.08196787      3.02478050     -0.24188361      0.000882     0.000537     0.001503
H       3.15663959      1.59948083     -0.97262534     -0.000065     0.000337     0.000570
23
Frame 85  Energy = -756.6987939809 Hartree
Al     -1.79123470      1.70854473     -0.02719826     -0.000117    -0.000048     0.000202
O      -0.30695954      1.25115710     -1.19148529      0.000051     0.000139     0.000139
H      -0.23938353      1.67601328     -2.07857768      0.000271     0.000729    -0.000452
O      -2.10694787      3.30927526     -1.07475920      0.000058    -0.000130     0.000291
H      -1.65971422      4.17789627     -1.01111509     -0.000309    -0.001294    -0.000509
O      -3.02698485      0.76385378     -1.17273770      0.000101     0.000104     0.000006
H      -2.78088383      0.21661783     -1.92832246      0.000078    -0.000133     0.000240
O      -1.57144007      0.09986446      1.06588232     -0.000388     0.000011    -0.000220
H      -0.95069787     -0.06606151      1.82490379      0.000245     0.000508    -0.000142
O      -3.29328098      2.18423964      1.13866160      0.000180     0.000295    -0.000311
H      -3.81864556      3.01466000      1.12820191      0.000380    -0.000457     0.000833
O      -0.54029827      2.60777934      1.07682489     -0.000060     0.000260    -0.000078
H      -0.74103910      2.98182305      1.93633618     -0.000853     0.000916     0.000666
H      -2.74043851      3.37339311     -1.78833380     -0.000577     0.000298    -0.000075
H      -3.66413722      1.61446296      1.82756864      0.001511     0.000179     0.000498
H      -3.98605777      0.58841814     -1.03168967      0.001192    -0.000363     0.000330
H      -2.02295774     -0.72903948      0.83455357      0.000436    -0.000459    -0.000628
H       0.62874357      1.21697554     -0.86420059     -0.001019     0.000537    -0.000517
H       0.38669660      2.81386187      0.81300503     -0.001009     0.000182     0.000857
N       2.56446125      2.41861101     -0.88757261     -0.000020     0.000144     0.000236
H       2.62678049      2.90444862     -1.77626461     -0.000037     0.000405    -0.000349
H       3.07513006      2.98637262     -0.23123919     -0.000488    -0.000228     0.000343
H       3.13160136      1.58395008     -0.97403551     -0.000379    -0.001172    -0.000560
23
Frame 86  Energy = -756.6962762299 Hartree
Al     -1.79257811      1.71559752     -0.02871747     -0.000004    -0.000214    -0.000019
O      -0.30669253      1.25351576     -1.18790331     -0.000320     0.000065    -0.000265
H      -0.26145802      1.67426658     -2.06588611      0.001287    -0.000421    -0.000019
O      -2.11286670      3.30568405     -1.07741494     -0.000156     0.000227    -0.000206
H      -1.63454767      4.15159897     -1.00475124     -0.000299    -0.000607    -0.000057
O      -3.03056139      0.75845049     -1.16517081     -0.000359     0.000261    -0.000230
H      -2.79407880      0.17946945     -1.93331189     -0.000329     0.000317    -0.000148
O      -1.57803611      0.10767866      1.05832394     -0.000142    -0.000369     0.000152
H      -0.96011054     -0.04633763      1.78758714      0.000481    -0.000657     0.000630
O      -3.29115029      2.18977908      1.12968875     -0.000198     0.000001     0.000071
H      -3.84990600      2.99709318      1.08846719      0.000282    -0.001032    -0.001071
O      -0.53807030      2.61026598      1.07464331     -0.000030     0.000050    -0.000084
H      -0.71682644      3.03810283      1.94918127     -0.000831    -0.000932    -0.001349
H      -2.75935961      3.38640300     -1.79483374     -0.000432     0.000175    -0.000836
H      -3.66385899      1.61510423      1.84021351     -0.000449    -0.000432    -0.000648
H      -3.98674063      0.54949443     -1.03895284     -0.001145    -0.000072     0.000235
H      -2.00717334     -0.72951914      0.79869356      0.000347     0.000290     0.000483
H       0.62947237      1.23245058     -0.87648621      0.000494    -0.000740    -0.000382
H       0.40274720      2.79154810      0.81652453     -0.000014     0.000034    -0.000459
N       2.55874568      2.41987632     -0.89223530      0.000248     0.000358    -0.000100
H       2.64712573      2.91320402     -1.79294957     -0.000517     0.000634    -0.000589
H       3.09839972      2.99609461     -0.21919289     -0.000337     0.000139    -0.000064
H       3.17196251      1.60112129     -0.99586758     -0.000855    -0.000770    -0.000873
23
Frame 87  Energy = -756.6952264507 Hartree
Al     -1.78829614      1.71058638     -0.02399859     -0.000243     0.000040     0.000057
O      -0.30440248      1.24679957     -1.18592686      0.000178     0.000068     0.000016
H      -0.21581359      1.65874862     -2.06447702      0.001152     0.000680    -0.001232
O      -2.11812521      3.29888652     -1.07894173     -0.000044    -0.000121    -0.000252
H      -1.64390011      4.14137626     -0.98312970      0.000891    -0.000256    -0.000036
O      -3.03789221      0.75606367     -1.17479816     -0.000127     0.000112     0.000282
H      -2.75983708      0.20579504     -1.91180432      0.000376    -0.001470     0.000669
O      -1.58452861      0.11106242      1.05367207     -0.000040    -0.000183     0.000001
H      -0.93561212     -0.04369885      1.75690501      0.000359     0.000184     0.000477
O      -3.29191697      2.18144338      1.12988074      0.000236    -0.000052    -0.000009
H      -3.85112688      2.98475027      1.03592618      0.000036     0.000020     0.000409
O      -0.53284994      2.60910613      1.07630237     -0.000041     0.000120    -0.000152
H      -0.71398329      3.04649778      1.93543285     -0.000953     0.001655    -0.000597
H      -2.74928692      3.40754560     -1.78979423     -0.001027    -0.001822    -0.000562
H      -3.69388637      1.60162541      1.83762650      0.000143     0.000266     0.001427
H      -3.98565369      0.52737610     -1.02477672     -0.000495     0.000593    -0.000002
H      -1.98630498     -0.74370373      0.82403217      0.000100     0.000408     0.000732
H       0.65307754      1.24049071     -0.89741481     -0.000755    -0.000813    -0.001107
H       0.39197228      2.80651002      0.81169252     -0.000648    -0.000805     0.000278
N       2.55690396      2.41443841     -0.88830429     -0.000321     0.000325     0.000004
H       2.61977670      2.89832038     -1.78592841      0.000791     0.000072    -0.000194
H       3.06804093      2.97089554     -0.20931135      0.000096    -0.000750    -0.000354
H       3.13065081      1.57971901     -1.01739341     -0.000188     0.000288     0.000880
23
Frame 88  Energy = -756.6954764563 Hartree
Al     -1.78838102      1.71150372     -0.01768697     -0.000097    -0.000035     0.000008
O      -0.29514948      1.25087303     -1.19104533      0.000216     0.000301     0.000056
H      -0.24393136      1.64569320     -2.06082617      0.000001    -0.001397    -0.000856
O      -2.11267668      3.28971623     -1.08390144      0.000249     0.000082     0.000333
H      -1.67019037      4.14572019     -0.96556745     -0.001126     0.000418     0.000770
O      -3.03503496      0.75114787     -1.16875726      0.000320    -0.000026     0.000030
H      -2.75355046      0.18636687     -1.90959059      0.000248    -0.000542    -0.000728
O      -1.58422818      0.10451911      1.05698234     -0.000199     0.000203     0.000070
H      -0.95567961     -0.03611624      1.78368043     -0.000177     0.000191     0.000546
O      -3.29053002      2.18132167      1.13774786      0.000057     0.000186     0.000063
H      -3.87697812      2.96233203      1.06523757     -0.000149    -0.000730     0.000643
O      -0.53408178      2.61125152      1.08610527      0.000133     0.000104     0.000082
H      -0.68656205      3.04940514      1.97030043      0.000315    -0.001483     0.000408
H      -2.76223789      3.38786499     -1.80741200      0.001360     0.000706     0.000373
H      -3.66559552      1.63347496      1.83724409      0.000534    -0.001672    -0.000212
H      -3.98655471      0.58941060     -1.02597802      0.000057     0.000132     0.000377
H      -1.96533261     -0.74352429      0.84396875      0.000252    -0.000654    -0.000054
H       0.66406885      1.26644923     -0.88036348     -0.000890    -0.000789    -0.001495
H       0.38560064      2.80845438      0.80173644     -0.000699     0.000084     0.000727
N       2.54118288      2.42883175     -0.89478574     -0.000135     0.000001     0.000195
H       2.62632996      2.90128242     -1.80960344      0.000838    -0.001452    -0.000206
H       3.07436847      2.99181212     -0.24726723      0.000459    -0.000936     0.000265
H       3.11591604      1.60601681     -0.99313003      0.000317    -0.000257     0.000974
23
Frame 89  Energy = -756.7026466026 Hartree
Al     -1.78599568      1.71046425     -0.01586412     -0.000016     0.000048    -0.000054
O      -0.29515109      1.25348174     -1.18836412     -0.000327     0.000136    -0.000079
H      -0.20929372      1.64537461     -2.09618707      0.000324    -0.000451     0.000003
O      -2.11716962      3.29857320     -1.08483967      0.000378    -0.000034    -0.000234
H      -1.66835249      4.14118469     -0.96325365      0.000090     0.000807     0.000240
O      -3.02233763      0.74847633     -1.17759517      0.000089     0.000136    -0.000097
H      -2.76059154      0.20116881     -1.91728272     -0.000111     0.000177    -0.000213
O      -1.57738729      0.09207769      1.06106870      0.000032     0.000076    -0.000074
H      -0.94719514     -0.02942844      1.80075346      0.000219    -0.000644     0.000187
O      -3.29032687      2.17807472      1.13925031     -0.000124     0.000127    -0.000190
H      -3.88503811      2.94610645      1.06433710     -0.000681    -0.000931    -0.000656
O      -0.53500758      2.61578473      1.08155015      0.000005    -0.000093     0.000165
H      -0.61449791      3.03158580      1.95497975     -0.000126     0.000100     0.000448
H      -2.78245716      3.36614842     -1.81772077      0.000557     0.001411    -0.000266
H      -3.64950258      1.63324213      1.87468263     -0.000081    -0.000076    -0.000081
H      -3.96921061      0.62331684     -1.03394870     -0.000156     0.000176     0.000376
H      -1.94326913     -0.77842030      0.85559444      0.000897     0.000182     0.001019
H       0.67377055      1.28766306     -0.91647542     -0.001987     0.000451    -0.000971
H       0.38719504      2.80355050      0.76763213     -0.001269     0.000579    -0.001223
N       2.53799907      2.42419966     -0.89359728      0.000023     0.000214    -0.000121
H       2.62710852      2.87784246     -1.79927402      0.000592     0.000084     0.000187
H       3.06913089      2.97462361     -0.21545566      0.000813     0.000338    -0.000184
H       3.11150240      1.59899277     -0.95341927     -0.000960     0.000479    -0.000290
23
Frame 90  Energy = -756.6793894563 Hartree
Al     -1.78638373      1.70741667     -0.01837533     -0.000320     0.000030     0.000217
O      -0.29882717      1.25261647     -1.18274559      0.000056     0.000077    -0.000079
H      -0.27079191      1.62092579     -2.08069875      0.000640    -0.001469     0.001401
O      -2.11461023      3.29880847     -1.09382677      0.000239    -0.000104     0.000019
H      -1.67200662      4.14958877     -0.91447339      0.000053    -0.000669    -0.000669
O      -3.03317092      0.74601087     -1.17055948      0.000191    -0.000153    -0.000225
H      -2.74049406      0.20694948     -1.94374998      0.001338    -0.000349    -0.000471
O      -1.57808201      0.09068888      1.06741491     -0.000055     0.000098    -0.000517
H      -0.95037187     -0.01692576      1.82070016      0.001061     0.001725    -0.000802
O      -3.28598696      2.18276658      1.14742275     -0.000219    -0.000092     0.000260
H      -3.87245495      2.95494077      1.07733916     -0.000507     0.000910     0.000197
O      -0.53383318      2.62830373      1.08090863     -0.000038     0.000040    -0.000100
H      -0.64707799      3.01022361      1.97184210     -0.000515    -0.000742     0.001537
H      -2.78054973      3.40319531     -1.79951610     -0.000408    -0.000909     0.000664
H      -3.64438021      1.64876644      1.88900522     -0.000079    -0.000627    -0.001227
H      -3.99316551      0.60091017     -1.07070798      0.000756    -0.000419     0.000222
H      -1.93030382     -0.77771222      0.88642270     -0.000639    -0.001757     0.000407
H       0.67441144      1.29434665     -0.90718078     -0.000287     0.000159     0.000771
H       0.38330072      2.84126099      0.78878404      0.001289    -0.001093    -0.000586
N       2.54040430      2.43711010     -0.90389550      0.000222    -0.000371     0.000179
H       2.65717824      2.85978356     -1.79613336      0.001592     0.000727     0.000886
H       3.05583307      3.00673950     -0.23634207     -0.000557    -0.000526    -0.001109
H       3.09178532      1.57994417     -0.94729235      0.001347    -0.000642     0.000725
23
Frame 91  Energy = -756.6732036502 Hartree
Al     -1.79482303      1.70707654     -0.00125333      0.000310     0.000038     0.000093
O      -0.29218388      1.26660353     -1.17572990     -0.000142     0.000142     0.000181
H      -0.23730388      1.60121516     -2.08279772     -0.001734     0.000179    -0.000384
O      -2.12019264      3.29805056     -1.09138468      0.000031    -0.000095    -0.000652
H      -1.65385067      4.15080817     -0.96497936      0.000762    -0.000117    -0.000279
O      -3.01154513      0.75438007     -1.17593468      0.000212    -0.000109     0.000020
H      -2.70246140      0.19747249     -1.92510765     -0.000511     0.000584     0.000735
O      -1.57753813      0.09340211      1.06566766     -0.000185     0.000006     0.000386
H      -0.93374541     -0.02829582      1.79649870     -0.001020    -0.000054    -0.000725
O      -3.28511899      2.17939277      1.15625929     -0.000249     0.000071     0.000005
H      -3.84831431      2.95718085      1.07578472     -0.000590     0.001169    -0.001314
O      -0.53777105      2.62417118      1.07599223      0.000546     0.000184    -0.000340
H      -0.61791573      3.00137473      1.96516543      0.000557     0.001912    -0.000509
H      -2.77567029      3.37871347     -1.81531796     -0.001741     0.000408     0.000161
H      -3.66039550      1.61526823      1.87673439     -0.001507    -0.001126     0.000968
H      -3.97112655      0.59198469     -1.09854022     -0.000355     0.000408    -0.000765
H      -1.92810258     -0.80829240      0.86472935     -0.000777     0.000484     0.002105
H       0.67864231      1.33154381     -0.91572898      0.000440     0.000879    -0.000200
H       0.41209134      2.78197249      0.80474661      0.000113     0.001333     0.000261
N       2.54212380      2.42095942     -0.90402543      0.000008    -0.000144     0.000330
H       2.67638756      2.87130058     -1.80263845      0.000204     0.000031     0.001109
H       3.06204381      3.01460442     -0.23771748     -0.000246    -0.000149    -0.001442
H       3.09553574      1.56944799     -0.92983435     -0.000202     0.001310    -0.000061
23
Frame 92  Energy = -756.6999170064 Hartree
Al     -1.79609780      1.70073337     -0.00567907      0.000102     0.000140    -0.000352
O      -0.29030759      1.27775323     -1.17818223     -0.000034    -0.000169    -0.000177
H      -0.27614054      1.58092548     -2.11044077      0.000804     0.000272    -0.000180
O      -2.12083815      3.29824715     -1.09530017      0.000116    -0.000300     0.000143
H      -1.65805333      4.14383382     -0.96353772     -0.000039     0.000841     0.000765
O      -3.01110886      0.75478128     -1.16977189      0.000248    -0.000156    -0.000143
H      -2.74687840      0.20453509     -1.92614673      0.001038    -0.000609     0.000195
O      -1.58672205      0.09222670      1.07078019     -0.000103     0.000041    -0.000068
H      -0.94757676     -0.02296513      1.79612282      0.000889     0.001131     0.000956
O      -3.29470982      2.17803951      1.15658791      0.000258    -0.000044     0.000250
H      -3.83085668      2.97841171      1.03565304     -0.000392    -0.000861     0.000230
O      -0.53542233      2.62137770      1.07449675      0.000253     0.000134     0.000120
H      -0.66041899      3.03248649      1.95889952      0.000209     0.000618    -0.000322
H      -2.77894736      3.36189900     -1.82074335      0.000602    -0.000467    -0.000876
H      -3.63768991      1.63939932      1.88929167     -0.000933     0.000020    -0.000709
H      -3.98070564      0.60572031     -1.09332072      0.000632     0.000215     0.000030
H      -1.92907850     -0.79380412      0.89423093     -0.000734    -0.000024     0.000435
H       0.67815889      1.32545944     -0.91546005     -0.000254    -0.000452     0.001073
H       0.38958930      2.83729581      0.79368814      0.001213     0.000285     0.000536
N       2.54511520      2.42277140     -0.90652262      0.000011     0.000023    -0.000169
H       2.67708678      2.87212845     -1.79747970      0.000425    -0.000320    -0.000030
H       3.02869511      3.03370916     -0.24313663     -0.000830     0.001269     0.000523
H       3.10149196      1.59112513     -0.93977816     -0.000228     0.000955    -0.000019
23
Frame 93  Energy = -756.7046763735 Hartree
Al     -1.79153342      1.70338505     -0.00957185     -0.000154    -0.000001    -0.000124
O      -0.28787386      1.27738496     -1.17845685     -0.000113     0.000024     0.000027
H      -0.24977687      1.57478536     -2.09561238      0.000526    -0.000262    -0.000234
O      -2.11798226      3.29860705     -1.10478287     -0.000150     0.000047     0.000041
H      -1.69658621      4.14949523     -0.96250984      0.000612     0.000224    -0.000707
O      -3.01453793      0.75304462     -1.17387135      0.000076    -0.000192     0.000045
H      -2.75720176      0.18484892     -1.93804892      0.000066     0.001060     0.001273
O      -1.58880414      0.10184164      1.07889926     -0.000085     0.000081     0.000123
H      -0.91020937     -0.02718390      1.77461690     -0.000193     0.000447    -0.000201
O      -3.29379270      2.16798705      1.15904788     -0.000250     0.000044    -0.000001
H      -3.82213377      2.97726079      1.04180926      0.000472     0.000310    -0.000394
O      -0.53233603      2.63466539      1.07495432      0.000186     0.000252    -0.000039
H      -0.66285191      3.04756753      1.94153254     -0.000491     0.001148    -0.001167
H      -2.77254171      3.36176359     -1.82094756     -0.000484    -0.000233    -0.000890
H      -3.64175166      1.62028795      1.88429688      0.000259    -0.000308    -0.000641
H      -3.98351234      0.61140243     -1.08077293      0.001106     0.000321    -0.000843
H      -1.92926511     -0.78651712      0.90257827      0.000991    -0.000227     0.000675
H       0.66390727      1.31388925     -0.91351614      0.001247    -0.000250     0.000494
H       0.38433388      2.83624280      0.80270496      0.000164    -0.000905    -0.001414
N       2.54281689      2.42574125     -0.90315555     -0.000013     0.000333    -0.000030
H       2.67964589      2.84812854     -1.80496203     -0.000764     0.000147     0.000748
H       3.01515284      3.03983667     -0.25646354      0.000194     0.000050    -0.000184
H       3.15272250      1.59858277     -0.92940461     -0.000278    -0.000468     0.000691
23
Frame 94  Energy = -756.6922097103 Hartree
Al     -1.79663914      1.70475900     -0.02137474      0.000124     0.000217     0.000010
O      -0.28733099      1.27893060     -1.17387599      0.000095    -0.000152    -0.000066
H      -0.27336479      1.58519848     -2.09868003      0.000964    -0.000148    -0.000076
O      -2.11836211      3.30360851     -1.10619244      0.000069    -0.000156     0.000058
H      -1.68361249      4.16778404     -0.94064110     -0.001566    -0.000631    -0.000515
O      -3.01470829      0.73582561     -1.17030672      0.000252    -0.000213     0.000104
H      -2.74453035      0.14186322     -1.89763475      0.000514     0.001255     0.001895
O      -1.59321591      0.10156503      1.08198559      0.000239     0.000148     0.000116
H      -0.91794211     -0.03202027      1.75110411     -0.000425    -0.000038     0.000454
O      -3.29199362      2.16052209      1.15166427      0.000165     0.000098     0.000058
H      -3.79211000      3.00536869      1.08354995     -0.000929     0.000902     0.001532
O      -0.53197045      2.63647371      1.07626657     -0.000223     0.000096    -0.000222
H      -0.65261412      3.05480988      1.94065332     -0.001121     0.000245    -0.000250
H      -2.77100678      3.38614968     -1.84402838     -0.001092     0.000291     0.000074
H      -3.64880823      1.59591262      1.86610906     -0.001111     0.000968     0.000741
H      -3.97535884      0.63856807     -1.07292677     -0.000274     0.000178     0.000128
H      -1.88988455     -0.79290749      0.89226627     -0.000683    -0.000096    -0.001135
H       0.67856094      1.32660646     -0.91920049      0.000522    -0.001203    -0.000138
H       0.39283510      2.82224339      0.80150786      0.000886    -0.000438     0.001178
N       2.53943638      2.42576206     -0.89427594      0.000199    -0.000066    -0.000110
H       2.63274180      2.83182239     -1.82163104     -0.001430    -0.000179     0.001318
H       3.02588861      3.06441617     -0.26986589      0.000341    -0.000804    -0.000250
H       3.12679139      1.59674734     -0.88799292      0.000590     0.000993    -0.000418
23
Frame 95  Energy = -756.7009269372 Hartree
Al     -1.78646952      1.70427695     -0.02582196     -0.000093     0.000025    -0.000041
O      -0.28566260      1.27800611     -1.17833429      0.000274    -0.000254    -0.000015
H      -0.24493512      1.61014105     -2.08710599     -0.001379    -0.000470    -0.001498
O      -2.12471371      3.28771684     -1.10865635     -0.000214     0.000222    -0.000003
H      -1.70196491      4.15045117     -0.98251718      0.000114     0.000232    -0.000577
O      -3.01142714      0.74477549     -1.16930701     -0.000197    -0.000227     0.000075
H      -2.74155162      0.16721356     -1.89991481     -0.000412     0.000392    -0.000082
O      -1.58854588      0.09980079      1.08185756     -0.000109     0.000055    -0.000129
H      -0.91510374     -0.02328250      1.77907317      0.000619    -0.000567    -0.000054
O      -3.28840462      2.15454155      1.15502346      0.000287     0.000219    -0.000053
H      -3.77808097      2.99428180      1.13212230     -0.001065     0.000912     0.001287
O      -0.53180073      2.63971378      1.07498550     -0.000177     0.000064    -0.000068
H      -0.69135257      3.03870478      1.94956846      0.000542     0.000966    -0.000638
H      -2.78138727      3.35107912     -1.84933430     -0.000051    -0.000011     0.001701
H      -3.62495452      1.63316246      1.92051444     -0.000390    -0.000411    -0.000534
H      -3.98586479      0.67430293     -1.04053080      0.000080    -0.000191    -0.000379
H      -1.89028201     -0.81088320      0.87566901      0.000551     0.000301     0.000811
H       0.70333404      1.36206443     -0.92022080     -0.000464    -0.001025    -0.000540
H       0.40490772      2.79729338      0.81048574     -0.000130    -0.000546    -0.000197
N       2.54132582      2.41837466     -0.90212675     -0.000407     0.000122     0.000015
H       2.61987658      2.84850203     -1.81749595      0.000910     0.000590     0.000285
H       3.07263334      3.07797396     -0.31602983     -0.000503     0.000204    -0.000722
H       3.12189460      1.57947037     -0.90022511     -0.000494    -0.000166    -0.000116
23
Frame 96  Energy = -756.6884835226 Hartree
Al     -1.78337177      1.70646845     -0.03183350     -0.000156     0.000054    -0.000102
O      -0.28842494      1.28426851     -1.17577644      0.000532     0.000186     0.000434
H      -0.28898124      1.58507422     -2.09664064     -0.000189    -0.000371    -0.000355
O      -2.12674106      3.28424931     -1.10439589      0.000182    -0.000171    -0.000271
H      -1.70830813      4.16232100     -0.94739786     -0.000019    -0.000019     0.000625
O      -3.00895055      0.75007703     -1.16079106     -0.000072     0.000118    -0.000097
H      -2.76382874      0.18865942     -1.91955188     -0.000529     0.000546    -0.000615
O      -1.58143376      0.08810587      1.08192738     -0.000002     0.000000     0.000334
H      -0.86655989     -0.03546218      1.74013814     -0.000503    -0.000340     0.000326
O      -3.29270724      2.15476336      1.15340592     -0.000271    -0.000074    -0.000146
H      -3.77891316      3.00584533      1.15805591      0.001262     0.000679    -0.001299
O      -0.53719707      2.62892285      1.07265835     -0.000168     0.000041    -0.000254
H      -0.69564076      3.05752280      1.92629681     -0.000432    -0.000583     0.001178
H      -2.77933028      3.33740787     -1.80954095      0.000052    -0.000448    -0.000441
H      -3.67849151      1.63566307      1.89986410      0.001997     0.000200    -0.000276
H      -3.97634564      0.69109332     -1.02549662      0.000782    -0.001736     0.000869
H      -1.87923410     -0.79000624      0.83010125     -0.000779    -0.000056     0.000018
H       0.69623239      1.35475082     -0.91820121     -0.000725    -0.001216    -0.000490
H       0.40693754      2.77468813      0.81132577     -0.001884    -0.000666    -0.000391
N       2.53673849      2.41634815     -0.90782643     -0.000227     0.000254     0.000004
H       2.65173543      2.78965837     -1.82559499      0.000773     0.000231    -0.000211
H       3.04117587      3.04286974     -0.28260977      0.000061     0.001357    -0.000305
H       3.11489718      1.56648295     -0.90840244      0.000228     0.000812     0.000105
23
Frame 97  Energy = -756.6957577090 Hartree
Al     -1.77681508      1.70657286     -0.04024918     -0.000194     0.000059     0.000061
O      -0.28166293      1.28490781     -1.16921614     -0.000107    -0.000257     0.000121
H      -0.27759117      1.55394548     -2.09915023      0.000759     0.000659    -0.000993
O      -2.13055641      3.28860799     -1.10055972     -0.000081     0.000362    -0.000112
H      -1.73194013      4.16687188     -0.99432735     -0.000610    -0.000270    -0.000631
O      -3.00494926      0.74594269     -1.16015941     -0.000178    -0.000035     0.000002
H      -2.79945511      0.20148188     -1.97213031      0.000239     0.000176     0.000608
O      -1.58269472      0.09300922      1.08555958     -0.000066     0.000170    -0.000053
H      -0.86576692     -0.06390275      1.73349601     -0.000148     0.000301     0.001967
O      -3.28776724      2.16606488      1.15680172      0.000174     0.000284     0.000170
H      -3.77849855      3.01372453      1.12960010      0.000389    -0.000146     0.001280
O      -0.55123065      2.63649208      1.07646048     -0.000172    -0.000287     0.000067
H      -0.67183890      3.01312270      1.97853350      0.000471     0.000489    -0.000629
H      -2.79974951      3.33208897     -1.81792985      0.000289     0.000356    -0.000180
H      -3.62404687      1.62487966      1.87632226     -0.000705    -0.000243     0.001320
H      -3.95178467      0.72033057     -0.99827889     -0.000102     0.000550    -0.000404
H      -1.89203458     -0.78272911      0.83432893     -0.000610     0.000072    -0.001086
H       0.69933054      1.31309899     -0.91907194      0.001032     0.000431     0.001175
H       0.39081053      2.78176679      0.82360698     -0.000729    -0.000223    -0.000496
N       2.53007178      2.40967734     -0.89854181     -0.000009     0.000036    -0.000175
H       2.66520760      2.77563666     -1.82995255      0.000755    -0.000877     0.000115
H       3.01838473      3.05440752     -0.32133882     -0.001488    -0.000602     0.000454
H       3.13064755      1.59012234     -0.91594486     -0.001066     0.001521     0.000432
23
Frame 98  Energy = -756.6968662550 Hartree
Al     -1.78352734      1.69917667     -0.03838880     -0.000047    -0.000102     0.000130
O      -0.27689780      1.27939067     -1.17153976      0.000035     0.000236    -0.000090
H      -0.26162933      1.54202505     -2.11942294      0.001383     0.000517     0.001128
O      -2.13472589      3.28539468     -1.09707893      0.000386     0.000010    -0.000132
H      -1.72716295      4.14953591     -1.02028436      0.000498    -0.000466    -0.001075
O      -2.99739062      0.74772294     -1.15344020     -0.000262     0.000212     0.000164
H      -2.78931990      0.20656824     -1.95136683     -0.000464    -0.000286     0.000593
O      -1.57111406      0.08481847      1.08021762      0.000033    -0.000124    -0.000311
H      -0.89270145     -0.04687136      1.74237408      0.000363    -0.000114    -0.000955
O      -3.27848086      2.17280846      1.15665945      0.000064    -0.000285    -0.000060
H      -3.79073162      2.99781459      1.11984186     -0.000629    -0.000568    -0.000885
O      -0.56163019      2.62682100      1.08047070      0.000103     0.000253     0.000039
H      -0.72250645      2.98679446      1.96073597     -0.000111    -0.000184    -0.000463
H      -2.80271351      3.36075179     -1.81529913      0.001009    -0.000804     0.000099
H      -3.66504492      1.64649402      1.86413983     -0.001363    -0.000174    -0.000290
H      -3.97776347      0.72217772     -1.02698002      0.000739    -0.001538    -0.000222
H      -1.91061964     -0.79200134      0.83253542      0.001886     0.000153     0.000047
H       0.71192176      1.33998225     -0.92244457     -0.000548    -0.000125     0.001079
H       0.36120901      2.79688307      0.81828542     -0.000094    -0.000043     0.000481
N       2.53245301      2.41127414     -0.90339940      0.000127    -0.000147     0.000262
H       2.68276098      2.81440934     -1.83789573     -0.000169     0.000817     0.000866
H       3.01870990      3.07053448     -0.30066609      0.000740    -0.000000     0.000011
H       3.10701123      1.58657379     -0.89651785      0.000763    -0.000499     0.000700
23
Frame 99  Energy = -756.7073264609 Hartree
Al     -1.77648960      1.70232347     -0.04030564     -0.000092     0.000182    -0.000000
O      -0.28082582      1.27911682     -1.16679472      0.000100     0.000009    -0.000069
H      -0.24769979      1.54774252     -2.10446380     -0.000667    -0.001076    -0.000253
O      -2.13298300      3.27812311     -1.10165022     -0.000054     0.000001     0.000153
H      -1.73101560      4.17500681     -1.02526419     -0.000680    -0.000423     0.000422
O      -2.99822426      0.74246046     -1.15818810      0.000066    -0.000090    -0.000278
H      -2.79674011      0.21951969     -1.95059223      0.000090     0.000908    -0.000208
O      -1.56734888      0.08726010      1.06471036     -0.000296    -0.000082    -0.000333
H      -0.88833804     -0.04853003      1.74781421     -0.000606     0.000721    -0.000806
O      -3.26549928      2.16857365      1.15057803      0.000205     0.000205     0.000159
H      -3.81172545      2.98006844      1.07023585     -0.000127     0.000214     0.000186
O      -0.55591454      2.63190121      1.07078225      0.000026    -0.000142    -0.000072
H      -0.72938608      3.04022723      1.93338398      0.001154    -0.001067    -0.001103
H      -2.81027613      3.33880733     -1.78498835      0.000471     0.000810     0.001167
H      -3.64801378      1.61598859      1.84885402     -0.000539    -0.001149    -0.000772
H      -3.96877008      0.69178318     -1.02938886     -0.000171     0.000521     0.000051
H      -1.88769960     -0.78764166      0.81848386      0.000116     0.000068     0.000467
H       0.69197842      1.39345894     -0.90846567      0.000167    -0.000606     0.000349
H       0.37953141      2.80865792      0.83093500      0.000794    -0.000436    -0.000831
N       2.51851290      2.40507931     -0.89228342      0.000068    -0.000035     0.000099
H       2.70281435      2.84115522     -1.79703997     -0.000253    -0.000136    -0.000845
H       3.01456402      3.06219377     -0.28845838      0.000556     0.000003     0.000025
H       3.14062050      1.58062124     -0.87013388      0.000755     0.000600     0.000420
23
Frame 100  Energy = -756.6904970335 Hartree
Al     -1.78069721      1.70138697     -0.03325809     -0.000018    -0.000163    -0.000063
O      -0.28587766      1.27093748     -1.17788237     -0.000013    -0.000029    -0.000126
H      -0.26677498      1.50103175     -2.11723846     -0.000916     0.000889     0.000353
O      -2.13043266      3.28728073     -1.10508805      0.000238    -0.000280    -0.000157
H      -1.72702489      4.15902770     -1.00572626      0.000226     0.000941    -0.000564
O      -2.98941836      0.73579547     -1.16144523     -0.000641     0.000003     0.000217
H      -2.79445507      0.21943697     -1.95543771      0.000067    -0.000263     0.000402
O      -1.56822400      0.09213016      1.06158027     -0.000281     0.000045    -0.000140
H      -0.90586242     -0.05709414      1.78617691     -0.000553     0.000253     0.000443
O      -3.26526663      2.16986158      1.15017108      0.000078     0.000124    -0.000062
H      -3.81967277      2.95252688      1.02140208      0.000200    -0.000095     0.002195
O      -0.54810927      2.62707614      1.06883683      0.000386     0.000004     0.000171
H      -0.67945960      3.04194320      1.92788009     -0.001007     0.000229     0.001002
H      -2.81655856      3.35039975     -1.78451730     -0.000452     0.000048    -0.001240
H      -3.66389052      1.64076216      1.83778467     -0.000868    -0.001279     0.000546
H      -3.95380590      0.64433967     -1.00820170     -0.001257     0.000919    -0.001025
H      -1.88425817     -0.79861642      0.83567559     -0.000202    -0.000328    -0.000460
H       0.68814075      1.41163015     -0.92733539     -0.000443     0.001279    -0.000533
H       0.39577296      2.76530971      0.83996970     -0.001015    -0.000907    -0.000488
N       2.51577890      2.40131105     -0.88971928     -0.000107    -0.000020    -0.000070
H       2.66258959      2.81916706     -1.79551050     -0.000471    -0.001767    -0.000152
H       2.99332720      3.01973761     -0.23713486      0.000721    -0.000842    -0.001063
H       3.13340199      1.58320286     -0.88282066      0.000317    -0.000193     0.000406
