23
Image 0  Energy = -756.5363909423
Al -1.8003100000  1.7367500000 -0.0279900000
O  -0.3629600000  1.2533000000 -1.1251800000
H  -0.0951600000  2.0429800000 -1.6610700000
O  -2.0737800000  3.2555800000 -1.0860300000
H  -1.8694200000  4.0695000000 -0.5593600000
O  -2.9435300000  0.7881900000 -1.1771200000
H  -2.4836900000 -0.0366700000 -1.4778800000
O  -1.5435900000  0.2053000000  1.0333900000
H  -0.5862000000 -0.0479000000  1.0513500000
O  -3.2213600000  2.2136100000  1.0966900000
H  -3.7364800000  2.9812400000  0.7446800000
O  -0.6672100000  2.7084800000  1.0952100000
H  -0.1384700000  2.0974900000  1.6644600000
H  -3.0352900000  3.3298900000 -1.3092100000
H  -3.8709600000  1.4738200000  1.1831700000
H  -3.7558400000  0.4701600000 -0.7145700000
H  -1.9963900000 -0.5784300000  0.6382600000
H   0.4314400000  1.0693300000 -0.5641300000
H   0.0063800000  3.1738000000  0.5357100000
N   1.5919400000  2.7459400000 -0.8755200000
H   2.6360100000  2.7285100000 -0.8520900000
H   1.2565500000  3.1206000000  0.0398700000
H   1.2562800000  1.7606700000 -0.9613900000
23
Image 1  Energy = -756.5353089048
Al -1.8001955639  1.7366040596 -0.0279848642
O  -0.3621683003  1.2536609675 -1.1252869441
H  -0.0952367895  2.0431118712 -1.6607984073
O  -2.0733013206  3.2550950919 -1.0865581115
H  -1.8693656487  4.0694643473 -0.5588698521
O  -2.9434062868  0.7889724221 -1.1775338983
H  -2.4833808332 -0.0369484640 -1.4774960673
O  -1.5440255187  0.2058091655  1.0338051451
H  -0.5857787707 -0.0476461195  1.0510141731
O  -3.2206439806  2.2137736274  1.0971719499
H  -3.7364515060  2.9814316594  0.7441411957
O  -0.6677403990  2.7087194451  1.0952897997
H  -0.1383361459  2.0969538300  1.6642226525
H  -3.0356758966  3.3297058567 -1.3088078256
H  -3.8709778619  1.4733825346  1.1827176189
H  -3.7558305769  0.4701341273 -0.7140021009
H  -1.9965885550 -0.5784103696  0.6377728030
H   0.4320421541  1.0697901964 -0.5638867177
H   0.0067071435  3.1737487964  0.5352228886
N   1.5918282664  2.7463626327 -0.8759116549
H   2.6364864500  2.7283161255 -0.8520277682
H   1.2556104792  3.1207714091  0.0404313655
H   1.2543894612  1.7593367874 -0.9613753794
23
Image 2  Energy = -756.5789525099
Al -1.8145619205  1.7455294413 -0.0260703275
O  -0.4137570454  1.2406712155 -1.1260821363
H  -0.0933870607  2.0150810884 -1.6772430237
O  -2.1028196588  3.2759931465 -1.0455009944
H  -1.8719567048  4.0944411685 -0.5934536946
O  -2.9434614343  0.7458490678 -1.1429568863
H  -2.5049151119 -0.0293374590 -1.5197509581
O  -1.5208327148  0.1837427627  1.0026118090
H  -0.6009752033 -0.0798356604  1.0835094091
O  -3.2555972773  2.1994836046  1.0573107413
H  -3.7524909586  2.9794758901  0.7880557731
O  -0.6456470606  2.6884808676  1.0877489884
H  -0.1395911123  2.1367221461  1.6982790651
H  -3.0177673294  3.3512358486 -1.3509961252
H  -3.8877370691  1.4966932192  1.2283228883
H  -3.7766962374  0.4622753487 -0.7577776780
H  -1.9854545557 -0.5963004601  0.6765200511
H   0.3765506480  1.0280781630 -0.5922413528
H  -0.0085657710  3.1883895946  0.5713928302
N   1.6176205556  2.7480151541 -0.8544222312
H   2.6057647347  2.7488708027 -0.8608300104
H   1.3344274277  3.1104494787  0.0068715720
H   1.3998103639  1.8281356267 -0.9620480228
23
Image 3  Energy = -756.6020955801
Al -1.8260000139  1.7476345333 -0.0235522790
O  -0.4483316937  1.2354986911 -1.1343110624
H  -0.0926446542  1.9933364073 -1.6915914900
O  -2.1222875122  3.2868476949 -1.0167043570
H  -1.8725423142  4.1228977261 -0.6183857530
O  -2.9420736604  0.7190842102 -1.1180984712
H  -2.5201307135 -0.0283898573 -1.5567209291
O  -1.5073115525  0.1728155156  0.9816533880
H  -0.6029853821 -0.1078359899  1.1122714306
O  -3.2785013877  2.1874321883  1.0296605803
H  -3.7693853347  2.9855735523  0.8217029089
O  -0.6390510762  2.6703671543  1.0853009164
H  -0.1376843214  2.1655061444  1.7310209169
H  -3.0091572698  3.3701099409 -1.3877806474
H  -3.9064047453  1.5088516922  1.2684078209
H  -3.8006676499  0.4529749329 -0.7913584609
H  -1.9815070096 -0.6165132355  0.7052935698
H   0.3417071308  0.9944689389 -0.6137380640
H  -0.0111546140  3.2079453910  0.5940019941
N   1.6298945553  2.7827872746 -0.8692661803
H   2.6219335926  2.7737210015 -0.8709696874
H   1.3830104771  3.1164648214  0.0195837222
H   1.4892345466  1.8205613427 -0.9651702431
23
Image 4  Energy = -756.6349032492
Al -1.8527671357  1.7407466627 -0.0154915533
O  -0.4952842397  1.2385648900 -1.1705496237
H  -0.0973644963  1.9373733164 -1.7202984736
O  -2.1636900423  3.3051420737 -0.9580231548
H  -1.8713742002  4.2016476398 -0.6740553561
O  -2.9379128381  0.6677878321 -1.0681004399
H  -2.5536079284 -0.0322585307 -1.6473732299
O  -1.4826171694  0.1530959360  0.9421109761
H  -0.5919187829 -0.1742709024  1.1860452841
O  -3.3260126622  2.1638480628  0.9731718510
H  -3.8125339543  3.0107357677  0.8988441158
O  -0.6297776741  2.6403529059  1.0723968230
H  -0.1282022533  2.2247846988  1.8200251782
H  -2.9947288369  3.4165139171 -1.4776514999
H  -3.9607491178  1.5223169646  1.3708692267
H  -3.8695983929  0.4268041077 -0.8684820576
H  -1.9816905538 -0.6706822170  0.7688367244
H   0.2634326247  0.9173212708 -0.6683333443
H  -0.0164423280  3.2551141206  0.6465421545
N   1.6417880575  2.8030606082 -0.9232629030
H   2.6740388288  2.8540635432 -0.9028241408
H   1.4957377289  3.1235002336  0.0616175501
H   1.6892345466  1.8365772286 -0.9547645961
23
Image 5  Energy = -756.6524385374
Al -1.8761283349  1.7256510388 -0.0093786878
O  -0.5418526982  1.2379539971 -1.2120587979
H  -0.0961533397  1.8897433521 -1.7628334764
O  -2.2175226651  3.3517735810 -0.9076349594
H  -1.8740419273  4.2735891648 -0.7404605627
O  -2.9568389846  0.5910786778 -1.0331241478
H  -2.5959735896 -0.0242653793 -1.7381716923
O  -1.4441119115  0.1065953394  0.9133648854
H  -0.5892238523 -0.2383660818  1.2679723718
O  -3.4155546443  2.1354922874  0.9368608851
H  -3.8513959463  3.0313157795  0.9833911775
O  -0.6071256376  2.6019039940  1.0842838301
H  -0.1332518309  2.2990658451  1.9036483395
H  -2.9655177565  3.4653950890 -1.5695359473
H  -4.0051127913  1.5470025772  1.4784040696
H  -3.9302246401  0.4032580945 -0.9581224418
H  -1.9820926354 -0.7205829035  0.8385506655
H   0.1881841725  0.8286863495 -0.7305462731
H  -0.0203709144  3.3093053230  0.7008987214
N   1.6829382414  2.8704775415 -0.9417604869
H   2.7172600115  2.9645752064 -0.9541736142
H   1.6228360190  3.1119353655  0.0746830810
H   1.8892345466  1.8005559411 -0.9330075809
23
Image 6  Energy = -756.6688728978
Al -1.8813500969  1.7170326999 -0.0077934746
O  -0.5451133714  1.2374808361 -1.2211355541
H  -0.0883229800  1.8916228609 -1.7825669536
O  -2.2355404041  3.3808767069 -0.9221460800
H  -1.8784726899  4.2774633459 -0.7530509663
O  -2.9796078514  0.5633965143 -1.0559444857
H  -2.6095983474 -0.0135998295 -1.7434172372
O  -1.4354745625  0.0772543018  0.9261032056
H  -0.5886239184 -0.2445575144  1.2853778109
O  -3.4554518390  2.1376257389  0.9577935121
H  -3.8523533280  3.0253849425  0.9963386430
O  -0.5912346184  2.6091469991  1.0990055375
H  -0.1442551863  2.3147643537  1.9152751857
H  -2.9472224210  3.4728825140 -1.5754630207
H  -4.0079077621  1.5526153427  1.4950856813
H  -3.9326560842  0.4003180856 -0.9755679947
H  -1.9823605230 -0.7233787494  0.8496535418
H   0.1813152872  0.8050424934 -0.7496057680
H  -0.0268640320  3.3114459003  0.7132607257
N   1.7297711713  2.8517092548 -0.9312884756
H   2.7363746087  3.0142426453 -0.9847015622
H   1.6413443108  3.1089493374  0.0807982931
H   1.8915633898  1.7944214216 -0.9247612873
23
Image 7  Energy = -756.6816399522
Al -1.9025306749  1.7030893655 -0.0028552092
O  -0.5671848644  1.2380233046 -1.2467082750
H  -0.0767802224  1.8778577741 -1.8241604552
O  -2.2678881102  3.4238521927 -0.9084460287
H  -1.8848020701  4.3115287692 -0.7953301651
O  -3.0093232239  0.5143401972 -1.0593239005
H  -2.6407566700 -0.0050933115 -1.7947896264
O  -1.4105054894  0.0306422472  0.9301409368
H  -0.5856411027 -0.2771756250  1.3420954167
O  -3.5211705394  2.1260694307  0.9601139666
H  -3.8724462627  3.0313553851  1.0467965541
O  -0.5693809653  2.6049298056  1.1132787485
H  -0.1601614775  2.3624238377  1.9679057065
H  -2.9225642511  3.5037473676 -1.6283066003
H  -4.0361762046  1.5633619692  1.5657978580
H  -3.9680797086  0.3853247964 -1.0338673409
H  -1.9856598181 -0.7511985921  0.8905501609
H   0.1435065415  0.7383589732 -0.8021447185
H  -0.0377067616  3.3334035815  0.7513848273
N   1.8045690690  2.8212457936 -0.9054763743
H   2.7786501640  3.1258392729 -1.0509481836
H   1.7178903715  3.0954508829  0.0794955618
H   1.9721006909  1.8047628416 -0.9039537698
23
Image 8  Energy = -756.6845503156
Al -1.9230627450  1.6949934469  0.0021366197
O  -0.5569806856  1.2496105632 -1.2688390213
H  -0.0748442804  1.8642699860 -1.8420321012
O  -2.3044386836  3.4354643682 -0.9093645152
H  -1.8836412011  4.3389684413 -0.8250377822
O  -3.0246319804  0.4893059530 -1.0647939645
H  -2.6696354132  0.0050390158 -1.8335811907
O  -1.4009590176  0.0057846416  0.9346721760
H  -0.5831239240 -0.2970376943  1.3960543374
O  -3.5637534077  2.1068185074  0.9740873846
H  -3.8841214094  3.0300564054  1.0855805505
O  -0.5698150615  2.5902274746  1.1304595256
H  -0.1910745178  2.4039399623  2.0041864280
H  -2.8930573962  3.5250029881 -1.6623960188
H  -4.0506368550  1.5765319714  1.6196197536
H  -4.0057132135  0.3746059256 -1.0828338333
H  -1.9900582423 -0.7762914355  0.9226805653
H   0.1047881724  0.6847426420 -0.8674996661
H  -0.0430734344  3.3543445753  0.7765569413
N   1.8936669785  2.7995945081 -0.8781144483
H   2.7823912325  3.2215241605 -1.1293624446
H   1.7857424544  3.0744773469  0.0851833624
H   2.0439907668  1.8101665198 -0.8761137167
23
Image 9  Energy = -756.6877703883
Al -1.9262077674  1.6925573278  0.0019693209
O  -0.5681215119  1.2533292568 -1.2674459506
H  -0.0682330873  1.8699538663 -1.8486947682
O  -2.2977809013  3.4440559490 -0.9000254092
H  -1.8877621564  4.3296448488 -0.8303281766
O  -3.0368356648  0.4886091828 -1.0666831134
H  -2.6752161471  0.0077817146 -1.8413507126
O  -1.3983816519 -0.0002517934  0.9389579365
H  -0.5898514189 -0.2957146396  1.4058790796
O  -3.5639981541  2.1086858993  0.9754179086
H  -3.8842668876  3.0244473722  1.0922227150
O  -0.5712017374  2.5972136582  1.1234056264
H  -0.2017568656  2.4109021120  2.0161903292
H  -2.8943542443  3.5278642929 -1.6782687137
H  -4.0549513518  1.5750866912  1.6349793151
H  -4.0053828152  0.3748764673 -1.0923439348
H  -1.9891849308 -0.7791273672  0.9289318654
H   0.1040006180  0.6667547074 -0.8838659891
H  -0.0507326040  3.3486489439  0.7842805119
N   1.9016363879  2.8007025008 -0.8742586824
H   2.7821146676  3.2421492327 -1.1526297422
H   1.8050665264  3.0694165949  0.0930918752
H   2.0693597755  1.8045534614 -0.8681823691
23
Image 10  Energy = -756.6902211819
Al -1.9224257985  1.6946814272 -0.0000390953
O  -0.5654244557  1.2578768211 -1.2568476514
H  -0.0651117248  1.8835563606 -1.8393965951
O  -2.2856176784  3.4322409305 -0.9057539413
H  -1.8872946713  4.3089403824 -0.8189460574
O  -3.0371911037  0.5084203680 -1.0730666635
H  -2.6713799812  0.0092216401 -1.8286130952
O  -1.4074435555  0.0101671479  0.9451523949
H  -0.5978964152 -0.2797557045  1.3982503921
O  -3.5400871918  2.1098711954  0.9842825378
H  -3.8765069586  3.0172234727  1.0801330456
O  -0.5833592636  2.6033096662  1.1190708766
H  -0.2149027269  2.4024413366  2.0048028021
H  -2.8992402222  3.5181226118 -1.6690194268
H  -4.0462423226  1.5705795680  1.6236281574
H  -3.9957742262  0.3809363742 -1.0815693969
H  -1.9876554975 -0.7717264573  0.9201495722
H   0.1162446857  0.6711033040 -0.8889358598
H  -0.0535456822  3.3363093073  0.7760994390
N   1.8900322174  2.8022547045 -0.8718930037
H   2.7647393988  3.2300106135 -1.1617392378
H   1.8006302723  3.0667858877  0.1004985746
H   2.0634110112  1.7995693041 -0.8649988178
23
Image 11  Energy = -756.6964719340
Al -1.9190080672  1.6949121352 -0.0039905180
O  -0.5622526252  1.2799807777 -1.2393964901
H  -0.0521526271  1.9209201878 -1.8200348179
O  -2.2713172765  3.3964876289 -0.9202534757
H  -1.8814948579  4.2653386355 -0.8002993573
O  -3.0445543080  0.5542761063 -1.0945378691
H  -2.6758830946  0.0211482283 -1.8142178377
O  -1.4335988563  0.0292587159  0.9622828153
H  -0.6212358981 -0.2415297571  1.4093424529
O  -3.4901548139  2.1026234783  1.0168625787
H  -3.8591322488  2.9958318843  1.0664042799
O  -0.6248325126  2.6125743587  1.1117551920
H  -0.2756225575  2.4008372515  1.9968765854
H  -2.8987800811  3.4990351436 -1.6653540707
H  -4.0273325762  1.5616454834  1.6242794572
H  -3.9914085043  0.3950418328 -1.0772474042
H  -1.9847265963 -0.7632201549  0.9134354956
H   0.1353780745  0.6468358456 -0.9416571189
H  -0.0645858509  3.3117844541  0.7640809453
N   1.8786498702  2.7871293353 -0.8497852290
H   2.7232066333  3.2519621475 -1.2374304478
H   1.8368908121  3.0496434480  0.1302147823
H   2.1019060478  1.7896230682 -0.8400809846
23
Image 12  Energy = -756.7022520415
Al -1.9093948840  1.6909090931 -0.0114043740
O  -0.5220931326  1.3048775863 -1.2165861543
H  -0.0342539486  1.9904704503 -1.7666988055
O  -2.2374314677  3.3222589518 -0.9417703256
H  -1.8671163285  4.1860656495 -0.7596142648
O  -3.0531327053  0.6528552246 -1.1251171674
H  -2.6744230549  0.0360812294 -1.7974996450
O  -1.4839487343  0.0807709865  0.9899849694
H  -0.6605119498 -0.1658660044  1.4306917617
O  -3.3908742473  2.0907107732  1.0757742656
H  -3.8263501253  2.9631456016  1.0362222157
O  -0.7111332073  2.6320462877  1.0955759885
H  -0.3901983068  2.3932725428  1.9890273653
H  -2.9079895114  3.4584543796 -1.6652631991
H  -3.9894177151  1.5352753853  1.6271895982
H  -3.9916203607  0.4236975728 -1.0620935575
H  -1.9881433262 -0.7555286944  0.8971837592
H   0.1536698384  0.6235236502 -1.0429795042
H  -0.0772288036  3.2664365118  0.7322492940
N   1.8665119510  2.7613391751 -0.8199375801
H   2.6087854013  3.2693757946 -1.3542849581
H   1.9128264101  3.0230834010  0.1771036189
H   2.1714262578  1.7788846536 -0.7965042959
23
Image 13  Energy = -756.7057051409
Al -1.9085962569  1.6710958418 -0.0164934397
O  -0.5118234468  1.3194658626 -1.2379328659
H  -0.0181805279  2.0149518665 -1.7402886130
O  -2.2579758964  3.3092282585 -0.9651400483
H  -1.8587400705  4.1694835359 -0.7569386704
O  -3.0726399198  0.6539139695 -1.1636431075
H  -2.6968391543  0.0677449485 -1.8076560776
O  -1.5097450655  0.0663262396  0.9993232421
H  -0.6800237837 -0.1392742556  1.4788285429
O  -3.4025347910  2.0841778820  1.1210178951
H  -3.8127600107  2.9400163520  1.0490451340
O  -0.7374324198  2.6492350804  1.1055017702
H  -0.4714576014  2.4219142737  2.0145111238
H  -2.8849794465  3.4452816712 -1.6852385506
H  -3.9679426176  1.5300132611  1.6648672143
H  -4.0089962946  0.4386932545 -1.0823927788
H  -1.9849744038 -0.7540702188  0.9146238847
H   0.1401018767  0.5732596470 -1.1294877878
H  -0.0858518120  3.2468653715  0.7330841728
N   1.8989118169  2.7424423323 -0.7937742819
H   2.5367695025  3.3207793681 -1.4266882154
H   2.0189251208  3.0103219780  0.1832129362
H   2.2747430707  1.7802736990 -0.7670925459
23
Image 14  Energy = -756.7107846962
Al -1.9083582704  1.6677743651 -0.0169924493
O  -0.5111487783  1.2998594755 -1.2499699416
H  -0.0204319533  2.0003968911 -1.7401667057
O  -2.2645383039  3.3235129846 -0.9602162677
H  -1.8607875216  4.1896357416 -0.7630544739
O  -3.0680832296  0.6370813873 -1.1511117059
H  -2.6910488610  0.0601443259 -1.8194406758
O  -1.4942574775  0.0626539304  0.9917023202
H  -0.6736097483 -0.1523349912  1.4722462424
O  -3.4206474359  2.0833989469  1.1054095893
H  -3.8230642735  2.9566725614  1.0539677017
O  -0.7220896199  2.6444204673  1.1150945589
H  -0.4489960365  2.4248881452  2.0160912840
H  -2.8858218515  3.4504417780 -1.6866910395
H  -3.9738716524  1.5299028448  1.6659170456
H  -4.0129949122  0.4354220382 -1.0806337006
H  -1.9897329119 -0.7619714989  0.9163128273
H   0.1287321445  0.5925370283 -1.1065169510
H  -0.0728599945  3.2571060616  0.7335373370
N   1.9002484474  2.7462409906 -0.8074719593
H   2.5409614176  3.2958898198 -1.3734177868
H   2.0108507377  3.0256585091  0.1608424007
H   2.2595079839  1.7928084249 -0.7841887195
23
Image 15  Energy = -756.7150303109
Al -1.9088169963  1.6562793462 -0.0212888305
O  -0.5117804695  1.2969632486 -1.2644139678
H  -0.0055060880  2.0154905530 -1.7182141704
O  -2.2652046572  3.3181767459 -0.9597725002
H  -1.8599254211  4.1800577110 -0.7636236790
O  -3.0766735189  0.6470995299 -1.1553518964
H  -2.6957543292  0.0662335116 -1.8423762796
O  -1.4964815396  0.0654331798  0.9952764372
H  -0.6883996136 -0.1367949787  1.4957494847
O  -3.4136008435  2.0740919177  1.1160293908
H  -3.8240935968  2.9583909355  1.0626315936
O  -0.7410994722  2.6510102397  1.1183682971
H  -0.4914164152  2.4438632814  2.0353318335
H  -2.8815333775  3.4434598583 -1.7072368323
H  -3.9671503911  1.5194367283  1.6942877761
H  -4.0273485108  0.4450897722 -1.0892340781
H  -1.9961104204 -0.7732981244  0.9249586556
H   0.1199825885  0.5716493929 -1.1510457484
H  -0.0658658320  3.2472083031  0.7308734529
N   1.9062256969  2.7270626066 -0.7949950452
H   2.4947804528  3.3115834537 -1.3934950887
H   2.0761849521  3.0318660645  0.1576310255
H   2.3175456095  1.8017869643 -0.7788409364
23
Image 16  Energy = -756.7188725359
Al -1.9128296949  1.6352069947 -0.0282165983
O  -0.5176810958  1.2856442036 -1.2978984570
H   0.0262214374  2.0366943710 -1.6766437597
O  -2.2789099043  3.3147510179 -0.9616793791
H  -1.8603203980  4.1724331969 -0.7723361630
O  -3.0935810332  0.6448078349 -1.1699942954
H  -2.7150332306  0.0867176991 -1.8885320360
O  -1.5030218713  0.0526827935  0.9969037170
H  -0.7139349627 -0.1147199167  1.5493663832
O  -3.4218210507  2.0598601887  1.1343061665
H  -3.8270358991  2.9539343781  1.0900036236
O  -0.7650932613  2.6654926429  1.1255485146
H  -0.5724970004  2.4920691001  2.0765232917
H  -2.8631125713  3.4341708037 -1.7482235663
H  -3.9536811319  1.5066808789  1.7549840654
H  -4.0560464239  0.4629401649 -1.1139826804
H  -2.0030754637 -0.7908574034  0.9496113573
H   0.0922779589  0.5288617707 -1.2410875405
H  -0.0546977535  3.2250864357  0.7365697657
N   1.9276377513  2.7020520571 -0.7738375922
H   2.4062226298  3.3445157387 -1.4266093540
H   2.2124634232  3.0483708721  0.1496083169
H   2.4455071410  1.8147444425 -0.7731349859
23
Image 17  Energy = -756.7223609977
Al -1.9188475948  1.6372326195 -0.0300027007
O  -0.5342166205  1.2907577082 -1.3173614190
H   0.0462416633  2.0266950372 -1.6333668138
O  -2.2840671651  3.3084587605 -0.9598283139
H  -1.8693570688  4.1704439285 -0.7819444621
O  -3.0952121457  0.6368783912 -1.1701868931
H  -2.7326715660  0.0991522062 -1.9167865970
O  -1.4983462506  0.0434622482  0.9950037373
H  -0.7366683640 -0.1048623959  1.5690763938
O  -3.4252633755  2.0462743222  1.1303878375
H  -3.8335078886  2.9453596589  1.1125931059
O  -0.7738552436  2.6644067268  1.1273100322
H  -0.6116637664  2.5325066246  2.0806366576
H  -2.8484635936  3.4288570923 -1.7621614275
H  -3.9387811436  1.5118139603  1.7777421107
H  -4.0609957736  0.4757635968 -1.1266930896
H  -2.0053421160 -0.7998979535  0.9636296755
H   0.0784828835  0.5125706834 -1.2830168339
H  -0.0397802598  3.2010248541  0.7500623681
N   1.9376062212  2.6865075134 -0.7432904730
H   2.3609057225  3.3366224101 -1.4261771290
H   2.2762947649  3.0723868070  0.1328400632
H   2.5054661815  1.8397254915 -0.7972170950
23
Image 18  Energy = -756.7256036756
Al -1.9261531995  1.6406304998 -0.0309747182
O  -0.5492164584  1.2767819895 -1.3326008404
H   0.0771745433  2.0181316489 -1.5782369607
O  -2.2904837848  3.3036195976 -0.9616877677
H  -1.8833975267  4.1664157646 -0.7929361538
O  -3.0934570986  0.6236776896 -1.1728868578
H  -2.7580057055  0.1177184340 -1.9457410306
O  -1.5070881775  0.0338312483  0.9811788428
H  -0.7542608478 -0.0961309777  1.5979125352
O  -3.4326450967  2.0381620040  1.1225606819
H  -3.8384992603  2.9260483880  1.1400117289
O  -0.7827383546  2.6622766181  1.1167043352
H  -0.6562715026  2.5831912155  2.0882141334
H  -2.8286612077  3.4193753031 -1.7722432713
H  -3.9172390498  1.5185478907  1.8002490941
H  -4.0614579858  0.4924704628 -1.1404006887
H  -2.0045771077 -0.8065415049  0.9796177693
H   0.0476622495  0.5098231015 -1.3292189318
H  -0.0186749813  3.1657165762  0.7689607183
N   1.9495159213  2.6729230203 -0.7145613696
H   2.3072650845  3.3196402479 -1.4244039969
H   2.3482341418  3.1061530110  0.1238528418
H   2.5709327825  1.8696781047 -0.8321214150
23
Image 19  Energy = -756.7273497815
Al -1.9291914158  1.6390691719 -0.0340081914
O  -0.5505173628  1.2854786456 -1.3327353596
H   0.0926829066  2.0137929803 -1.5398865915
O  -2.2926762395  3.2924213743 -0.9682226923
H  -1.8890491941  4.1611557910 -0.7922331798
O  -3.0919124694  0.6234411084 -1.1797051938
H  -2.7734289701  0.1318404661 -1.9540340321
O  -1.5103333931  0.0344484954  0.9820146764
H  -0.7727406242 -0.0846296650  1.6065879256
O  -3.4312553932  2.0327276154  1.1260152049
H  -3.8379069299  2.9130724402  1.1494692599
O  -0.7898757977  2.6605300143  1.1145270104
H  -0.6911206391  2.6105674351  2.0820126125
H  -2.8191241554  3.4078386603 -1.7744165983
H  -3.8976107052  1.5197939582  1.8053410002
H  -4.0577117054  0.5042782699 -1.1445040062
H  -2.0044678773 -0.8084192841  0.9838369157
H   0.0311279078  0.5010694384 -1.3568663449
H  -0.0042836803  3.1390078401  0.7745361033
N   1.9628884771  2.6736576080 -0.6985228587
H   2.2707869831  3.3136613873 -1.4409229495
H   2.3815556106  3.1176937746  0.1291544354
H   2.6021219866  1.8796428329 -0.8461884863
23
Image 20  Energy = -756.7290181885
Al -1.9313810187  1.6346782553 -0.0383765337
O  -0.5484164282  1.2950092195 -1.3286955768
H   0.1119742433  2.0093314808 -1.4944728033
O  -2.2910653955  3.2834381777 -0.9710607610
H  -1.8967805863  4.1537142006 -0.7897360915
O  -3.0907573777  0.6255642292 -1.1826545718
H  -2.7880297545  0.1456540293 -1.9666805170
O  -1.5186536928  0.0332013993  0.9816223420
H  -0.7904344820 -0.0719514081  1.6154058151
O  -3.4274596484  2.0279533524  1.1255912441
H  -3.8385102320  2.9031122098  1.1577715793
O  -0.7915953285  2.6603630376  1.1077816763
H  -0.7305815658  2.6410463386  2.0760539503
H  -2.8125641885  3.3932394862 -1.7812468669
H  -3.8759458675  1.5155869808  1.8125609348
H  -4.0537783245  0.5177856991 -1.1467886626
H  -2.0029144469 -0.8068188990  0.9863841753
H   0.0082086703  0.4926271116 -1.3836486591
H   0.0128469234  3.1044177994  0.7797293791
N   1.9880061699  2.6788753030 -0.6843450147
H   2.2288706673  3.3051937429 -1.4557571264
H   2.4108730629  3.1275224338  0.1313916778
H   2.6260458598  1.8925962130 -0.8595809456
23
Image 21  Energy = -756.7292677924
Al -1.9355948351  1.6167386312 -0.0510100062
O  -0.5461169764  1.3074788328 -1.3256989979
H   0.1818423396  2.0078315750 -1.3608940414
O  -2.2976633080  3.2602390133 -0.9831751503
H  -1.9162412610  4.1374829680 -0.7843933728
O  -3.0906394184  0.6290975690 -1.1930432799
H  -2.8289079720  0.1864820311 -2.0198412888
O  -1.5349047480  0.0378502990  0.9807334430
H  -0.8421737796 -0.0331347802  1.6554506085
O  -3.4217798174  2.0087529809  1.1277823348
H  -3.8443123524  2.8837067077  1.1864404155
O  -0.8072252691  2.6566757729  1.0951832732
H  -0.8592005270  2.7393675705  2.0742890289
H  -2.7877347136  3.3514148667 -1.8111610373
H  -3.8149344152  1.4956481068  1.8534260486
H  -4.0606772780  0.5583870099 -1.1579477486
H  -2.0094183167 -0.8214137659  0.9992013349
H  -0.0662449778  0.4594371657 -1.4788613079
H   0.0739410050  3.0091699633  0.7910740031
N   2.0555429831  2.6758840444 -0.6479415997
H   2.0960092006  3.2988914409 -1.4976221799
H   2.5311470583  3.1626349082  0.1295151603
H   2.7232444314  1.9335175693 -0.8902570982
23
Image 22  Energy = -756.7317283640
Al -1.9278413988  1.6166057069 -0.0493903561
O  -0.5273586224  1.3094587682 -1.3107506290
H   0.1711414356  2.0025272942 -1.3833925786
O  -2.2975819069  3.2689669229 -0.9823940248
H  -1.9117043516  4.1422053908 -0.7770510620
O  -3.0913822971  0.6286563974 -1.1951305392
H  -2.8134009995  0.1788362461 -2.0047176590
O  -1.5357342355  0.0395761267  0.9851375527
H  -0.8255951748 -0.0395362355  1.6399043903
O  -3.4249773377  2.0172052097  1.1295774495
H  -3.8429281623  2.8963952084  1.1683270304
O  -0.7885058282  2.6565272553  1.1020549883
H  -0.8326170406  2.7175193672  2.0595548171
H  -2.7981175378  3.3545821328 -1.8064183261
H  -3.8223821673  1.4867453629  1.8393370328
H  -4.0631535287  0.5506356465 -1.1448542068
H  -2.0100137094 -0.8159448191  0.9865951394
H  -0.0613064128  0.4734366026 -1.4454766080
H   0.0658882365  3.0180806367  0.7843140821
N   2.0466436869  2.6922121361 -0.6842798927
H   2.1326715400  3.2993318983 -1.4699226672
H   2.4822633006  3.1487944122  0.1217686580
H   2.6739496489  1.9193227977 -0.8715440425
23
Image 23  Energy = -756.7331160805
Al -1.9282906705  1.6185706572 -0.0494251887
O  -0.5311018484  1.3129848551 -1.3083102675
H   0.1822282088  1.9980947071 -1.3690915936
O  -2.2964329070  3.2692365412 -0.9786280463
H  -1.9164335511  4.1397690623 -0.7786345485
O  -3.0949054582  0.6274508883 -1.1944495714
H  -2.8165473307  0.1816467616 -2.0126250146
O  -1.5405988226  0.0340482073  0.9837477018
H  -0.8280356620 -0.0370136904  1.6445044266
O  -3.4258309924  2.0170705255  1.1277339791
H  -3.8443065478  2.8927321079  1.1714310725
O  -0.7860686393  2.6545578700  1.0927966789
H  -0.8418513205  2.7300227545  2.0625266357
H  -2.7966440068  3.3523176832 -1.8120374629
H  -3.8165956511  1.4854889524  1.8428145449
H  -4.0618328031  0.5545182713 -1.1452349917
H  -2.0086323946 -0.8137209697  0.9871079845
H  -0.0665936387  0.4695662651 -1.4532450944
H   0.0715587342  3.0063543158  0.7892967741
N   2.0422435282  2.6886951167 -0.6727968328
H   2.1272326310  3.3030598520 -1.4721853171
H   2.4913557548  3.1555412641  0.1142424990
H   2.6840405074  1.9211484765 -0.8782898283
23
Image 24  Energy = -756.7341863423
Al -1.9276534824  1.6182615320 -0.0507402011
O  -0.5286290568  1.3172509465 -1.3003848168
H   0.2039089310  1.9920703074 -1.3397881272
O  -2.2990293525  3.2670378945 -0.9788957694
H  -1.9225789650  4.1377275616 -0.7770827840
O  -3.0969798311  0.6270339242 -1.1968886258
H  -2.8218844776  0.1888898809 -2.0242595928
O  -1.5456489928  0.0330591397  0.9849773532
H  -0.8347276203 -0.0304517259  1.6500558308
O  -3.4255127777  2.0150621956  1.1270404249
H  -3.8471727775  2.8905028951  1.1736061726
O  -0.7835431335  2.6505422423  1.0873442941
H  -0.8631146375  2.7523284895  2.0580330955
H  -2.7928476316  3.3447700233 -1.8193819949
H  -3.8034975242  1.4785873262  1.8487170788
H  -4.0645852310  0.5621388555 -1.1434201474
H  -2.0102223795 -0.8155416951  0.9856394290
H  -0.0827247334  0.4650584416 -1.4666721769
H   0.0878405883  2.9825355428  0.7936083391
N   2.0433127024  2.6864002757 -0.6681330482
H   2.1130287490  3.3079310874 -1.4724436154
H   2.5059894940  3.1650348723  0.1038624009
H   2.6942292266  1.9259104802 -0.8835450076
23
Image 25  Energy = -756.7368828145
Al -1.9249336153  1.6200876740 -0.0545596987
O  -0.5104570512  1.3359611309 -1.2595192533
H   0.2883148331  1.9634859131 -1.2335100294
O  -2.3123131988  3.2591613548 -0.9827340863
H  -1.9459003901  4.1329684135 -0.7686649769
O  -3.1031332574  0.6269943874 -1.2081542261
H  -2.8391091390  0.2145622390 -2.0577693250
O  -1.5647499521  0.0349168230  0.9924338130
H  -0.8544646300 -0.0100088758  1.6614977472
O  -3.4229799527  2.0105369414  1.1262569365
H  -3.8581810099  2.8816110761  1.1737817265
O  -0.7669499604  2.6332938165  1.0681362208
H  -0.9288226060  2.8300398444  2.0300951426
H  -2.7801672530  3.3186356567 -1.8398123327
H  -3.7549798047  1.4534725742  1.8589392957
H  -4.0726065910  0.5868265639 -1.1308819140
H  -2.0164998693 -0.8220667863  0.9731575698
H  -0.1408582871  0.4541789262 -1.5020655080
H   0.1498391253  2.8914639646  0.8094093240
N   2.0350037736  2.6823099028 -0.6616685525
H   2.0803344763  3.3302205510 -1.4679275852
H   2.5352503988  3.1969724554  0.0628251646
H   2.7063209398  1.9365160133 -0.8980170171
23
Image 26  Energy = -756.7383540477
Al -1.9230537802  1.6309335364 -0.0516069163
O  -0.4958471744  1.3294510295 -1.2290654481
H   0.3225682226  1.9488681534 -1.2243490784
O  -2.3190281249  3.2653598815 -0.9766944483
H  -1.9546048238  4.1370393167 -0.7663722941
O  -3.1035660558  0.6333321634 -1.2037636790
H  -2.8322716590  0.2092317931 -2.0549677623
O  -1.5707302436  0.0425591924  0.9976643495
H  -0.8416421265 -0.0186075244  1.6464538839
O  -3.4138974845  2.0153565160  1.1195066304
H  -3.8667416450  2.8852063003  1.1583963076
O  -0.7535982134  2.6227278286  1.0670491891
H  -0.9008095921  2.8322417840  2.0039183279
H  -2.7850486862  3.3235998923 -1.8386842186
H  -3.7545181041  1.4467469560  1.8445312459
H  -4.0738581089  0.5808389999 -1.1170753828
H  -2.0181783287 -0.8228158532  0.9558999971
H  -0.1446847676  0.4703023194 -1.4726993201
H   0.1679472770  2.8749499380  0.8134392204
N   1.9884573584  2.6759532712 -0.6734386976
H   2.1298483584  3.3579801169 -1.4601217593
H   2.4873666950  3.1998389177  0.0435022769
H   2.6538480492  1.9210460108 -0.8902739910
23
Image 27  Energy = -756.7403507739
Al -1.9227619667  1.6328429228 -0.0528170298
O  -0.4838135069  1.3428536764 -1.2082782451
H   0.3522713652  1.9376221635 -1.1928243808
O  -2.3273428970  3.2634721579 -0.9789873606
H  -1.9624863996  4.1389059866 -0.7638381126
O  -3.1017352960  0.6355864255 -1.2090331041
H  -2.8387127916  0.2164527645 -2.0553487599
O  -1.5786710071  0.0444335859  1.0015483068
H  -0.8445897116 -0.0177130405  1.6430940223
O  -3.4107884923  2.0170315111  1.1196791999
H  -3.8712523736  2.8787310960  1.1538409554
O  -0.7414298093  2.6166810730  1.0582968723
H  -0.9079504200  2.8527061563  1.9951136330
H  -2.7820400721  3.3196698123 -1.8401426243
H  -3.7424156163  1.4424323706  1.8398556750
H  -4.0740805438  0.5836616193 -1.1115610001
H  -2.0177544619 -0.8220871341  0.9478623866
H  -0.1560748974  0.4614392182 -1.4750127596
H   0.1860020512  2.8463013238  0.8174804282
N   1.9768094856  2.6846842591 -0.6888542099
H   2.1319106200  3.3625544911 -1.4562251274
H   2.4777383697  3.2047048061  0.0371817207
H   2.6371254180  1.9191732981 -0.8897820779
23
Image 28  Energy = -756.7420088770
Al -1.9225033331  1.6347412799 -0.0543162378
O  -0.4673091924  1.3475848171 -1.1926813418
H   0.3752051653  1.9314746982 -1.1722105834
O  -2.3348825921  3.2648098840 -0.9788418565
H  -1.9687290431  4.1413392938 -0.7632700545
O  -3.0998204569  0.6405790547 -1.2106845210
H  -2.8440089114  0.2193721772 -2.0492641376
O  -1.5848943501  0.0478500065  1.0050935317
H  -0.8447643859 -0.0223046297  1.6350780153
O  -3.4058331390  2.0197619551  1.1199231488
H  -3.8758696697  2.8715215692  1.1475574244
O  -0.7301106869  2.6134383103  1.0561486365
H  -0.9009776705  2.8625347259  1.9876270164
H  -2.7818736305  3.3212150205 -1.8389960898
H  -3.7377959738  1.4434626487  1.8310161922
H  -4.0695400090  0.5810196600 -1.1079939079
H  -2.0155846009 -0.8203738289  0.9397657551
H  -0.1605088487  0.4576007338 -1.4680582048
H   0.1979068168  2.8284120623  0.8176374134
N   1.9664330542  2.6989956954 -0.7092338402
H   2.1409481675  3.3634432092 -1.4576371415
H   2.4537068304  3.2002615771  0.0402568156
H   2.6087635283  1.9154006095 -0.8856676472
23
Image 29  Energy = -756.7437193753
Al -1.9199141716  1.6387160495 -0.0579895013
O  -0.4379923740  1.3517454836 -1.1653788368
H   0.4266728888  1.9174411172 -1.1187474729
O  -2.3480927093  3.2662096816 -0.9764629770
H  -1.9831030355  4.1438568480 -0.7624874757
O  -3.0967636051  0.6500046259 -1.2115111532
H  -2.8559560566  0.2270521655 -2.0495950468
O  -1.5979014229  0.0545235181  1.0103522544
H  -0.8492259552 -0.0266044864  1.6259564970
O  -3.3947459152  2.0218161615  1.1175263047
H  -3.8873211857  2.8597436064  1.1393044798
O  -0.7121969837  2.6064393182  1.0551843619
H  -0.9007970123  2.8928961162  1.9688018113
H  -2.7799185741  3.3200272569 -1.8431736612
H  -3.7235165065  1.4408602483  1.8224379653
H  -4.0644208492  0.5809743087 -1.1016381374
H  -2.0135833098 -0.8207549987  0.9260919731
H  -0.1780224522  0.4542548630 -1.4643831157
H   0.2274494501  2.7849075473  0.8206063188
N   1.9490976375  2.7140003213 -0.7303070609
H   2.1482763944  3.3713631769 -1.4688553285
H   2.4211946546  3.1980173174  0.0402419362
H   2.5687381744  1.9146502892 -0.8847257904
23
Image 30  Energy = -756.7450017057
Al -1.9031522850  1.6470515740 -0.0636680182
O  -0.4067138301  1.3446027581 -1.1410475682
H   0.4782335275  1.9119111172 -1.0711875287
O  -2.3671902310  3.2712806506 -0.9743203749
H  -1.9957625142  4.1528708924 -0.7669471023
O  -3.0888954719  0.6647124012 -1.2093083819
H  -2.8695033082  0.2283919096 -2.0403589608
O  -1.6135751091  0.0576571140  1.0127713987
H  -0.8506378710 -0.0425311098  1.6094134486
O  -3.3791269946  2.0295918800  1.1153963013
H  -3.9028401409  2.8400977461  1.1267305126
O  -0.6860840951  2.6021884565  1.0550185112
H  -0.8696780755  2.9180248799  1.9601341778
H  -2.7798054075  3.3304305503 -1.8400746117
H  -3.7210849175  1.4484605825  1.8099776637
H  -4.0523044489  0.5714020225 -1.0976589142
H  -2.0065120075 -0.8166784973  0.9112127263
H  -0.1732521914  0.4554974856 -1.4502256227
H   0.2352640695  2.7530244228  0.8242396495
N   1.9168745056  2.7345278001 -0.7516341973
H   2.1657209728  3.3730070174 -1.5088447723
H   2.3545540304  3.1781722864  0.0676187085
H   2.5134289348  1.9084466188 -0.8859887391
23
Image 31  Energy = -756.7459902382
Al -1.8938740061  1.6477210186 -0.0674123819
O  -0.3986711360  1.3430304807 -1.1398184944
H   0.4912978367  1.9149278773 -1.0501882093
O  -2.3663947899  3.2767910232 -0.9659860334
H  -2.0008524201  4.1512431931 -0.7712589722
O  -3.0874882930  0.6690987911 -1.2074444455
H  -2.8748858072  0.2288668568 -2.0459026163
O  -1.6127865411  0.0619190149  1.0134428054
H  -0.8579239254 -0.0452741471  1.6084886977
O  -3.3718233171  2.0266989673  1.1159341169
H  -3.9111853946  2.8366383176  1.1259906154
O  -0.6986846494  2.6026778165  1.0679185147
H  -0.8650324942  2.9314482518  1.9578584986
H  -2.7817025039  3.3326681170 -1.8486699928
H  -3.7187254026  1.4511595252  1.8139413170
H  -4.0483526959  0.5715800747 -1.0985798646
H  -2.0080413472 -0.8230484891  0.9094878351
H  -0.1694095842  0.4527324925 -1.4581665318
H   0.2478269739  2.7461653648  0.8229871332
N   1.9201681751  2.7364219715 -0.7547093299
H   2.1524068830  3.3610395462 -1.5234850018
H   2.3413015203  3.1706357935  0.0791409157
H   2.5107900568  1.9169987126 -0.8923202891
23
Image 32  Energy = -756.7465128924
Al -1.8948144115  1.6467619929 -0.0660586224
O  -0.4051537735  1.3413791970 -1.1457828130
H   0.4811388815  1.9182671539 -1.0601611299
O  -2.3639950308  3.2753616689 -0.9688675858
H  -1.9972274253  4.1519333162 -0.7708232447
O  -3.0882610330  0.6658565119 -1.2085659971
H  -2.8712871264  0.2277056592 -2.0487620615
O  -1.6109366599  0.0589428854  1.0109509499
H  -0.8564180643 -0.0430061668  1.6133872221
O  -3.3750913765  2.0262830934  1.1164143590
H  -3.9086655669  2.8400811834  1.1277638063
O  -0.7009800550  2.6036143347  1.0663401368
H  -0.8685208289  2.9282838046  1.9636702659
H  -2.7812120715  3.3315239109 -1.8473607025
H  -3.7201859962  1.4497099488  1.8184110166
H  -4.0512987199  0.5733960614 -1.0987539044
H  -2.0095211964 -0.8232515286  0.9126408143
H  -0.1667140067  0.4553132502 -1.4615886448
H   0.2403716250  2.7545568967  0.8236554170
N   1.9238259955  2.7278567940 -0.7457670592
H   2.1476422696  3.3600970063 -1.5193335179
H   2.3508587173  3.1730277292  0.0740012118
H   2.5244029830  1.9184458687 -0.8941616229
23
Image 33  Energy = -756.7470319367
Al -1.8917581239  1.6470723680 -0.0663344169
O  -0.4018611397  1.3406898928 -1.1436037383
H   0.4879038058  1.9205760137 -1.0520554704
O  -2.3647870204  3.2765232442 -0.9707169687
H  -1.9977814317  4.1545430827 -0.7716381816
O  -3.0879929035  0.6650779180 -1.2112145627
H  -2.8703799814  0.2280037094 -2.0536638645
O  -1.6119773871  0.0559987295  1.0091287326
H  -0.8573730651 -0.0431162597  1.6166194696
O  -3.3750448182  2.0263533803  1.1177953054
H  -3.9113143409  2.8395305525  1.1256759733
O  -0.6988494565  2.6038201662  1.0678641510
H  -0.8680926460  2.9372687344  1.9667404005
H  -2.7808593834  3.3312575503 -1.8480472069
H  -3.7174015980  1.4484715272  1.8226435156
H  -4.0519924579  0.5755552673 -1.0961683293
H  -2.0115183368 -0.8246705520  0.9114322043
H  -0.1631856552  0.4577739399 -1.4671416433
H   0.2384044776  2.7524949350  0.8258642081
N   1.9185577878  2.7198853820 -0.7434553160
H   2.1393656647  3.3568415465 -1.5211074469
H   2.3450521243  3.1725090699  0.0714674213
H   2.5308430031  1.9196803763 -0.8988359394
23
Image 34  Energy = -756.7483175966
Al -1.8797812047  1.6477324456 -0.0687433322
O  -0.3850639002  1.3384047461 -1.1320269813
H   0.5200059397  1.9286285631 -1.0155363102
O  -2.3682368138  3.2820012985 -0.9751440136
H  -2.0021495229  4.1639832939 -0.7756918232
O  -3.0861254340  0.6639348137 -1.2215712727
H  -2.8701366063  0.2305842592 -2.0689920969
O  -1.6147667806  0.0467930389  1.0049206919
H  -0.8644721919 -0.0453863242  1.6248237468
O  -3.3737599866  2.0274632215  1.1235815539
H  -3.9221876385  2.8331941037  1.1166620909
O  -0.6937214290  2.6053393313  1.0795528681
H  -0.8628977704  2.9725471955  1.9724750851
H  -2.7800986007  3.3313526771 -1.8518432376
H  -3.7055905355  1.4462557619  1.8357306121
H  -4.0511626629  0.5824835232 -1.0871009543
H  -2.0183138262 -0.8303458308  0.9051410657
H  -0.1499745047  0.4672393541 -1.4866834511
H   0.2369351357  2.7413883864  0.8337759516
N   1.8991981656  2.6958051380 -0.7439120213
H   2.1067313798  3.3412217042 -1.5282849039
H   2.3155499353  3.1673763719  0.0653884938
H   2.5479759397  1.9241435083 -0.9152734725
23
Image 35  Energy = -756.7498611666
Al -1.8632891627  1.6466344740 -0.0739556425
O  -0.3559182903  1.3377066349 -1.1056280837
H   0.5814290179  1.9400813219 -0.9546741477
O  -2.3730843441  3.2911786738 -0.9783356651
H  -2.0122814139  4.1777100585 -0.7833037701
O  -3.0817364639  0.6668612638 -1.2345595061
H  -2.8741768686  0.2358327869 -2.0883605507
O  -1.6204960383  0.0359508131  1.0001188981
H  -0.8778921942 -0.0529168054  1.6332080101
O  -3.3678665910  2.0277633972  1.1315047726
H  -3.9407966617  2.8187952754  1.1011402480
O  -0.6858931455  2.6076312738  1.0984863438
H  -0.8502314897  3.0283198753  1.9765414762
H  -2.7795519589  3.3330310304 -1.8581203696
H  -3.6857123615  1.4473018010  1.8507985807
H  -4.0437491726  0.5906646167 -1.0752857782
H  -2.0268768258 -0.8381123641  0.8930206970
H  -0.1291989936  0.4837588405 -1.5133865445
H   0.2394878555  2.7206975806  0.8481657093
N   1.8707673294  2.6621933378 -0.7559581530
H   2.0553753465  3.3167692205 -1.5400728415
H   2.2574426426  3.1544866058  0.0567158735
H   2.5622068653  1.9298009220 -0.9368113017
23
Image 36  Energy = -756.7527214129
Al -1.8378111730  1.6380407644 -0.0839931797
O  -0.3155998650  1.3245884664 -1.0509583007
H   0.7127307908  1.9707905241 -0.8559804711
O  -2.3791385534  3.3042496751 -0.9889623369
H  -2.0306643790  4.2038558519 -0.7971863592
O  -3.0669783726  0.6733436543 -1.2607436004
H  -2.8835885592  0.2495969666 -2.1153174026
O  -1.6282187713  0.0174284759  0.9943969667
H  -0.9075180440 -0.0704242232  1.6468638170
O  -3.3592585804  2.0363601108  1.1379257342
H  -3.9674486516  2.7817354212  1.0718571631
O  -0.6808654628  2.6215883395  1.1445230594
H  -0.8250806893  3.1203212128  1.9705518014
H  -2.7762796999  3.3350907028 -1.8621792680
H  -3.6482292497  1.4504439708  1.8807417998
H  -4.0285819252  0.6042105850 -1.0572396323
H  -2.0425791100 -0.8514297005  0.8701497214
H  -0.0917692494  0.5369990801 -1.5549638677
H   0.2442331316  2.6893774804  0.8831180033
N   1.8219628230  2.5971198114 -0.7819375321
H   1.9483410954  3.2737811412 -1.5566254980
H   2.1439852063  3.1262220397  0.0295716515
H   2.5963143775  1.9288503219 -0.9723640287
23
Image 37  Energy = -756.7350472690
Al -1.8007411003  1.6261394714 -0.0997224946
O  -0.2587142102  1.3093886281 -0.9656419307
H   0.9127307908  2.0147680104 -0.7093231128
O  -2.3871180247  3.3248008092 -0.9978572509
H  -2.0604661588  4.2386930138 -0.8176689907
O  -3.0480894875  0.6872508941 -1.2925006688
H  -2.8996230876  0.2688273156 -2.1530178257
O  -1.6429161867 -0.0059564823  0.9873237554
H  -0.9495997803 -0.0980481878  1.6629942534
O  -3.3415500840  2.0425528311  1.1484042961
H  -4.0099440593  2.7294665617  1.0287558611
O  -0.6696247650  2.6382210437  1.2043025073
H  -0.7872350101  3.2549240470  1.9619431834
H  -2.7733771166  3.3391650758 -1.8716614949
H  -3.5932419237  1.4589066913  1.9166319330
H  -4.0018672893  0.6214698826 -1.0330158322
H  -2.0629263170 -0.8694057815  0.8352984337
H  -0.0403832896  0.6078086498 -1.6121807269
H   0.2547166560  2.6384537195  0.9340577462
N   1.7540441093  2.5088275963 -0.8269750394
H   1.7999174819  3.2137456320 -1.5846568472
H   1.9745371339  3.0834495263 -0.0043536921
H   2.6294288326  1.9286917968 -1.0198878580
23
Image 38  Energy = -756.7561479469
Al -1.8363513307  1.6315988819 -0.0872190547
O  -0.3205737120  1.3189683462 -1.0308447817
H   0.7517274339  1.9798038670 -0.8430770390
O  -2.3740288676  3.3083149627 -0.9858233242
H  -2.0369335739  4.2059246544 -0.8009908150
O  -3.0651605161  0.6785841835 -1.2613129245
H  -2.8867029676  0.2533416365 -2.1171756829
O  -1.6298115508  0.0159540219  0.9956375123
H  -0.9162895724 -0.0780526252  1.6472234288
O  -3.3550458058  2.0330294447  1.1390211539
H  -3.9727384031  2.7714647465  1.0640667258
O  -0.6823008577  2.6277317585  1.1556264420
H  -0.8175985829  3.1347132105  1.9632149933
H  -2.7774233643  3.3356630236 -1.8642947025
H  -3.6379485064  1.4573439369  1.8808697657
H  -4.0184052238  0.6051301653 -1.0573920551
H  -2.0449259285 -0.8530159553  0.8639623592
H  -0.0841658085  0.5568839470 -1.5588072694
H   0.2448081055  2.6856485919  0.8971722630
N   1.8288579976  2.5884147438 -0.7986584324
H   1.9186143860  3.2640037746 -1.5553068431
H   2.1133696608  3.1166995922  0.0193938352
H   2.5969840969  1.9239917616 -0.9740373011
23
Image 39  Energy = -756.7580594740
Al -1.8376301475  1.6282085896 -0.0875687836
O  -0.3280162340  1.3212266673 -1.0200144362
H   0.7709965049  1.9859809962 -0.8423733814
O  -2.3722718967  3.3065449079 -0.9858806670
H  -2.0388958168  4.2072322501 -0.8017391460
O  -3.0616034016  0.6819103745 -1.2605468318
H  -2.8889503237  0.2556420382 -2.1150299045
O  -1.6321013564  0.0172595931  0.9965717841
H  -0.9196208695 -0.0823209983  1.6474749009
O  -3.3511020676  2.0318344928  1.1352854707
H  -3.9741118082  2.7666467727  1.0618285567
O  -0.6867097452  2.6255122323  1.1537794847
H  -0.8170359183  3.1416992836  1.9643117438
H  -2.7770257626  3.3356974416 -1.8627273608
H  -3.6347921803  1.4603303422  1.8812735779
H  -4.0161593311  0.6041165231 -1.0592738354
H  -2.0448627013 -0.8533846327  0.8620808383
H  -0.0829725189  0.5608786751 -1.5612529476
H   0.2474655117  2.6855200865  0.9046071192
N   1.8317069589  2.5833235490 -0.8048652141
H   1.9073508417  3.2641614081 -1.5610710441
H   2.1054554568  3.1140495844  0.0201255288
H   2.5988439324  1.9200704850 -0.9737471963
23
Image 40  Energy = -756.7627038872
Al -1.8444070292  1.6093237975 -0.0895197349
O  -0.3617382451  1.3143343209 -0.9701637752
H   0.8933012461  2.0285929647 -0.8352877481
O  -2.3589658313  3.3030054663 -0.9829856300
H  -2.0523974385  4.2103915766 -0.8067125015
O  -3.0504550934  0.7008962147 -1.2535671090
H  -2.8987685625  0.2678208842 -2.1076946123
O  -1.6483308156  0.0188049265  1.0029027833
H  -0.9387967549 -0.1071327115  1.6502115536
O  -3.3325598770  2.0221944995  1.1194529620
H  -3.9820394521  2.7384137137  1.0461193915
O  -0.6987796222  2.6276745613  1.1589423219
H  -0.8139254584  3.1750902063  1.9571231412
H  -2.7763460692  3.3350704059 -1.8569751470
H  -3.6123158591  1.4795892452  1.8808748034
H  -3.9978920597  0.5997572326 -1.0696204473
H  -2.0446185288 -0.8533553224  0.8501035472
H  -0.0820964186  0.6042394432 -1.5646099057
H   0.2487948945  2.6815236017  0.9519199906
N   1.8441768155  2.5579422236 -0.8383693002
H   1.8389574107  3.2590933168 -1.5905602875
H   2.0530051414  3.0928006198  0.0144390345
H   2.6141548496  1.8960694225 -0.9747750503
23
Image 41  Energy = -756.7648533477
Al -1.8514522738  1.6138290869 -0.0805834277
O  -0.3720720877  1.3228081752 -0.9830514122
H   0.8997066696  2.0429527014 -0.8610719483
O  -2.3551180875  3.2992768527 -0.9830090545
H  -2.0485378816  4.2037759139 -0.8002484264
O  -3.0599852757  0.6966186788 -1.2529370181
H  -2.8881374420  0.2675554825 -2.1034652941
O  -1.6536611589  0.0184334298  1.0145226833
H  -0.9343605439 -0.1066503035  1.6514618896
O  -3.3388546072  2.0163823515  1.1162672130
H  -3.9755499237  2.7470435004  1.0454715785
O  -0.6948669000  2.6309820877  1.1521461300
H  -0.8353226495  3.1606517847  1.9638478084
H  -2.7771506149  3.3307239165 -1.8541416117
H  -3.6117388245  1.4782270351  1.8778997003
H  -4.0105112163  0.5970957738 -1.0715075405
H  -2.0451182011 -0.8551197383  0.8519045980
H  -0.1010913182  0.5922407477 -1.5598897553
H   0.2366258693  2.6850926311  0.9575028785
N   1.8539460624  2.5772848774 -0.8325514541
H   1.8558767011  3.2578221263 -1.5955174344
H   2.0785845802  3.0900967417  0.0141146166
H   2.6267463415  1.8950167325 -0.9759164143
23
Image 42  Energy = -756.7675142123
Al -1.8597990401  1.6176941506 -0.0704302560
O  -0.3883613491  1.3307268936 -1.0011563543
H   0.9201017643  2.0686448560 -0.8943787152
O  -2.3484292466  3.2942484800 -0.9803453620
H  -2.0443040661  4.1939383265 -0.7911436793
O  -3.0764174686  0.6935262299 -1.2471568557
H  -2.8730146264  0.2670178153 -2.0987340124
O  -1.6644531293  0.0176596697  1.0325694050
H  -0.9291280503 -0.1086100178  1.6534947968
O  -3.3473359145  2.0093029321  1.1093412185
H  -3.9661984260  2.7566225458  1.0429195955
O  -0.7050680290  2.6397203485  1.1517925831
H  -0.8659219487  3.1387436026  1.9680464700
H  -2.7790100566  3.3241791075 -1.8512034780
H  -3.6094068776  1.4766386075  1.8746836793
H  -4.0252795717  0.5923401854 -1.0764857431
H  -2.0454078980 -0.8571844934  0.8534954511
H  -0.1321537791  0.5813539458 -1.5495791533
H   0.2313877277  2.6895571305  0.9675649013
N   1.8797198296  2.5903855255 -0.8368753881
H   1.8777651644  3.2579739827 -1.6063661986
H   2.1113233888  3.0883003190  0.0182198121
H   2.6373487950  1.8993604079 -0.9770243758
23
Image 43  Energy = -756.7700881256
Al -1.8652871108  1.6152689920 -0.0640352632
O  -0.4197289601  1.3451463677 -1.0190676098
H   0.9920458642  2.1234519759 -0.9296634113
O  -2.3428194577  3.2823831384 -0.9798834568
H  -2.0393714158  4.1844705384 -0.7750909779
O  -3.0943565652  0.6899269376 -1.2439462029
H  -2.8517589210  0.2740256167 -2.0820998198
O  -1.6887785818  0.0156776389  1.0706486097
H  -0.9287843515 -0.1203968248  1.6572361296
O  -3.3620911996  2.0032677306  1.0925133718
H  -3.9525311870  2.7628740474  1.0318125078
O  -0.7242943726  2.6553381346  1.1521775255
H  -0.9237092101  3.1190740111  1.9826838095
H  -2.7793102476  3.3115628725 -1.8408101337
H  -3.5989629444  1.4736761715  1.8766439585
H  -4.0551044234  0.5810265333 -1.0878711596
H  -2.0474700144 -0.8634039476  0.8518435229
H  -0.1915787125  0.5714571823 -1.5340231227
H   0.2172187034  2.6901323597  1.0033695766
N   1.9340331489  2.6029574965 -0.8602981607
H   1.9090290349  3.2592037673 -1.6375789407
H   2.1471625717  3.0795627713  0.0166631672
H   2.6644055347  1.9054569857 -0.9899755143
23
Image 44  Energy = -756.7713894515
Al -1.8656250666  1.6115336344 -0.0689733117
O  -0.4403341300  1.3673068750 -1.0429870824
H   1.0303620086  2.1592285584 -0.9485952104
O  -2.3392368246  3.2812040994 -0.9658612745
H  -2.0348589352  4.1679193762 -0.7612139295
O  -3.1258247007  0.6870294576 -1.2257579664
H  -2.8322809102  0.2739295254 -2.0744573918
O  -1.7137301772  0.0125541722  1.1034344503
H  -0.9248378083 -0.1292911860  1.6614569139
O  -3.3738285826  1.9855224872  1.0897829164
H  -3.9484954365  2.7850497786  1.0251127027
O  -0.7587859264  2.6705576223  1.1564892765
H  -0.9819178555  3.0930724010  2.0004147829
H  -2.7831409472  3.3002006328 -1.8410821122
H  -3.5949896830  1.4721456752  1.8730454697
H  -4.0750867221  0.5688638162 -1.1048291158
H  -2.0473497688 -0.8658163825  0.8555359198
H  -0.2521409096  0.5424521834 -1.5213038880
H   0.2102195747  2.6896210169  1.0330258864
N   1.9791900808  2.6217675982 -0.8810526716
H   1.9772115515  3.2738435744 -1.6655292560
H   2.1926009891  3.0816030205  0.0086829404
H   2.7008373329  1.9118425164 -1.0140895936
23
Image 45  Energy = -756.7732269246
Al -1.8643186062  1.6100776155 -0.0734105925
O  -0.4309805267  1.3597067405 -1.0428342150
H   1.0203200014  2.1481588017 -0.9327916323
O  -2.3465129807  3.2811440209 -0.9679404247
H  -2.0351967602  4.1732864160 -0.7635474597
O  -3.1167626940  0.6862967307 -1.2297148849
H  -2.8402400307  0.2751583558 -2.0725650841
O  -1.7091956078  0.0131174376  1.0982589073
H  -0.9281201306 -0.1288483593  1.6601834191
O  -3.3734810911  1.9938125257  1.0902315732
H  -3.9498748980  2.7790665828  1.0274358313
O  -0.7560332925  2.6690684559  1.1590052763
H  -0.9743934030  3.0980803548  1.9996287056
H  -2.7811703715  3.3026310396 -1.8403296336
H  -3.5982462538  1.4710562167  1.8767344987
H  -4.0728271793  0.5689017703 -1.1049330914
H  -2.0473276756 -0.8652997981  0.8561859100
H  -0.2459418752  0.5467451884 -1.5215015292
H   0.2075417913  2.6872690249  1.0323190522
N   1.9743214565  2.6163600999 -0.8830975850
H   1.9819979960  3.2779704469 -1.6624789961
H   2.1850040280  3.0856611635  0.0045273446
H   2.6993952588  1.9127196329 -1.0181169410
23
Image 46  Energy = -756.7746716974
Al -1.8656560397  1.6067656647 -0.0794843972
O  -0.4287998683  1.3597628555 -1.0491591481
H   1.0311545104  2.1507812366 -0.9202121322
O  -2.3565737429  3.2800813646 -0.9656973657
H  -2.0342888778  4.1737632328 -0.7612473487
O  -3.1159155714  0.6836118244 -1.2286240704
H  -2.8444725611  0.2775470198 -2.0654043880
O  -1.7138094083  0.0142334193  1.1042632050
H  -0.9319657966 -0.1334588875  1.6608600168
O  -3.3774933991  1.9979708586  1.0891949988
H  -3.9498108256  2.7774042789  1.0281965450
O  -0.7640595846  2.6723828715  1.1622355771
H  -0.9902942027  3.0952067638  2.0077783246
H  -2.7791015861  3.3016592647 -1.8376097176
H  -3.6011843969  1.4709477144  1.8793874427
H  -4.0779893965  0.5632334143 -1.1130101078
H  -2.0478592635 -0.8665668669  0.8586163013
H  -0.2629562716  0.5391690278 -1.5175506868
H   0.1949787329  2.6838030388  1.0491689213
N   1.9864110802  2.6170602180 -0.8961635808
H   2.0181925846  3.2898047023 -1.6703774783
H   2.1940131019  3.0916583260 -0.0084167482
H   2.7154379276  1.9153191145 -1.0354957062
23
Image 47  Energy = -756.7759025790
Al -1.8716376491  1.6046495743 -0.0823886110
O  -0.4325072668  1.3602424048 -1.0561302961
H   1.0564213010  2.1611250800 -0.9149127106
O  -2.3677286023  3.2791922315 -0.9587290061
H  -2.0337273362  4.1704906505 -0.7576897875
O  -3.1200916369  0.6801093136 -1.2234807376
H  -2.8471333010  0.2789177888 -2.0586077444
O  -1.7220011867  0.0147332594  1.1132888620
H  -0.9370058183 -0.1405423227  1.6627761579
O  -3.3807400987  1.9973815411  1.0877322082
H  -3.9509137267  2.7779638186  1.0292038081
O  -0.7808338842  2.6779212047  1.1676162416
H  -1.0172412779  3.0868209390  2.0178101905
H  -2.7774832942  3.3002410711 -1.8354567267
H  -3.6051226868  1.4737273369  1.8798848237
H  -4.0849940768  0.5549468589 -1.1247982262
H  -2.0489798020 -0.8673045019  0.8626672282
H  -0.2897485552  0.5276959676 -1.5110550625
H   0.1773148962  2.6804008393  1.0779483448
N   2.0103696340  2.6235930494 -0.9139185746
H   2.0687366317  3.3036273307 -1.6816822311
H   2.2133596638  3.0978058014 -0.0297888342
H   2.7396452068  1.9184011990 -1.0590408411
23
Image 48  Energy = -756.7776913720
Al -1.8870141562  1.6069700744 -0.0762561948
O  -0.4507323416  1.3539642262 -1.0454252734
H   1.1136322178  2.1789841801 -0.9264509379
O  -2.3951677403  3.2809790464 -0.9451182748
H  -2.0362285901  4.1638451415 -0.7557486371
O  -3.1304070626  0.6697743295 -1.2169739906
H  -2.8558423958  0.2769758940 -2.0560488340
O  -1.7288402472  0.0161180502  1.1159272800
H  -0.9500255093 -0.1519091579  1.6686399774
O  -3.3861693745  2.0028856719  1.0876014071
H  -3.9551322945  2.7679291076  1.0348312713
O  -0.8195824134  2.6815981193  1.1772012029
H  -1.0647423671  3.0740472145  2.0358733835
H  -2.7728031188  3.3035829690 -1.8318191443
H  -3.6183120060  1.4834604105  1.8796842716
H  -4.0872432855  0.5425003397 -1.1420199514
H  -2.0566456014 -0.8680424703  0.8709266834
H  -0.3229175008  0.5097314866 -1.5029203618
H   0.1449432219  2.6742549112  1.1429521089
N   2.0637477602  2.6267120721 -0.9562749390
H   2.1516865643  3.3271330733 -1.7001298350
H   2.2604300967  3.1171460312 -0.0674945834
H   2.7813232767  1.9234996977 -1.0997080544
23
Image 49  Energy = -756.7795779108
Al -1.9056514501  1.6100409353 -0.0666144299
O  -0.4721128633  1.3386502423 -1.0336539035
H   1.1773378583  2.2002215374 -0.9540850803
O  -2.4236244654  3.2834608949 -0.9269874836
H  -2.0391229893  4.1563136979 -0.7531975988
O  -3.1338852746  0.6577101706 -1.2133050976
H  -2.8634806306  0.2738805873 -2.0551858371
O  -1.7364028628  0.0142723741  1.1165097373
H  -0.9629622363 -0.1622186300  1.6764872849
O  -3.3857664692  1.9947063298  1.0927295268
H  -3.9698729246  2.7704249458  1.0390947702
O  -0.8561001584  2.6878477096  1.1936182392
H  -1.1205387934  3.0576157865  2.0527912582
H  -2.7699719892  3.3077469962 -1.8325669181
H  -3.6332565539  1.4942707100  1.8777728330
H  -4.0991480963  0.5288999861 -1.1569013728
H  -2.0674184518 -0.8671581579  0.8797165585
H  -0.3569838947  0.4996006380 -1.4892885799
H   0.1062387887  2.6669426973  1.2141675587
N   2.1222013810  2.6465932538 -0.9867630670
H   2.2359848737  3.3500142598 -1.7249120716
H   2.3177500354  3.1315707848 -0.1151720165
H   2.8347442944  1.9207326459 -1.1430056239
23
Image 50  Energy = -756.7808213742
Al -1.9121481807  1.6110446873 -0.0596673665
O  -0.4837088518  1.3335758916 -1.0200314828
H   1.2028456377  2.2105144798 -0.9804287595
O  -2.4344891055  3.2860560267 -0.9224434563
H  -2.0407879526  4.1536760039 -0.7523663723
O  -3.1394904368  0.6524463354 -1.2125090291
H  -2.8634327280  0.2698666932 -2.0616064034
O  -1.7360880396  0.0119344947  1.1134932020
H  -0.9676104102 -0.1631684484  1.6803430881
O  -3.3899646932  1.9973919729  1.0946983512
H  -3.9754040451  2.7692217466  1.0395138519
O  -0.8657412179  2.6896320232  1.2031429306
H  -1.1434084234  3.0520621206  2.0578293192
H  -2.7695293791  3.3101702538 -1.8333895508
H  -3.6407988511  1.4943687872  1.8810545292
H  -4.1007916789  0.5262227724 -1.1576221799
H  -2.0753215995 -0.8671853026  0.8816661071
H  -0.3615446664  0.4982054862 -1.4853545001
H   0.0934550285  2.6636866878  1.2399503365
N   2.1484001908  2.6533495371 -0.9977955761
H   2.2546717013  3.3537439873 -1.7364533213
H   2.3457922339  3.1359736385 -0.1270816118
H   2.8530525944  1.9193505194 -1.1536933708
23
Image 51  Energy = -756.7831160340
Al -1.9338966527  1.6102250078 -0.0405597766
O  -0.5145487111  1.3160294678 -0.9811297585
H   1.2937862297  2.2505529163 -1.0669588937
O  -2.4749412952  3.2937568195 -0.9085552428
H  -2.0449569907  4.1471814577 -0.7466490760
O  -3.1511229053  0.6301183282 -1.2198895844
H  -2.8663438759  0.2609984186 -2.0717804860
O  -1.7390423223  0.0026545980  1.1079382959
H  -0.9839811459 -0.1666538324  1.6939700989
O  -3.4113146991  2.0013443926  1.1115552166
H  -3.9983712364  2.7709797354  1.0380905268
O  -0.9087869704  2.6961392858  1.2370790195
H  -1.2330818721  3.0346371721  2.0828776195
H  -2.7688988166  3.3167051444 -1.8355532606
H  -3.6662104099  1.4942266906  1.8899513115
H  -4.1150792249  0.5148209593 -1.1607854197
H  -2.1045048677 -0.8684229287  0.8881726576
H  -0.3829431968  0.4954995464 -1.4668553171
H   0.0583686901  2.6494756302  1.3312750198
N   2.2432976197  2.6681842155 -1.0467495171
H   2.3309163456  3.3700571948 -1.7849017074
H   2.4481913745  3.1524860872 -0.1643573612
H   2.9214220589  1.9211440677 -1.1949354417
23
Image 52  Energy = -756.7842612610
Al -1.9554194903  1.6023882057 -0.0308358422
O  -0.5256467912  1.3101702755 -0.9585735612
H   1.3829601737  2.2928966269 -1.1335841137
O  -2.5135933531  3.3018220982 -0.8983189388
H  -2.0495237161  4.1396379388 -0.7368575200
O  -3.1688382463  0.6126200064 -1.2186080548
H  -2.8707133813  0.2530914993 -2.0776847866
O  -1.7521506362 -0.0063331579  1.1130753951
H  -1.0017736150 -0.1724545580  1.7058126762
O  -3.4410391821  2.0110792926  1.1236950798
H  -4.0221756708  2.7729015490  1.0353530092
O  -0.9351738961  2.7003483509  1.2732745283
H  -1.3336189628  3.0203994517  2.1172714302
H  -2.7699583345  3.3191177003 -1.8340418195
H  -3.6962575634  1.4863680226  1.9083101360
H  -4.1275885614  0.5005053686 -1.1692958108
H  -2.1333839323 -0.8722121761  0.8955746620
H  -0.4124548330  0.4888148361 -1.4440254388
H   0.0062729802  2.6333927361  1.4202960179
N   2.3329011473  2.6946660917 -1.0967941909
H   2.4307390292  3.3893517303 -1.8432819072
H   2.5476638869  3.1597609319 -0.2126169127
H   3.0067300822  1.9238075223 -1.2468949121
23
Image 53  Energy = -756.7853489411
Al -1.9615563640  1.5992297536 -0.0298213320
O  -0.5264555915  1.3120521086 -0.9538575682
H   1.4117470938  2.3067234186 -1.1487393462
O  -2.5251180670  3.3039227166 -0.8938190776
H  -2.0517617893  4.1365646873 -0.7330074457
O  -3.1717064447  0.6077897833 -1.2178668043
H  -2.8742073850  0.2516502152 -2.0761580210
O  -1.7597658578 -0.0087888383  1.1168928188
H  -1.0086393539 -0.1755625318  1.7090288699
O  -3.4502869544  2.0088694297  1.1306715006
H  -4.0329587188  2.7754713540  1.0346620986
O  -0.9557868285  2.7039024870  1.2916836577
H  -1.3640547212  3.0134813355  2.1224359891
H  -2.7709487948  3.3193178598 -1.8336545100
H  -3.7067360637  1.4863104940  1.9116270501
H  -4.1338358646  0.4944804098 -1.1737937621
H  -2.1422733629 -0.8738024117  0.8988706991
H  -0.4237734826  0.4844049749 -1.4361409730
H  -0.0068302635  2.6272356566  1.4521275883
N   2.3667665879  2.7000768718 -1.1188947666
H   2.4713995697  3.3970448875 -1.8634813077
H   2.5794613565  3.1622638283 -0.2305725952
H   3.0352784306  1.9295018437 -1.2669435726
23
Image 54  Energy = -756.7862319123
Al -1.9696712317  1.5937493010 -0.0288271198
O  -0.5234723879  1.3182244526 -0.9495241754
H   1.4582850225  2.3305135281 -1.1714584582
O  -2.5407204270  3.3060800767 -0.8881241748
H  -2.0563053724  4.1315247243 -0.7253415703
O  -3.1775633293  0.6013249982 -1.2161223448
H  -2.8800796831  0.2496205664 -2.0723146562
O  -1.7757473893 -0.0128809885  1.1253349144
H  -1.0204874948 -0.1804158897  1.7133043510
O  -3.4689577332  2.0057107909  1.1416795111
H  -4.0517160916  2.7783125569  1.0335755319
O  -0.9825976181  2.7054663063  1.3203009728
H  -1.4151228401  3.0046891194  2.1338947592
H  -2.7740829939  3.3186713932 -1.8321750461
H  -3.7261959938  1.4850251061  1.9183637316
H  -4.1432958178  0.4848801656 -1.1802468360
H  -2.1574352131 -0.8773664909  0.9044474886
H  -0.4398463197  0.4798831725 -1.4210126051
H  -0.0336612642  2.6174038919  1.5017899355
N   2.4215427381  2.7094205879 -1.1561699478
H   2.5395678336  3.4078243227 -1.8992264486
H   2.6313985996  3.1633380915 -0.2603819604
H   3.0841221380  1.9411405286 -1.3005165611
23
Image 55  Energy = -756.7869299762
Al -1.9753318942  1.5919854207 -0.0242628464
O  -0.5245294966  1.3240141176 -0.9435909443
H   1.5052686678  2.3534989017 -1.1966848728
O  -2.5519377216  3.3042710937 -0.8830540611
H  -2.0616659128  4.1274710113 -0.7177808284
O  -3.1837994202  0.5964207414 -1.2143157304
H  -2.8853139026  0.2472378582 -2.0695452044
O  -1.7919463979 -0.0158377476  1.1327054502
H  -1.0331293050 -0.1846196974  1.7160497587
O  -3.4864170745  2.0038530852  1.1479000022
H  -4.0698606075  2.7763327485  1.0346641859
O  -1.0089529838  2.7008863185  1.3417212753
H  -1.4608486469  2.9983586175  2.1461603034
H  -2.7781633206  3.3184542667 -1.8300729035
H  -3.7478027096  1.4847589040  1.9249089146
H  -4.1506577269  0.4769368471 -1.1838792268
H  -2.1723370562 -0.8813966670  0.9101867171
H  -0.4491407672  0.4801446046 -1.4052590283
H  -0.0593478234  2.6095522622  1.5488329836
N   2.4705484615  2.7202574403 -1.1889137942
H   2.6007866495  3.4156027419 -1.9325341369
H   2.6815327590  3.1636259205 -0.2898894128
H   3.1310033609  1.9503315013 -1.3320972144
23
Image 56  Energy = -756.7885685582
Al -1.9898791777  1.5918234140 -0.0040773045
O  -0.5351675719  1.3514587696 -0.9203329071
H   1.6564306703  2.4257167296 -1.2823241652
O  -2.5727236921  3.2945551055 -0.8707072618
H  -2.0862610982  4.1104770876 -0.6917245400
O  -3.2046485484  0.5863667801 -1.2059929568
H  -2.9022700331  0.2391971484 -2.0601311417
O  -1.8526748239 -0.0262678471  1.1573643450
H  -1.0787279895 -0.1975531586  1.7205113047
O  -3.5460572412  1.9906147547  1.1656327857
H  -4.1348356621  2.7619509369  1.0419109121
O  -1.0828925527  2.6732996871  1.4191004705
H  -1.5976524019  2.9794350391  2.1764470585
H  -2.7950286827  3.3161613683 -1.8167450343
H  -3.8251770849  1.4894473172  1.9393853167
H  -4.1706768139  0.4540416315 -1.1888499573
H  -2.2212755498 -0.8935430336  0.9307757694
H  -0.4616439975  0.4880653478 -1.3519195130
H  -0.1621931588  2.5886559211  1.6932087336
N   2.6378063727  2.7496716000 -1.2974572871
H   2.7960626333  3.4384921479 -2.0419006138
H   2.8467653552  3.1675066276 -0.3844700626
H   3.2806781623  1.9825668384 -1.4364542394
23
Image 57  Energy = -756.7901039622
Al -2.0052629344  1.5934359217  0.0163929655
O  -0.5499428706  1.3651124665 -0.9013639357
H   1.7649033089  2.4717822670 -1.3514381979
O  -2.5805252744  3.2784205987 -0.8605078115
H  -2.1030738084  4.1050962450 -0.6725596961
O  -3.2154915190  0.5824870868 -1.2024584233
H  -2.9127895389  0.2346253839 -2.0520492610
O  -1.8925633974 -0.0300723647  1.1730922176
H  -1.1125367856 -0.2048158874  1.7214145293
O  -3.5883546307  1.9870882886  1.1672418335
H  -4.1802393543  2.7450294607  1.0476378862
O  -1.1428226748  2.6467057713  1.4653641522
H  -1.6846279814  2.9695244922  2.1958709113
H  -2.8088779676  3.3133367229 -1.8068011075
H  -3.8829267761  1.4887449087  1.9515918955
H  -4.1829726519  0.4417386254 -1.1849329478
H  -2.2580655117 -0.9037426116  0.9437780303
H  -0.4558362552  0.5050404173 -1.3123868345
H  -0.2225771109  2.5762607586  1.7890079678
N   2.7416148962  2.7781179273 -1.3624216820
H   2.9205057914  3.4540571126 -2.1142850214
H   2.9634422669  3.1751634398 -0.4496667750
H   3.3869778715  1.9890031218 -1.5092707521
23
Image 58  Energy = -756.7913992250
Al -2.0105833048  1.5964865057  0.0278006945
O  -0.5624029913  1.3746917239 -0.8900196931
H   1.7985918087  2.4822683366 -1.3791676228
O  -2.5704707565  3.2680981974 -0.8578097283
H  -2.1124281984  4.1041786925 -0.6653903138
O  -3.2197754012  0.5869082179 -1.1991144349
H  -2.9144462021  0.2332403320 -2.0496972362
O  -1.9100683426 -0.0312733448  1.1766344731
H  -1.1253928857 -0.2059558453  1.7191951332
O  -3.6042713096  1.9811049873  1.1645739173
H  -4.1996244275  2.7347042383  1.0503156344
O  -1.1576202658  2.6263263155  1.4763118308
H  -1.7025902061  2.9708684032  2.2000730177
H  -2.8161926883  3.3102578340 -1.7999101744
H  -3.9052277215  1.4901521772  1.9500272951
H  -4.1819635790  0.4418100285 -1.1759965654
H  -2.2709559021 -0.9057909102  0.9482682267
H  -0.4358989822  0.5168838741 -1.2990610835
H  -0.2453317385  2.5759119856  1.8101946296
N   2.7763133923  2.7833988080 -1.3806347068
H   2.9511159007  3.4574091790 -2.1341702716
H   3.0016516976  3.1820857837 -0.4690775306
H   3.4155291836  1.9883746076 -1.5320954738
23
Image 59  Energy = -756.7930516506
Al -2.0270164225  1.5958079990  0.0467754067
O  -0.5869674535  1.3869076858 -0.8687710694
H   1.8424720415  2.4879169423 -1.4233784535
O  -2.5443565227  3.2553562749 -0.8558115729
H  -2.1295847914  4.1037721800 -0.6548795080
O  -3.2183872903  0.5998785954 -1.1961095814
H  -2.9150916007  0.2344347197 -2.0410847803
O  -1.9337606461 -0.0330266422  1.1801727365
H  -1.1462641559 -0.2050315339  1.7134019670
O  -3.6312145788  1.9711248179  1.1550358643
H  -4.2318677458  2.7174188438  1.0498107044
O  -1.1782227325  2.5916935564  1.4917972198
H  -1.7109803812  2.9770303201  2.2005998624
H  -2.8276402494  3.3002597861 -1.7816764053
H  -3.9368418879  1.4869020540  1.9427946112
H  -4.1796192532  0.4472689748 -1.1526094578
H  -2.2921734221 -0.9070163664  0.9524197079
H  -0.3837719182  0.5440356173 -1.2789498230
H  -0.2709997157  2.5784393846  1.8219425470
N   2.8244923244  2.7829021030 -1.4017395411
H   2.9792599882  3.4630639504 -2.1531085290
H   3.0538024273  3.2004575056 -0.4944879327
H   3.4426910343  1.9825433294 -1.5608938689
23
Image 60  Energy = -756.7937252867
Al -2.0648761378  1.5793135947  0.0668756872
O  -0.6117612630  1.4049129136 -0.8327714927
H   1.9637507102  2.5235228569 -1.5081609529
O  -2.5392440733  3.2393055425 -0.8364384565
H  -2.1518746148  4.1074580972 -0.6303403661
O  -3.2393213300  0.6110493203 -1.1794741182
H  -2.9185393255  0.2312223127 -2.0324956503
O  -1.9883571818 -0.0420217264  1.1895439000
H  -1.1817664501 -0.2109951355  1.7180962250
O  -3.6928447716  1.9491172986  1.1620587987
H  -4.3022544759  2.7071100204  1.0401208452
O  -1.2345424159  2.5536035108  1.5472716146
H  -1.7938191771  2.9774488881  2.2246903860
H  -2.8466700843  3.2844292116 -1.7622933090
H  -3.9969577278  1.4762568070  1.9376535935
H  -4.1784362000  0.4445772567 -1.1297169399
H  -2.3413275304 -0.9112175548  0.9630471771
H  -0.3335051790  0.5739001462 -1.2325837389
H  -0.3292250713  2.5676434133  1.8930238914
N   2.9440071818  2.8059175434 -1.4747288175
H   3.1034238252  3.4853521011 -2.2204531017
H   3.1865828160  3.2242963469 -0.5707971081
H   3.5455154749  1.9799372786 -1.6408777131
23
Image 61  Energy = -756.7950572085
Al -2.0753595161  1.5739927174  0.0726030774
O  -0.6164508840  1.4089042638 -0.8227144020
H   2.0091472781  2.5410092453 -1.5361703350
O  -2.5451489849  3.2399010609 -0.8313867387
H  -2.1596389293  4.1038905826 -0.6222916207
O  -3.2393063126  0.6099427223 -1.1801287392
H  -2.9231966003  0.2318085966 -2.0245472562
O  -2.0025703717 -0.0449398085  1.1975156038
H  -1.1983781196 -0.2137946664  1.7189387720
O  -3.7159200423  1.9505470181  1.1614377132
H  -4.3224806552  2.7007254645  1.0381712789
O  -1.2574024608  2.5463483502  1.5724749842
H  -1.8305852994  2.9732073538  2.2341356489
H  -2.8512894820  3.2802887422 -1.7543416243
H  -4.0203104991  1.4703293257  1.9433496822
H  -4.1877675246  0.4393693153 -1.1263043502
H  -2.3595847339 -0.9154748362  0.9671323109
H  -0.3277241630  0.5809596638 -1.2148447592
H  -0.3554576744  2.5616694748  1.9270851341
N   2.9952582900  2.8120872834 -1.5062745588
H   3.1588199839  3.4949123636 -2.2504313715
H   3.2368754461  3.2296009102 -0.6005706467
H   3.5864282436  1.9868548780 -1.6715873546
23
Image 62  Energy = -756.7957780529
Al -2.0918705815  1.5633740452  0.0786231527
O  -0.6233382175  1.4119099243 -0.8062007488
H   2.0680602713  2.5601488919 -1.5718710152
O  -2.5547029338  3.2420631460 -0.8213620548
H  -2.1684493619  4.1025815515 -0.6117250368
O  -3.2440974049  0.6106523204 -1.1780087834
H  -2.9267782419  0.2333093923 -2.0145008600
O  -2.0215502678 -0.0503803888  1.2055861612
H  -1.2191279027 -0.2175019437  1.7221307765
O  -3.7483439644  1.9488387664  1.1618653200
H  -4.3522191004  2.6953787391  1.0309090151
O  -1.2868411892  2.5388744820  1.6063441844
H  -1.8733903223  2.9687416569  2.2472594817
H  -2.8569859463  3.2723969333 -1.7426590153
H  -4.0479152447  1.4596887938  1.9462386544
H  -4.1958811033  0.4350462300 -1.1189838463
H  -2.3848342467 -0.9192859358  0.9712277374
H  -0.3125850537  0.5914601055 -1.1913330187
H  -0.3863658133  2.5543146582  1.9618038256
N   3.0582521099  2.8207907287 -1.5461701994
H   3.2288414816  3.5086146995 -2.2863499251
H   3.3009088703  3.2382598474 -0.6408254245
H   3.6371711290  1.9928633575 -1.7107478097
23
Image 63  Energy = -756.7962014543
Al -2.0953714892  1.5608041842  0.0810924838
O  -0.6264349806  1.4098277771 -0.7973924935
H   2.0863156429  2.5641475990 -1.5813080411
O  -2.5627871669  3.2441310401 -0.8137386759
H  -2.1691893784  4.1042635342 -0.6090729431
O  -3.2462542625  0.6117646517 -1.1766042317
H  -2.9264303326  0.2350984399 -2.0102171926
O  -2.0267521893 -0.0527730071  1.2066436715
H  -1.2262642625 -0.2196359148  1.7252767888
O  -3.7590000998  1.9477917502  1.1591777249
H  -4.3631473429  2.6934830464  1.0255667821
O  -1.2984851445  2.5376495920  1.6139112165
H  -1.8816157884  2.9679511055  2.2543907053
H  -2.8578822212  3.2687854193 -1.7375750918
H  -4.0558237817  1.4536799778  1.9448522445
H  -4.2001132538  0.4346319146 -1.1152258405
H  -2.3941363380 -0.9204124501  0.9716734830
H  -0.3024648246  0.5950214335 -1.1829345159
H  -0.3942718596  2.5529460675  1.9652690339
N   3.0740705332  2.8247337931 -1.5582336307
H   3.2513911128  3.5133497530 -2.2966583673
H   3.3201663135  3.2407341793 -0.6549601398
H   3.6524380700  1.9941661089 -1.7226823650
23
Image 64  Energy = -756.7973434220
Al -2.0956812981  1.5596956768  0.0853881626
O  -0.6259264812  1.3920380660 -0.7756829569
H   2.1028000109  2.5628265054 -1.5827864825
O  -2.5987991124  3.2613230222 -0.7862829334
H  -2.1620460420  4.1090757699 -0.6098497602
O  -3.2553712857  0.6143026781 -1.1713764001
H  -2.9212310649  0.2427487970 -1.9998563805
O  -2.0273912208 -0.0594615038  1.2040374612
H  -1.2394103176 -0.2275038777  1.7387223534
O  -3.7762761717  1.9444539858  1.1488196110
H  -4.3807831962  2.6903462952  1.0056069403
O  -1.3147363699  2.5464324383  1.6159175999
H  -1.8771090194  2.9682669388  2.2785829716
H  -2.8533786149  3.2600043173 -1.7243143021
H  -4.0605337134  1.4366902587  1.9317561100
H  -4.2107628201  0.4368013347 -1.1087845211
H  -2.4110506965 -0.9218803562  0.9688143803
H  -0.2758506655  0.5985545885 -1.1669130355
H  -0.4025061943  2.5532266828  1.9380476180
N   3.0896161672  2.8291632569 -1.5773608673
H   3.2863564531  3.5219115927 -2.3084090863
H   3.3402480794  3.2413554640 -0.6770552697
H   3.6677805120  2.0017680595 -1.7357705995
23
Image 65  Energy = -756.7969020065
Al -2.1217049307  1.5592754726  0.1083543181
O  -0.6364583441  1.3974877727 -0.7298872008
H   2.1595270700  2.5745007544 -1.6182666041
O  -2.6352952462  3.2755866243 -0.7513147050
H  -2.1618959598  4.1117681904 -0.6034782291
O  -3.2661821995  0.6274583569 -1.1567410216
H  -2.9199766224  0.2518354608 -1.9811734589
O  -2.0512071861 -0.0700980371  1.2018109307
H  -1.2711059272 -0.2437498476  1.7581226433
O  -3.8140219525  1.9308075046  1.1288549922
H  -4.4240234542  2.6690044387  0.9808048117
O  -1.3569586025  2.5408261770  1.6279811050
H  -1.8880516944  2.9709190850  2.3173098179
H  -2.8535785909  3.2441347529 -1.6910095033
H  -4.0930621329  1.4163150425  1.9072162850
H  -4.2227525890  0.4408037996 -1.0928682288
H  -2.4455252755 -0.9227726190  0.9703199097
H  -0.2084027370  0.6000417527 -1.1359252939
H  -0.4212501403  2.5536669794  1.9144355452
N   3.1455408903  2.8434342151 -1.6188763443
H   3.3562696906  3.5353149189 -2.3457748472
H   3.4067944591  3.2526043478 -0.7195867589
H   3.7212783748  2.0029748298 -1.7790574853
23
Image 66  Energy = -756.7982746177
Al -2.1079975687  1.5643547479  0.0995284191
O  -0.6250189888  1.3877442734 -0.7525339895
H   2.1197290946  2.5645103025 -1.5929563983
O  -2.6239369311  3.2723767234 -0.7625584929
H  -2.1573774492  4.1108846492 -0.6099044560
O  -3.2625479952  0.6230476317 -1.1615563065
H  -2.9193742058  0.2492589683 -1.9894896858
O  -2.0351573625 -0.0648033357  1.2002979876
H  -1.2557205301 -0.2388332276  1.7520229048
O  -3.7894791684  1.9341053144  1.1338107666
H  -4.4000205090  2.6768758548  0.9895633310
O  -1.3318679663  2.5486187032  1.6122451710
H  -1.8659277723  2.9709173012  2.3020647994
H  -2.8509027152  3.2518867060 -1.7055924544
H  -4.0728973594  1.4260069971  1.9116352696
H  -4.2156904981  0.4415893894 -1.1015971949
H  -2.4259813450 -0.9217227696  0.9679185713
H  -0.2379018683  0.6009645362 -1.1495682603
H  -0.4047305823  2.5565967841  1.9028460185
N   3.1048059725  2.8348816819 -1.5909010091
H   3.3087431340  3.5259182731 -2.3217621034
H   3.3614378657  3.2450605505 -0.6911583231
H   3.6857716665  2.0018999323 -1.7511039519
23
Image 67  Energy = -756.7985193501
Al -2.1042540325  1.5682892435  0.0990163616
O  -0.6217969039  1.3860418476 -0.7556695184
H   2.1050301373  2.5610087794 -1.5850387141
O  -2.6227708547  3.2728423312 -0.7628508732
H  -2.1545074801  4.1100180123 -0.6126022615
O  -3.2612730162  0.6238805290 -1.1615235659
H  -2.9195298119  0.2497533798 -1.9901153293
O  -2.0304885581 -0.0634284524  1.1991113052
H  -1.2534971765 -0.2399436204  1.7523454800
O  -3.7814605110  1.9330646876  1.1313296456
H  -4.3932278256  2.6749853972  0.9902037169
O  -1.3236034728  2.5521169586  1.6037463853
H  -1.8520463394  2.9717726926  2.3007604507
H  -2.8496318067  3.2536963193 -1.7069401098
H  -4.0681289334  1.4281916307  1.9084106228
H  -4.2135575927  0.4433708790 -1.1039630349
H  -2.4203938827 -0.9211762416  0.9668086061
H  -0.2404046698  0.6008264022 -1.1514880360
H  -0.3973034668  2.5592809593  1.8870852517
N   3.0912390576  2.8314800251 -1.5809946348
H   3.2902313164  3.5216341342 -2.3141649474
H   3.3457852782  3.2428232920 -0.6801294436
H   3.6735474698  2.0016108079 -1.7420867805
23
Image 68  Energy = -756.7989578217
Al -2.1035080542  1.5745984281  0.1027126150
O  -0.6183045226  1.3867929491 -0.7506359248
H   2.0945984588  2.5602566826 -1.5821469718
O  -2.6258600849  3.2754703135 -0.7565899907
H  -2.1495636456  4.1076881673 -0.6145606731
O  -3.2607051536  0.6293694233 -1.1580803572
H  -2.9211221218  0.2526328260 -1.9859920769
O  -2.0294085691 -0.0633164804  1.1986432831
H  -1.2594492172 -0.2470572819  1.7575063435
O  -3.7764980062  1.9262056648  1.1220427136
H  -4.3919845678  2.6645313754  0.9852422814
O  -1.3189649557  2.5581634831  1.5942155802
H  -1.8288234079  2.9728352514  2.3065438685
H  -2.8491066060  3.2535698624 -1.7010539875
H  -4.0705596204  1.4269923564  1.8967022289
H  -4.2116009306  0.4479976941 -1.1052246092
H  -2.4189515180 -0.9207888887  0.9654084250
H  -0.2310336871  0.6042411006 -1.1431469846
H  -0.3874738449  2.5647716980  1.8509822985
N   3.0831070472  2.8281215109 -1.5728294424
H   3.2722132223  3.5158339336 -2.3110215690
H   3.3350670907  3.2414620177 -0.6699944483
H   3.6658896115  2.0017679034 -1.7374720736
23
Image 69  Energy = -756.7994686651
Al -2.1018141593  1.5783033580  0.1063082252
O  -0.6158849932  1.3945675634 -0.7361706044
H   2.0947725454  2.5646378994 -1.5853658630
O  -2.6305801687  3.2765906611 -0.7448948685
H  -2.1402928383  4.1056649905 -0.6120878333
O  -3.2588872639  0.6394426977 -1.1536106335
H  -2.9240209508  0.2575687554 -1.9771507173
O  -2.0356764521 -0.0653581215  1.2015732914
H  -1.2743443342 -0.2613433561  1.7703639965
O  -3.7800593458  1.9150141184  1.1068501189
H  -4.3971455981  2.6462001641  0.9703960204
O  -1.3138609101  2.5660438684  1.5827783877
H  -1.7999966770  2.9755988181  2.3250094539
H  -2.8531700330  3.2516473290 -1.6905521488
H  -4.0842027920  1.4150715425  1.8815997600
H  -4.2122800762  0.4562858412 -1.1051914626
H  -2.4243388830 -0.9212725307  0.9627858618
H  -0.2145140294  0.6154485730 -1.1168500489
H  -0.3731879227  2.5742859418  1.7918578476
N   3.0797867573  2.8286695584 -1.5687260514
H   3.2581669324  3.5083762452 -2.3134430762
H   3.3321023916  3.2395232092 -0.6651080317
H   3.6673856813  2.0011728572 -1.7391211417
23
Image 70  Energy = -756.7999686790
Al -2.1053332539  1.5788331755  0.1131081727
O  -0.6149094984  1.4095488922 -0.7136748491
H   2.1061383835  2.5725669690 -1.5967431811
O  -2.6354032986  3.2811474216 -0.7311805341
H  -2.1324231531  4.1002489121 -0.6056028083
O  -3.2626503521  0.6515629036 -1.1466863481
H  -2.9258281202  0.2622606389 -1.9679633228
O  -2.0475801486 -0.0705066586  1.2086725237
H  -1.2983590177 -0.2787759833  1.7871582331
O  -3.7937837320  1.8948014516  1.0957670123
H  -4.4136329801  2.6272629080  0.9477944110
O  -1.3209816300  2.5766694172  1.5824016449
H  -1.7703523962  2.9746178754  2.3453008767
H  -2.8607226631  3.2475984400 -1.6739800098
H  -4.1063347108  1.3978217432  1.8609714442
H  -4.2123706251  0.4669832321 -1.1023421953
H  -2.4384060260 -0.9227507971  0.9597711818
H  -0.1896927303  0.6292478679 -1.0787087869
H  -0.3594285902  2.5852993660  1.7281546128
N   3.0960084952  2.8278109292 -1.5758090126
H   3.2601683086  3.5052555289 -2.3254577177
H   3.3445569782  3.2399509805 -0.6700204946
H   3.6792776150  2.0046847564 -1.7496803963
23
Image 71  Energy = -756.8003477110
Al -2.1101876269  1.5749694992  0.1162904392
O  -0.6145745478  1.4174103580 -0.7075087067
H   2.1184545864  2.5759950889 -1.6032845985
O  -2.6342038921  3.2806038597 -0.7305958366
H  -2.1317854658  4.0988277098 -0.6004858303
O  -3.2629647400  0.6527251510 -1.1482146035
H  -2.9254566541  0.2624604435 -1.9666259191
O  -2.0544114943 -0.0739277434  1.2128512953
H  -1.3062770786 -0.2822191077  1.7925245538
O  -3.8051582124  1.8921121606  1.0958933467
H  -4.4210868056  2.6238732757  0.9399655590
O  -1.3223017323  2.5774057224  1.5886233286
H  -1.7699032976  2.9729065755  2.3511110622
H  -2.8657356047  3.2466769045 -1.6698748288
H  -4.1168591976  1.3880985906  1.8611183205
H  -4.2150325770  0.4695244362 -1.0997155245
H  -2.4465987550 -0.9234417495  0.9589962978
H  -0.1853791839  0.6341282783 -1.0642626905
H  -0.3636334022  2.5882258951  1.7209069734
N   3.1078385033  2.8301431250 -1.5851633019
H   3.2746315410  3.5089936831 -2.3335372183
H   3.3579731118  3.2411545163 -0.6799748324
H   3.6906093736  2.0054932906 -1.7577868147
23
Image 72  Energy = -756.8008756573
Al -2.1218209659  1.5687340777  0.1271769529
O  -0.6108824640  1.4358403008 -0.6916026115
H   2.1450906292  2.5828751705 -1.6172641265
O  -2.6313951506  3.2768198774 -0.7245487258
H  -2.1273950893  4.0956667779 -0.5880565400
O  -3.2660694939  0.6570717087 -1.1501483967
H  -2.9236624418  0.2623662477 -1.9654752153
O  -2.0716890993 -0.0812958307  1.2227712673
H  -1.3276645653 -0.2932559066  1.8090917791
O  -3.8301216756  1.8795049617  1.0959336416
H  -4.4407895242  2.6137688057  0.9184895621
O  -1.3282156963  2.5779362680  1.5939326182
H  -1.7595937399  2.9703799284  2.3710410068
H  -2.8796902477  3.2459671659 -1.6613834098
H  -4.1445358937  1.3640094344  1.8562750236
H  -4.2190647310  0.4784973916 -1.0937902321
H  -2.4672450122 -0.9260436891  0.9561328130
H  -0.1742672008  0.6501834620 -1.0225774820
H  -0.3647302433  2.5994866884  1.6916828204
N   3.1324317687  2.8361149539 -1.6059856138
H   3.3057253749  3.5171708888 -2.3519021074
H   3.3874041859  3.2435667060 -0.7024317254
H   3.7161380903  2.0067745545 -1.7761107954
23
Image 73  Energy = -756.8011553665
Al -2.1267892342  1.5678540035  0.1374117365
O  -0.6147107189  1.4529396840 -0.6756357670
H   2.1631587031  2.5852577137 -1.6270957087
O  -2.6286701224  3.2713541066 -0.7204989980
H  -2.1256524201  4.0902601029 -0.5794414545
O  -3.2664001474  0.6576853845 -1.1543407302
H  -2.9227606398  0.2610742836 -1.9673562046
O  -2.0848356102 -0.0866398485  1.2298415209
H  -1.3465668396 -0.3009042618  1.8220116835
O  -3.8476723134  1.8705678682  1.0965433274
H  -4.4546862454  2.6016289933  0.9067411243
O  -1.3319276736  2.5750755321  1.5962133565
H  -1.7463258204  2.9668861818  2.3848150571
H  -2.8911122351  3.2500224524 -1.6550417155
H  -4.1696716349  1.3487799339  1.8513216041
H  -4.2216242254  0.4857008557 -1.0907489568
H  -2.4832193778 -0.9284092632  0.9546377187
H  -0.1664675994  0.6596709965 -0.9890225098
H  -0.3694959541  2.6119092460  1.6723816098
N   3.1558074812  2.8385654548 -1.6248936115
H   3.3333634032  3.5252413429 -2.3653574494
H   3.4110758673  3.2468365835 -0.7209625456
H   3.7331401620  2.0107825995 -1.7902725752
23
Image 74  Energy = -756.8014458351
Al -2.1316980458  1.5693548143  0.1469680546
O  -0.6152641793  1.4618543105 -0.6631420017
H   2.1791258172  2.5872899704 -1.6353693659
O  -2.6278238510  3.2673274847 -0.7173197880
H  -2.1243424419  4.0836528579 -0.5731935586
O  -3.2665553620  0.6587046068 -1.1561133694
H  -2.9229127392  0.2595788485 -1.9700881492
O  -2.0960166820 -0.0908529098  1.2344449661
H  -1.3642376564 -0.3084001089  1.8338049813
O  -3.8580968210  1.8599129980  1.0961316729
H  -4.4670448227  2.5894762773  0.8985211252
O  -1.3361174994  2.5741288269  1.5992236561
H  -1.7289526666  2.9626191142  2.3947024302
H  -2.9002804341  3.2552473298 -1.6475626377
H  -4.1924664334  1.3384828940  1.8438142653
H  -4.2215325440  0.4923254061 -1.0902171610
H  -2.4955255260 -0.9298463341  0.9539698426
H  -0.1616606384  0.6721351320 -0.9571484039
H  -0.3711728966  2.6244676008  1.6509705687
N   3.1701572032  2.8421981516 -1.6375383084
H   3.3539691037  3.5307641088 -2.3760672782
H   3.4291922459  3.2493599604 -0.7352833927
H   3.7472136615  2.0123586073 -1.8022576394
23
Image 75  Energy = -756.8016178452
Al -2.1356376997  1.5715386054  0.1530032064
O  -0.6179221919  1.4679047804 -0.6524964712
H   2.1893781871  2.5886387857 -1.6415740440
O  -2.6296907957  3.2644170060 -0.7134016429
H  -2.1232688651  4.0781892698 -0.5699176311
O  -3.2648213090  0.6592366811 -1.1562196052
H  -2.9247312402  0.2585661959 -1.9723649046
O  -2.1028239450 -0.0922492392  1.2359259450
H  -1.3783281003 -0.3141546506  1.8424053182
O  -3.8613923290  1.8520481890  1.0941291623
H  -4.4750759052  2.5784463301  0.8958846387
O  -1.3364665089  2.5729563385  1.5992497064
H  -1.7139851260  2.9602936505  2.4036187755
H  -2.9065573630  3.2608867642 -1.6425486534
H  -4.2096821043  1.3338301723  1.8363155029
H  -4.2193955932  0.4967688083 -1.0927563644
H  -2.5028121179 -0.9308995098  0.9541786572
H  -0.1568342091  0.6783562663 -0.9345997277
H  -0.3711627499  2.6350572413  1.6323736515
N   3.1785336210  2.8451573081 -1.6440170410
H   3.3650807139  3.5327282427 -2.3824876852
H   3.4399207732  3.2513284352 -0.7429096275
H   3.7556316249  2.0130942760 -1.8105406667
23
Image 76  Energy = -756.8017277872
Al -2.1427999257  1.5717545125  0.1578828075
O  -0.6199567408  1.4704718174 -0.6416109737
H   2.2001118340  2.5910174545 -1.6504556882
O  -2.6363007844  3.2621808125 -0.7086345492
H  -2.1218761327  4.0724446384 -0.5660477905
O  -3.2598428307  0.6574334674 -1.1573303896
H  -2.9283913912  0.2579544691 -1.9747355866
O  -2.1097442313 -0.0935025551  1.2353784544
H  -1.3955130558 -0.3194118788  1.8522566371
O  -3.8657131505  1.8461024353  1.0928759231
H  -4.4825302635  2.5655840325  0.8962572013
O  -1.3365841468  2.5727053029  1.6032271188
H  -1.6977586036  2.9571751191  2.4136273620
H  -2.9142119833  3.2687584676 -1.6380505681
H  -4.2287880348  1.3294456795  1.8276681096
H  -4.2157028023  0.5005378961 -1.0992203950
H  -2.5099546911 -0.9313254530  0.9553936446
H  -0.1524903150  0.6844187404 -0.9084106178
H  -0.3691955763  2.6479736350  1.6120631322
N   3.1928034017  2.8457543521 -1.6515327676
H   3.3762452046  3.5339080570 -2.3900488157
H   3.4522682512  3.2546582055 -0.7488430793
H   3.7638827301  2.0161007430 -1.8204586995
23
Image 77  Energy = -756.8018501710
Al -2.1459307394  1.5701555866  0.1587968426
O  -0.6224256415  1.4732268093 -0.6361632033
H   2.2071098597  2.5931495733 -1.6553020258
O  -2.6405042724  3.2634069618 -0.7071217285
H  -2.1217004362  4.0694423522 -0.5638276566
O  -3.2585379637  0.6561239253 -1.1570602507
H  -2.9291045719  0.2573978754 -1.9769354124
O  -2.1123587648 -0.0941055388  1.2350703563
H  -1.4033257089 -0.3208052303  1.8567053576
O  -3.8683013173  1.8434968402  1.0935558265
H  -4.4866444772  2.5626986771  0.8959991552
O  -1.3343362251  2.5728422623  1.6057553723
H  -1.6923951029  2.9562565148  2.4194100541
H  -2.9178788631  3.2719162170 -1.6358717228
H  -4.2363517916  1.3262266416  1.8247642806
H  -4.2137363773  0.5018017516 -1.1029280605
H  -2.5134515593 -0.9317475591  0.9557677162
H  -0.1490807237  0.6837995728 -0.8976416919
H  -0.3696240829  2.6533601678  1.6035113183
N   3.1972663912  2.8479732709 -1.6537979751
H   3.3812998946  3.5340709381 -2.3939224685
H   3.4583429991  3.2557629293 -0.7518838954
H   3.7696262342  2.0156894184 -1.8256297325
23
Image 78  Energy = -756.8019529635
Al -2.1495778533  1.5672458662  0.1593302573
O  -0.6241684281  1.4743922451 -0.6315867664
H   2.2148630075  2.5959811391 -1.6611159850
O  -2.6463641422  3.2652043741 -0.7052411030
H  -2.1215370724  4.0670186855 -0.5608014484
O  -3.2568038323  0.6533191016 -1.1578263011
H  -2.9290217703  0.2569684811 -1.9795710867
O  -2.1151220952 -0.0949528518  1.2344407089
H  -1.4111755956 -0.3210205959  1.8616644537
O  -3.8727846429  1.8424951854  1.0952788110
H  -4.4908332126  2.5618598197  0.8958040437
O  -1.3328011293  2.5725895057  1.6093053244
H  -1.6888336748  2.9555249286  2.4261928784
H  -2.9223845721  3.2751589921 -1.6346995721
H  -4.2434323847  1.3212648335  1.8234518640
H  -4.2126086088  0.5024770755 -1.1073929912
H  -2.5175677949 -0.9324027669  0.9560328391
H  -0.1463783401  0.6829427504 -0.8862655106
H  -0.3696896336  2.6588735249  1.5966812275
N   3.2045120657  2.8497437555 -1.6573167217
H   3.3875157286  3.5344566744 -2.3984855936
H   3.4658236926  3.2570471722 -0.7552650104
H   3.7763270520  2.0159520652 -1.8313638749
23
Image 79  Energy = -756.8021196815
Al -2.1571897757  1.5621354619  0.1615728819
O  -0.6276990374  1.4750728547 -0.6220409137
H   2.2325281901  2.6025702619 -1.6742827718
O  -2.6607873048  3.2686515744 -0.7004977668
H  -2.1215385405  4.0617314148 -0.5537943897
O  -3.2538966989  0.6457581458 -1.1601952982
H  -2.9272221779  0.2560241081 -1.9863648287
O  -2.1218521106 -0.0974012416  1.2327714568
H  -1.4288233408 -0.3204972309  1.8735705523
O  -3.8833651336  1.8401817919  1.0998343132
H  -4.5002454911  2.5612286603  0.8960353366
O  -1.3322965682  2.5714984703  1.6178739850
H  -1.6798824832  2.9533305773  2.4404543203
H  -2.9328039908  3.2829716895 -1.6318116669
H  -4.2586543970  1.3100365530  1.8202871798
H  -4.2107791652  0.5036789977 -1.1180535179
H  -2.5270761020 -0.9341152964  0.9565009187
H  -0.1411058237  0.6814241838 -0.8600076271
H  -0.3691905639  2.6718619404  1.5821340654
N   3.2222551629  2.8529939711 -1.6662197402
H   3.4024034769  3.5358709499 -2.4090787851
H   3.4834049587  3.2597377937 -0.7634173280
H   3.7917737017  2.0173943386 -1.8440199537
23
Image 80  Energy = -756.8021817145
Al -2.1691891452  1.5586809010  0.1684471541
O  -0.6319844765  1.4701046570 -0.6100136631
H   2.2617293754  2.6131287501 -1.6945543298
O  -2.6835023367  3.2751283655 -0.6913712232
H  -2.1256231416  4.0504975925 -0.5432586700
O  -3.2497180201  0.6305132525 -1.1667183527
H  -2.9205299314  0.2555558548 -1.9972878211
O  -2.1317014819 -0.1022766372  1.2315063875
H  -1.4583407465 -0.3164723184  1.8925455997
O  -3.8997990505  1.8387418597  1.1053906627
H  -4.5129181849  2.5611522930  0.9005481616
O  -1.3276106865  2.5683134879  1.6292280782
H  -1.6640985925  2.9493808817  2.4614510245
H  -2.9494785706  3.2964938226 -1.6253970118
H  -4.2809678826  1.2931702084  1.8152731286
H  -4.2116048343  0.5039362621 -1.1370519125
H  -2.5420717667 -0.9381521087  0.9568019909
H  -0.1358866659  0.6807467292 -0.8175680310
H  -0.3779009490  2.6923258982  1.5623436590
N   3.2502288755  2.8587498527 -1.6817708169
H   3.4284939767  3.5397157541 -2.4260690253
H   3.5124053534  3.2627611621 -0.7783482772
H   3.8180256548  2.0199434676 -1.8628763407
23
Image 81  Energy = -756.8023797294
Al -2.1704613184  1.5589420289  0.1699159465
O  -0.6348692980  1.4712853667 -0.6070864635
H   2.2660130749  2.6144807078 -1.6977426785
O  -2.6877217786  3.2738494778 -0.6895942955
H  -2.1257069803  4.0497853281 -0.5412803031
O  -3.2502367803  0.6282297540 -1.1671459462
H  -2.9188220574  0.2553418787 -1.9995715656
O  -2.1347004821 -0.1030761585  1.2307384626
H  -1.4632773494 -0.3161681131  1.8967822908
O  -3.9018320167  1.8370903224  1.1064125122
H  -4.5154427219  2.5609380165  0.9017323334
O  -1.3322223710  2.5673419399  1.6317372116
H  -1.6596860241  2.9480335255  2.4636469867
H  -2.9524745725  3.2991140761 -1.6237616545
H  -4.2849361835  1.2911954810  1.8132460621
H  -4.2111697655  0.5040465784 -1.1406430438
H  -2.5444307932 -0.9386956320  0.9569922362
H  -0.1340183591  0.6792534684 -0.8100904447
H  -0.3757397362  2.6966929113  1.5583224526
N   3.2563469679  2.8589422008 -1.6853492649
H   3.4336786976  3.5408394614 -2.4290072597
H   3.5175737569  3.2633536839 -0.7811673951
H   3.8220928590  2.0213236863 -1.8658358155
23
Image 82  Energy = -756.8024927906
Al -2.1682848688  1.5622594833  0.1708399613
O  -0.6357588843  1.4699403934 -0.6100797528
H   2.2626910907  2.6129336512 -1.6947354369
O  -2.6853266237  3.2712551775 -0.6894632282
H  -2.1271535115  4.0512020548 -0.5424150891
O  -3.2524873468  0.6282254668 -1.1672713007
H  -2.9163131115  0.2559970999 -1.9987263316
O  -2.1343522530 -0.1028904086  1.2311713949
H  -1.4603265417 -0.3146656699  1.8955655453
O  -3.8991486850  1.8374805168  1.1052192785
H  -4.5128277717  2.5624579836  0.9042682896
O  -1.3359483950  2.5662866564  1.6293630733
H  -1.6600831599  2.9478161031  2.4591259234
H  -2.9509349838  3.2981793801 -1.6231635628
H  -4.2805337436  1.2944511875  1.8131392224
H  -4.2128366472  0.5026786730 -1.1403892235
H  -2.5422676345 -0.9389718046  0.9567852282
H  -0.1359387931  0.6786990625 -0.8148694842
H  -0.3767493481  2.6946076132  1.5629953760
N   3.2543349131  2.8578592041 -1.6853616495
H   3.4331512364  3.5419598111 -2.4272185365
H   3.5151576770  3.2622696747 -0.7809503794
H   3.8198941374  2.0221086774 -1.8625789524
23
Image 83  Energy = -756.8026284221
Al -2.1727608890  1.5638612670  0.1750233859
O  -0.6416375059  1.4675530913 -0.6075508744
H   2.2748906472  2.6164193094 -1.7018065226
O  -2.6937477980  3.2701030435 -0.6842715082
H  -2.1318260392  4.0478918299 -0.5376153332
O  -3.2534487264  0.6205715938 -1.1699989922
H  -2.9087996936  0.2570143508 -2.0028669120
O  -2.1404480016 -0.1046723698  1.2310933847
H  -1.4727719463 -0.3105061453  1.9049833670
O  -3.9036876075  1.8370241298  1.1059493119
H  -4.5158825224  2.5648055601  0.9113636447
O  -1.3402845733  2.5628926138  1.6316723759
H  -1.6529439279  2.9454213907  2.4647287941
H  -2.9584717949  3.3037695525 -1.6179753653
H  -4.2863813162  1.2901284356  1.8099665179
H  -4.2155449843  0.5001306722 -1.1518234307
H  -2.5469221384 -0.9416304672  0.9568278803
H  -0.1350903652  0.6757233445 -0.7983431839
H  -0.3817705968  2.7025745049  1.5586388792
N   3.2666914048  2.8603394527 -1.6941225724
H   3.4482095693  3.5460887779 -2.4343312949
H   3.5283807664  3.2624291909 -0.7895639507
H   3.8322047541  2.0242068663 -1.8687272670
23
Image 84  Energy = -756.8028784466
Al -2.1847604044  1.5618779690  0.1790543953
O  -0.6529681493  1.4617046728 -0.6056604460
H   2.2975720752  2.6222792431 -1.7154189508
O  -2.7058744766  3.2676505387 -0.6749325486
H  -2.1422443528  4.0433483574 -0.5270048513
O  -3.2570035328  0.6082097893 -1.1730477844
H  -2.8948474119  0.2604786017 -2.0070056322
O  -2.1520819991 -0.1066285786  1.2334984099
H  -1.4985979224 -0.3025776009  1.9215578091
O  -3.9107521392  1.8349742552  1.1070798997
H  -4.5204546936  2.5709556218  0.9270396449
O  -1.3469237103  2.5593527466  1.6376110935
H  -1.6438223339  2.9402755659  2.4740012427
H  -2.9740729716  3.3117081315 -1.6069910559
H  -4.2950549464  1.2836577251  1.8031609413
H  -4.2177795895  0.4932253217 -1.1768841663
H  -2.5533498119 -0.9464888422  0.9573610753
H  -0.1366780218  0.6723053711 -0.7674015841
H  -0.3921044750  2.7144344023  1.5502654071
N   3.2919013122  2.8649324490 -1.7112624488
H   3.4786366590  3.5540585842 -2.4475683332
H   3.5537220068  3.2636429383 -0.8054157709
H   3.8554955268  2.0287627461 -1.8807860585
23
Image 85  Energy = -756.8032228523
Al -2.2099144527  1.5546652003  0.1847652078
O  -0.6802563574  1.4533310886 -0.6029609307
H   2.3452155495  2.6339867049 -1.7433088513
O  -2.7266351296  3.2611301811 -0.6569920947
H  -2.1635214097  4.0368318280 -0.5042811519
O  -3.2597480173  0.5859292922 -1.1793191278
H  -2.8676677388  0.2692406533 -2.0103241517
O  -2.1792056858 -0.1099301491  1.2374097006
H  -1.5490880642 -0.2877962038  1.9564142420
O  -3.9252475965  1.8348574533  1.1059043267
H  -4.5257411969  2.5815263431  0.9605154534
O  -1.3598085688  2.5525113212  1.6458790056
H  -1.6305395640  2.9308955915  2.4943178213
H  -3.0063771191  3.3250335983 -1.5842126242
H  -4.3117134410  1.2698691005  1.7916939329
H  -4.2251723006  0.4771898795 -1.2290148614
H  -2.5633065016 -0.9548245943  0.9593074664
H  -0.1399540203  0.6639381422 -0.7070745395
H  -0.4119454196  2.7351019160  1.5334894203
N   3.3405553745  2.8752021952 -1.7439063538
H   3.5407855721  3.5697524750 -2.4740346796
H   3.6043124968  3.2668901976 -0.8369713964
H   3.9029300865  2.0368078247 -1.9060456100
23
Image 86  Energy = -756.8035538000
Al -2.2193076582  1.5482970152  0.1825962792
O  -0.6910274944  1.4481188923 -0.6071798245
H   2.3627713483  2.6377181570 -1.7532432397
O  -2.7264700839  3.2586573634 -0.6534375805
H  -2.1727196221  4.0382778736 -0.4947248109
O  -3.2652511869  0.5831684055 -1.1789422102
H  -2.8566970946  0.2738796267 -2.0064268045
O  -2.1878647310 -0.1076664049  1.2440597049
H  -1.5665518803 -0.2825376789  1.9652052080
O  -3.9287825265  1.8336693614  1.1056517415
H  -4.5235347045  2.5891458754  0.9741796504
O  -1.3646575832  2.5527417926  1.6463987017
H  -1.6351889097  2.9274930565  2.4985370167
H  -3.0182471290  3.3241294178 -1.5752511160
H  -4.3118157850  1.2670832905  1.7889494824
H  -4.2243387792  0.4685262606 -1.2487509102
H  -2.5624616197 -0.9590485678  0.9598733244
H  -0.1464849688  0.6648386579 -0.6918397720
H  -0.4181085828  2.7348234396  1.5299197670
N   3.3546098274  2.8806983929 -1.7516782919
H   3.5613517132  3.5732580005 -2.4812569627
H   3.6196780780  3.2692907644 -0.8457802497
H   3.9190557986  2.0375770497 -1.9156089274
23
Image 87  Energy = -756.8038504369
Al -2.2286430247  1.5404826449  0.1786451760
O  -0.7027965696  1.4444085831 -0.6132130289
H   2.3775762853  2.6411408347 -1.7632343838
O  -2.7228369873  3.2564761615 -0.6507494234
H  -2.1815946180  4.0416475709 -0.4850234326
O  -3.2679563124  0.5833759219 -1.1789302090
H  -2.8471587653  0.2793212469 -1.9986745265
O  -2.1986214694 -0.1065015206  1.2498203976
H  -1.5810588035 -0.2785028637  1.9740253237
O  -3.9320158758  1.8335419387  1.1048265072
H  -4.5191370104  2.5969832973  0.9871197170
O  -1.3674578394  2.5552603948  1.6471260715
H  -1.6443106844  2.9237997131  2.5003969211
H  -3.0299477283  3.3206745342 -1.5678367748
H  -4.3105760775  1.2639176604  1.7884241204
H  -4.2245670916  0.4590036765 -1.2673836027
H  -2.5585106793 -0.9607931026  0.9612453710
H  -0.1532161894  0.6658831805 -0.6805346798
H  -0.4241951442  2.7305596424  1.5268349761
N   3.3712101568  2.8829494603 -1.7584194302
H   3.5789979172  3.5752592806 -2.4872562057
H   3.6329440152  3.2731787232 -0.8510446342
H   3.9318288542  2.0400730656 -1.9249140914
23
Image 88  Energy = -756.8040308582
Al -2.2426517100  1.5339819452  0.1776190771
O  -0.7220137290  1.4404503112 -0.6200489413
H   2.4046288370  2.6487420432 -1.7816959030
O  -2.7244982250  3.2528149283 -0.6458839246
H  -2.1943912045  4.0458633999 -0.4701023886
O  -3.2734262963  0.5815309331 -1.1796510544
H  -2.8294078802  0.2854766950 -1.9930873115
O  -2.2153603004 -0.1056613323  1.2577854813
H  -1.6055866890 -0.2715489639  1.9913316093
O  -3.9399677513  1.8325456921  1.1060969197
H  -4.5149368077  2.6086329869  1.0057716678
O  -1.3770492918  2.5554802104  1.6496314806
H  -1.6535084233  2.9176330485  2.5047428684
H  -3.0486780248  3.3192741776 -1.5564192183
H  -4.3132260527  1.2561609576  1.7876464426
H  -4.2255992378  0.4459384577 -1.2952450499
H  -2.5562469916 -0.9656276446  0.9623201654
H  -0.1584342001  0.6637147470 -0.6586948210
H  -0.4303016938  2.7289574400  1.5198346771
N   3.3989799290  2.8870682062 -1.7696620314
H   3.6075597726  3.5784457560 -2.4990815293
H   3.6567132076  3.2788379683 -0.8605902428
H   3.9553590218  2.0434280830 -1.9413678543
23
Image 89  Energy = -756.8041874127
Al -2.2487354598  1.5350260770  0.1796799347
O  -0.7290706563  1.4355532851 -0.6257937422
H   2.4182063668  2.6534965884 -1.7923184474
O  -2.7241411046  3.2523844851 -0.6443002218
H  -2.2018308435  4.0489463748 -0.4637460577
O  -3.2745062773  0.5828580463 -1.1836924927
H  -2.8202824495  0.2887320730 -1.9873733448
O  -2.2241778753 -0.1066021701  1.2626757159
H  -1.6155140572 -0.2685578228  2.0003404784
O  -3.9453183791  1.8327978219  1.1082929744
H  -4.5104727457  2.6140865912  1.0138485973
O  -1.3806141721  2.5546383927  1.6472728306
H  -1.6620534842  2.9149652065  2.5052324667
H  -3.0572621293  3.3176460202 -1.5525474909
H  -4.3147193641  1.2515430196  1.7901826862
H  -4.2272436292  0.4392460217 -1.3056407924
H  -2.5532190417 -0.9676072615  0.9626041134
H  -0.1618801206  0.6657945814 -0.6524006806
H  -0.4343174601  2.7243175002  1.5183345487
N   3.4132199905  2.8884917893 -1.7728962078
H   3.6183670349  3.5778223761 -2.5042185609
H   3.6669305270  3.2821856061 -0.8623739794
H   3.9665915313  2.0443754354 -1.9499122304
23
Image 90  Energy = -756.8043003337
Al -2.2527396910  1.5380718042  0.1832140435
O  -0.7360521123  1.4323998305 -0.6281094967
H   2.4304776581  2.6577555940 -1.8015558053
O  -2.7277121780  3.2526132432 -0.6418707607
H  -2.2088118713  4.0496769759 -0.4594034043
O  -3.2763710379  0.5824143702 -1.1872531297
H  -2.8115431319  0.2903174644 -1.9861119899
O  -2.2306225456 -0.1079038872  1.2668304617
H  -1.6258888805 -0.2655177251  2.0085898801
O  -3.9497834790  1.8313930877  1.1113180445
H  -4.5093649340  2.6180936540  1.0206606921
O  -1.3841027030  2.5528766013  1.6470920000
H  -1.6648956354  2.9120046055  2.5049992031
H  -3.0642702237  3.3191166111 -1.5489503115
H  -4.3187284778  1.2478160277  1.7911427427
H  -4.2282339999  0.4347452441 -1.3138660918
H  -2.5527552999 -0.9702189487  0.9623958370
H  -0.1620265565  0.6655108906 -0.6446814118
H  -0.4394207381  2.7231389246  1.5168601494
N   3.4263309665  2.8899662785 -1.7777462502
H   3.6292687578  3.5785117008 -2.5096877449
H   3.6773276724  3.2838658531 -0.8658346353
H   3.9778745927  2.0454918306 -1.9567819433
23
Image 91  Energy = -756.8044460236
Al -2.2594044419  1.5438438860  0.1900661438
O  -0.7492719013  1.4227210394 -0.6313653786
H   2.4568580923  2.6661100803 -1.8207681512
O  -2.7398665141  3.2523466419 -0.6372604273
H  -2.2247328506  4.0540562147 -0.4521392474
O  -3.2791138361  0.5847894953 -1.1940996216
H  -2.7936088437  0.2927853335 -1.9836617776
O  -2.2439675563 -0.1099497541  1.2756339125
H  -1.6481130750 -0.2602451403  2.0263527412
O  -3.9580830573  1.8298548498  1.1180843503
H  -4.5074493670  2.6231134430  1.0360085687
O  -1.3954173906  2.5474320844  1.6467456336
H  -1.6710750694  2.9054682974  2.5019452507
H  -3.0777579638  3.3237033638 -1.5417353301
H  -4.3308520443  1.2408917086  1.7948556579
H  -4.2283763799  0.4254531549 -1.3289258921
H  -2.5505262543 -0.9756394674  0.9620997559
H  -0.1628568996  0.6684112171 -0.6312521126
H  -0.4483319889  2.7197133991  1.5154589809
N   3.4530693536  2.8928989058 -1.7889019278
H   3.6537578973  3.5813091337 -2.5216634036
H   3.6996336467  3.2854801075 -0.8745820862
H   4.0034425064  2.0475920261 -1.9696456220
23
Image 92  Energy = -756.8045806037
Al -2.2628059581  1.5454486226  0.1928892071
O  -0.7584538523  1.4192408967 -0.6318403900
H   2.4718183376  2.6698282807 -1.8311926343
O  -2.7474185859  3.2546639037 -0.6329285401
H  -2.2366487995  4.0561034344 -0.4498652985
O  -3.2793477502  0.5882893551 -1.1980811812
H  -2.7846696077  0.2939816810 -1.9812963002
O  -2.2509519008 -0.1104073580  1.2808987304
H  -1.6613609569 -0.2580906158  2.0363154058
O  -3.9618413865  1.8265420565  1.1245818133
H  -4.5079697978  2.6251359751  1.0453232533
O  -1.3998838680  2.5427131277  1.6432187978
H  -1.6762517719  2.9028318120  2.5014910063
H  -3.0852544437  3.3270969742 -1.5394668833
H  -4.3391227592  1.2395802705  1.7960056336
H  -4.2264484207  0.4203243784 -1.3358801947
H  -2.5482457029 -0.9786179130  0.9620891968
H  -0.1609023867  0.6688541049 -0.6259874229
H  -0.4552415910  2.7162993934  1.5164256573
N   3.4676789070  2.8951522699 -1.7963960319
H   3.6693211426  3.5838027322 -2.5283613091
H   3.7125927600  3.2848745544 -0.8809880784
H   4.0193644080  2.0484920806 -1.9757044638
23
Image 93  Energy = -756.8047276954
Al -2.2626037561  1.5442280970  0.1925917895
O  -0.7590570998  1.4181888652 -0.6300423635
H   2.4739637356  2.6689707103 -1.8325033499
O  -2.7528638040  3.2571139437 -0.6320620920
H  -2.2419394961  4.0581173679 -0.4523916393
O  -3.2773753336  0.5930791488 -1.1987973463
H  -2.7846695401  0.2933248699 -1.9801755034
O  -2.2513240431 -0.1103380735  1.2818872626
H  -1.6641518941 -0.2592367030  2.0381420563
O  -3.9611220755  1.8257556698  1.1280982978
H  -4.5096478085  2.6221146392  1.0475646326
O  -1.4012124352  2.5405166132  1.6421576443
H  -1.6786402030  2.9023152104  2.4987174836
H  -3.0852206855  3.3291579023 -1.5406181288
H  -4.3446375435  1.2414634168  1.7973626859
H  -4.2229973516  0.4199747508 -1.3333074130
H  -2.5459851990 -0.9784659343  0.9623990611
H  -0.1587246758  0.6705642724 -0.6297435136
H  -0.4571067566  2.7133640730  1.5192418282
N   3.4703231322  2.8949707926 -1.7995753628
H   3.6740109662  3.5855841184 -2.5294840894
H   3.7151072437  3.2824456788 -0.8836517635
H   4.0238306390  2.0489305845 -1.9745602245
23
Image 94  Energy = -756.8049208739
Al -2.2769455348  1.5345469521  0.1919387031
O  -0.7728538562  1.4141577182 -0.6317348379
H   2.5076322803  2.6699436959 -1.8558925493
O  -2.7799730903  3.2646835418 -0.6274484496
H  -2.2774758651  4.0782316483 -0.4510571776
O  -3.2703892169  0.6206465607 -1.2003670278
H  -2.7685556954  0.2941574108 -1.9703145794
O  -2.2659724359 -0.1082377484  1.2926582197
H  -1.6927186470 -0.2601473222  2.0628117508
O  -3.9655362440  1.8225446085  1.1486336565
H  -4.5138022561  2.6199740185  1.0688961239
O  -1.4158960085  2.5303782221  1.6382806811
H  -1.7078550136  2.8962789959  2.4888521535
H  -3.1006552970  3.3336627614 -1.5407413848
H  -4.3726707589  1.2401704166  1.8085992497
H  -4.2100513620  0.4075915439 -1.3374235954
H  -2.5314147986 -0.9840051697  0.9630279610
H  -0.1497479419  0.6767820895 -0.6390574324
H  -0.4647879550  2.6918255681  1.5277909145
N   3.5045349526  2.8963331355 -1.8187763397
H   3.7166612933  3.5928066340 -2.5426319755
H   3.7434927454  3.2775500710 -0.8998010212
H   4.0629366192  2.0522646332 -1.9849932138
23
Image 95  Energy = -756.8050571011
Al -2.2789026663  1.5338893890  0.1923270721
O  -0.7687521726  1.4098580225 -0.6322753542
H   2.5142015344  2.6687237094 -1.8604093995
O  -2.7832107125  3.2693657050 -0.6266424428
H  -2.2865770955  4.0791914476 -0.4505513069
O  -3.2713384483  0.6216961571 -1.2052633097
H  -2.7669428969  0.2961711638 -1.9656081984
O  -2.2668560748 -0.1119907141  1.2951217911
H  -1.6992188917 -0.2591492567  2.0657784620
O  -3.9694489193  1.8233758862  1.1540253477
H  -4.5149107104  2.6191034331  1.0713453434
O  -1.4160586150  2.5295993012  1.6393982309
H  -1.7139911323  2.8953922287  2.4871294396
H  -3.1040558103  3.3333494111 -1.5410904668
H  -4.3767786117  1.2393498584  1.8098936640
H  -4.2056025567  0.4068353928 -1.3357581182
H  -2.5285155829 -0.9834451973  0.9633171767
H  -0.1523259590  0.6834264773 -0.6418745025
H  -0.4679478787  2.6871740341  1.5297462684
N   3.5106957239  2.8967621318 -1.8222132026
H   3.7256486111  3.5934301261 -2.5444234539
H   3.7486956265  3.2773339888 -0.9026528451
H   4.0701491221  2.0526972893 -1.9880703838
23
Image 96  Energy = -756.8051331528
Al -2.2758761763  1.5349994192  0.1916846592
O  -0.7683504196  1.4133608869 -0.6318515626
H   2.5077793250  2.6680179866 -1.8560966641
O  -2.7787562538  3.2665139796 -0.6285166906
H  -2.2796434465  4.0772911525 -0.4503219691
O  -3.2720907178  0.6178418242 -1.2032134265
H  -2.7695682489  0.2957791753 -1.9679611540
O  -2.2642941131 -0.1115025880  1.2925358621
H  -1.6934196776 -0.2592089807  2.0616769125
O  -3.9679942355  1.8243567168  1.1497882205
H  -4.5144806125  2.6198777267  1.0672340134
O  -1.4144204411  2.5317492690  1.6408537362
H  -1.7095136656  2.8964764381  2.4884197567
H  -3.1011718550  3.3318607029 -1.5407545784
H  -4.3716062666  1.2391649283  1.8084747682
H  -4.2088121152  0.4087661192 -1.3348498474
H  -2.5308716086 -0.9830282793  0.9630506000
H  -0.1523554206  0.6804592908 -0.6412135739
H  -0.4652954169  2.6905612641  1.5283688197
N   3.5047112187  2.8960125250 -1.8185392086
H   3.7180799358  3.5919837896 -2.5417767995
H   3.7432515930  3.2784547209 -0.8994589306
H   4.0626545213  2.0523519216 -1.9862831070
23
Image 97  Energy = -756.8051603843
Al -2.2750471761  1.5354111749  0.1915532957
O  -0.7682762477  1.4145166637 -0.6316485529
H   2.5081922570  2.6672068562 -1.8564246951
O  -2.7786672623  3.2660145629 -0.6288748078
H  -2.2804592459  4.0777900298 -0.4497474987
O  -3.2721958159  0.6175475933 -1.2027390498
H  -2.7692369404  0.2960761449 -1.9680406712
O  -2.2639193392 -0.1117081019  1.2920215259
H  -1.6935740501 -0.2588811052  2.0619547446
O  -3.9682971700  1.8248580118  1.1498547483
H  -4.5152309402  2.6202835717  1.0667359724
O  -1.4146589164  2.5318427832  1.6414610979
H  -1.7103415742  2.8967168290  2.4884682997
H  -3.1015914119  3.3310897637 -1.5407239242
H  -4.3713594791  1.2386008870  1.8086409128
H  -4.2095641617  0.4087887969 -1.3341922952
H  -2.5307297968 -0.9836349559  0.9628085501
H  -0.1524261254  0.6808135687 -0.6422209722
H  -0.4651425965  2.6900486281  1.5288852234
N   3.5051256488  2.8957839179 -1.8184920344
H   3.7190828002  3.5917172017 -2.5415828510
H   3.7433835595  3.2788299244 -0.8994505054
H   4.0628898847  2.0524272426 -1.9869966760
