23
Image 0  Energy = -756.8051603843
Al -2.2750471761  1.5354111749  0.1915532957
O  -0.7682762477  1.4145166637 -0.6316485529
H   2.5081922570  2.6672068562 -1.8564246951
O  -2.7786672623  3.2660145629 -0.6288748078
H  -2.2804592459  4.0777900298 -0.4497474987
O  -3.2721958159  0.6175475933 -1.2027390498
H  -2.7692369404  0.2960761449 -1.9680406712
O  -2.2639193392 -0.1117081019  1.2920215259
H  -1.6935740501 -0.2588811052  2.0619547446
O  -3.9682971700  1.8248580118  1.1498547483
H  -4.5152309402  2.6202835717  1.0667359724
O  -1.4146589164  2.5318427832  1.6414610979
H  -1.7103415742  2.8967168290  2.4884682997
H  -3.1015914119  3.3310897637 -1.5407239242
H  -4.3713594791  1.2386008870  1.8086409128
H  -4.2095641617  0.4087887969 -1.3341922952
H  -2.5307297968 -0.9836349559  0.9628085501
H  -0.1524261254  0.6808135687 -0.6422209722
H  -0.4651425965  2.6900486281  1.5288852234
N   3.5051256488  2.8957839179 -1.8184920344
H   3.7190828002  3.5917172017 -2.5415828510
H   3.7433835595  3.2788299244 -0.8994505054
H   4.0628898847  2.0524272426 -1.9869966760
