22
Frame 1: 1
C   -0.7781   -1.0676   0.3211
C   1.3026   0.0521   -0.0283
C   -0.9720   1.4562   0.8237
C   1.9812   -0.4184   1.2502
C   2.2640   0.4352   -1.1331
N   0.2912   -0.8768   -0.5004
N   -2.0192   -1.3720   -0.2331
O   -1.6647   1.6302   -0.4018
H   -2.2586   0.8701   -0.4759
H   0.0278   -0.6783   -1.4585
H   -0.6098   -1.3679   1.3412
H   0.6813   0.9183   0.2869
H   -2.5733   -2.0574   0.2574
H   -2.0524   -1.5045   -1.2338
H   -0.3690   2.3514   0.9917
H   -1.6396   1.2942   1.6747
H   2.7644   0.2915   1.5228
H   1.7251   0.7307   -2.0378
H   2.4356   -1.4061   1.1342
H   1.2730   -0.4472   2.0806
H   2.8503   1.2987   -0.8143
H   2.9600   -0.3688   -1.3889
22
Frame 2: 2
C   -0.7848   -1.0822   0.2918
C   1.3082   0.0717   -0.0114
C   -0.9680   1.4520   0.7960
C   1.9810   -0.4208   1.2486
C   2.2643   0.4370   -1.1332
N   0.2696   -0.9046   -0.4937
N   -2.0023   -1.3544   -0.2178
O   -1.6552   1.6267   -0.3902
H   -2.2513   0.8692   -0.4708
H   0.0210   -0.6743   -1.4692
H   -0.6104   -1.3541   1.3502
H   0.6713   0.9325   0.2964
H   -2.5751   -2.0619   0.2665
H   -2.0514   -1.5073   -1.2505
H   -0.3702   2.3519   0.9909
H   -1.6350   1.2843   1.6801
H   2.7666   0.2922   1.5238
H   1.7249   0.7306   -2.0393
H   2.4361   -1.4066   1.1333
H   1.2697   -0.4470   2.0786
H   2.8521   1.2993   -0.8142
H   2.9578   -0.3709   -1.3875
22
Frame 3: 3
C   -0.7860   -1.1089   0.2841
C   1.2999   0.0824   0.0006
C   -0.9650   1.4557   0.7872
C   1.9902   -0.4173   1.2530
C   2.2629   0.4396   -1.1312
N   0.2698   -0.9203   -0.5040
N   -2.0115   -1.3501   -0.2210
O   -1.6484   1.6229   -0.3881
H   -2.2421   0.8680   -0.4651
H   0.0138   -0.6719   -1.4714
H   -0.6133   -1.3319   1.3490
H   0.6614   0.9483   0.3065
H   -2.5671   -2.0572   0.2746
H   -2.0482   -1.5071   -1.2522
H   -0.3721   2.3490   0.9878
H   -1.6223   1.2711   1.6781
H   2.7682   0.2915   1.5253
H   1.7244   0.7305   -2.0406
H   2.4366   -1.4079   1.1311
H   1.2664   -0.4472   2.0759
H   2.8553   1.3005   -0.8147
H   2.9541   -0.3736   -1.3849
22
Frame 4: 4
C   -0.7824   -1.1931   0.2503
C   1.2734   0.1051   0.0220
C   -0.9580   1.4705   0.7827
C   1.9986   -0.4123   1.2643
C   2.2529   0.4482   -1.1194
N   0.2784   -0.9576   -0.5194
N   -2.0391   -1.3345   -0.2324
O   -1.6283   1.6166   -0.3956
H   -2.2176   0.8569   -0.4486
H   -0.0104   -0.6630   -1.4788
H   -0.6234   -1.2611   1.3432
H   0.6321   0.9903   0.3359
H   -2.5616   -2.0504   0.2970
H   -2.0394   -1.5081   -1.2541
H   -0.3737   2.3448   0.9777
H   -1.5759   1.2257   1.6661
H   2.7818   0.2958   1.5342
H   1.7234   0.7300   -2.0427
H   2.4383   -1.4096   1.1231
H   1.2620   -0.4482   2.0677
H   2.8660   1.3045   -0.8175
H   2.9389   -0.3811   -1.3737
22
Frame 5: 5
C   -0.7787   -1.2181   0.2437
C   1.2659   0.1063   0.0222
C   -0.9622   1.4808   0.7848
C   1.9976   -0.4088   1.2632
C   2.2473   0.4511   -1.1146
N   0.2842   -0.9589   -0.5260
N   -2.0461   -1.3335   -0.2310
O   -1.6221   1.6125   -0.4018
H   -2.2101   0.8509   -0.4451
H   -0.0172   -0.6616   -1.4738
H   -0.6288   -1.2381   1.3331
H   0.6281   0.9923   0.3410
H   -2.5635   -2.0462   0.2987
H   -2.0393   -1.5113   -1.2542
H   -0.3678   2.3524   0.9768
H   -1.5582   1.2055   1.6627
H   2.7863   0.2970   1.5385
H   1.7235   0.7300   -2.0407
H   2.4377   -1.4069   1.1196
H   1.2620   -0.4496   2.0699
H   2.8691   1.3051   -0.8190
H   2.9286   -0.3813   -1.3661
22
Frame 6: 6
C   -0.7673   -1.2564   0.2280
C   1.2552   0.1039   0.0173
C   -0.9629   1.5081   0.7846
C   1.9899   -0.4015   1.2595
C   2.2357   0.4583   -1.1048
N   0.2912   -0.9565   -0.5298
N   -2.0495   -1.3340   -0.2317
O   -1.6115   1.6034   -0.4166
H   -2.1960   0.8357   -0.4403
H   -0.0307   -0.6576   -1.4628
H   -0.6400   -1.1956   1.3091
H   0.6200   0.9838   0.3475
H   -2.5720   -2.0389   0.2990
H   -2.0436   -1.5205   -1.2488
H   -0.3542   2.3751   0.9775
H   -1.5233   1.1589   1.6610
H   2.7917   0.2971   1.5465
H   1.7229   0.7307   -2.0346
H   2.4345   -1.3973   1.1114
H   1.2652   -0.4530   2.0778
H   2.8733   1.3049   -0.8218
H   2.9032   -0.3808   -1.3468
22
Frame 7: 7
C   -0.7626   -1.2636   0.2201
C   1.2529   0.1016   0.0153
C   -0.9592   1.5235   0.7834
C   1.9848   -0.3976   1.2580
C   2.2292   0.4627   -1.1004
N   0.2940   -0.9539   -0.5299
N   -2.0429   -1.3387   -0.2309
O   -1.6053   1.5980   -0.4243
H   -2.1881   0.8248   -0.4396
H   -0.0381   -0.6541   -1.4570
H   -0.6461   -1.1763   1.2954
H   0.6133   0.9709   0.3477
H   -2.5774   -2.0335   0.2965
H   -2.0503   -1.5291   -1.2460
H   -0.3463   2.3954   0.9796
H   -1.4994   1.1298   1.6587
H   2.7898   0.2951   1.5495
H   1.7210   0.7326   -2.0305
H   2.4310   -1.3885   1.1056
H   1.2692   -0.4554   2.0845
H   2.8736   1.3042   -0.8223
H   2.8862   -0.3811   -1.3332
22
Frame 8: 8
C   -0.7576   -1.2602   0.2106
C   1.2511   0.1008   0.0174
C   -0.9479   1.5418   0.7797
C   1.9784   -0.3940   1.2591
C   2.2211   0.4688   -1.0951
N   0.2968   -0.9562   -0.5315
N   -2.0322   -1.3475   -0.2338
O   -1.5967   1.5890   -0.4301
H   -2.1750   0.8112   -0.4395
H   -0.0481   -0.6471   -1.4527
H   -0.6528   -1.1544   1.2830
H   0.5990   0.9549   0.3477
H   -2.5845   -2.0267   0.2950
H   -2.0618   -1.5428   -1.2440
H   -0.3411   2.4237   0.9824
H   -1.4616   1.0918   1.6516
H   2.7842   0.2924   1.5519
H   1.7159   0.7366   -2.0262
H   2.4260   -1.3771   1.0970
H   1.2754   -0.4588   2.0935
H   2.8726   1.3037   -0.8211
H   2.8644   -0.3843   -1.3150
22
Frame 9: 9
C   -0.7561   -1.2412   0.2063
C   1.2484   0.1005   0.0220
C   -0.9325   1.5568   0.7755
C   1.9727   -0.3917   1.2625
C   2.2135   0.4742   -1.0903
N   0.3019   -0.9613   -0.5373
N   -2.0208   -1.3609   -0.2397
O   -1.5854   1.5797   -0.4309
H   -2.1597   0.7963   -0.4405
H   -0.0566   -0.6378   -1.4511
H   -0.6579   -1.1381   1.2764
H   0.5807   0.9402   0.3466
H   -2.5912   -2.0194   0.2949
H   -2.0767   -1.5599   -1.2459
H   -0.3423   2.4543   0.9853
H   -1.4149   1.0560   1.6383
H   2.7755   0.2909   1.5526
H   1.7079   0.7426   -2.0223
H   2.4210   -1.3673   1.0871
H   1.2818   -0.4628   2.1039
H   2.8698   1.3041   -0.8174
H   2.8436   -0.3906   -1.2968
22
Frame 10: 10
C   -0.7574   -1.2173   0.2034
C   1.2417   0.1014   0.0274
C   -0.9157   1.5681   0.7718
C   1.9692   -0.3912   1.2673
C   2.2071   0.4777   -1.0857
N   0.3066   -0.9698   -0.5459
N   -2.0146   -1.3757   -0.2491
O   -1.5729   1.5697   -0.4279
H   -2.1411   0.7839   -0.4407
H   -0.0621   -0.6269   -1.4529
H   -0.6605   -1.1253   1.2790
H   0.5612   0.9341   0.3465
H   -2.5969   -2.0123   0.2986
H   -2.0911   -1.5781   -1.2521
H   -0.3521   2.4796   0.9871
H   -1.3635   1.0274   1.6207
H   2.7675   0.2928   1.5526
H   1.6983   0.7492   -2.0186
H   2.4179   -1.3629   1.0774
H   1.2860   -0.4673   2.1138
H   2.8663   1.3055   -0.8114
H   2.8272   -0.3988   -1.2823
22
Frame 11: 11
C   -0.7631   -1.1987   0.2062
C   1.2350   0.1008   0.0292
C   -0.9062   1.5727   0.7701
C   1.9676   -0.3929   1.2697
C   2.2039   0.4776   -1.0830
N   0.3080   -0.9731   -0.5529
N   -2.0140   -1.3865   -0.2575
O   -1.5629   1.5649   -0.4242
H   -2.1268   0.7763   -0.4400
H   -0.0605   -0.6192   -1.4560
H   -0.6600   -1.1218   1.2857
H   0.5507   0.9365   0.3455
H   -2.6011   -2.0081   0.3035
H   -2.0998   -1.5914   -1.2601
H   -0.3667   2.4916   0.9880
H   -1.3269   1.0172   1.6077
H   2.7633   0.2981   1.5519
H   1.6913   0.7537   -2.0148
H   2.4179   -1.3653   1.0718
H   1.2868   -0.4711   2.1199
H   2.8625   1.3068   -0.8051
H   2.8210   -0.4044   -1.2774
22
Frame 12: 12
C   -0.7679   -1.1955   0.2046
C   1.2271   0.1003   0.0293
C   -0.9007   1.5800   0.7679
C   1.9673   -0.3940   1.2703
C   2.2004   0.4770   -1.0793
N   0.3051   -0.9734   -0.5556
N   -2.0187   -1.3943   -0.2635
O   -1.5537   1.5601   -0.4246
H   -2.1110   0.7695   -0.4370
H   -0.0577   -0.6126   -1.4587
H   -0.6603   -1.1139   1.2896
H   0.5452   0.9432   0.3454
H   -2.6046   -2.0032   0.3092
H   -2.1044   -1.6033   -1.2674
H   -0.3809   2.5008   0.9887
H   -1.2943   1.0069   1.6005
H   2.7615   0.3042   1.5516
H   1.6861   0.7568   -2.0097
H   2.4190   -1.3691   1.0680
H   1.2862   -0.4753   2.1237
H   2.8593   1.3072   -0.7992
H   2.8165   -0.4078   -1.2755
22
Frame 13: 13
C   -0.7780   -1.1928   0.2074
C   1.2195   0.0975   0.0279
C   -0.8967   1.5865   0.7660
C   1.9650   -0.3971   1.2691
C   2.1967   0.4742   -1.0752
N   0.2968   -0.9655   -0.5561
N   -2.0243   -1.4037   -0.2718
O   -1.5425   1.5558   -0.4283
H   -2.0903   0.7596   -0.4328
H   -0.0491   -0.6055   -1.4619
H   -0.6608   -1.1088   1.2911
H   0.5453   0.9525   0.3421
H   -2.6115   -1.9979   0.3164
H   -2.1089   -1.6199   -1.2755
H   -0.4016   2.5157   0.9912
H   -1.2548   0.9990   1.5956
H   2.7579   0.3126   1.5498
H   1.6803   0.7602   -2.0012
H   2.4214   -1.3747   1.0653
H   1.2857   -0.4818   2.1264
H   2.8529   1.3061   -0.7901
H   2.8139   -0.4094   -1.2775
22
Frame 14: 14
C   -0.7897   -1.1976   0.2042
C   1.2109   0.0959   0.0283
C   -0.8889   1.5990   0.7620
C   1.9625   -0.4001   1.2675
C   2.1911   0.4711   -1.0692
N   0.2836   -0.9540   -0.5525
N   -2.0329   -1.4154   -0.2792
O   -1.5278   1.5488   -0.4364
H   -2.0607   0.7433   -0.4265
H   -0.0401   -0.5962   -1.4667
H   -0.6649   -1.0977   1.2886
H   0.5482   0.9643   0.3379
H   -2.6204   -1.9885   0.3248
H   -2.1136   -1.6439   -1.2837
H   -0.4274   2.5418   0.9954
H   -1.2024   0.9824   1.5933
H   2.7505   0.3206   1.5466
H   1.6731   0.7646   -1.9896
H   2.4241   -1.3786   1.0624
H   1.2860   -0.4915   2.1282
H   2.8441   1.3031   -0.7778
H   2.8089   -0.4098   -1.2801
22
Frame 15: 15
C   -0.8030   -1.1974   0.2049
C   1.2094   0.0940   0.0294
C   -0.8807   1.6061   0.7606
C   1.9581   -0.4052   1.2646
C   2.1880   0.4659   -1.0657
N   0.2671   -0.9359   -0.5459
N   -2.0398   -1.4255   -0.2857
O   -1.5173   1.5427   -0.4432
H   -2.0342   0.7277   -0.4221
H   -0.0272   -0.5900   -1.4722
H   -0.6707   -1.0990   1.2847
H   0.5609   0.9751   0.3303
H   -2.6308   -1.9814   0.3306
H   -2.1160   -1.6676   -1.2867
H   -0.4557   2.5693   1.0012
H   -1.1621   0.9786   1.5944
H   2.7392   0.3253   1.5403
H   1.6670   0.7686   -1.9790
H   2.4274   -1.3807   1.0635
H   1.2866   -0.5016   2.1263
H   2.8334   1.2979   -0.7643
H   2.8103   -0.4070   -1.2894
22
Frame 16: 16
C   -0.8119   -1.2003   0.2015
C   1.2112   0.0944   0.0320
C   -0.8702   1.6149   0.7586
C   1.9539   -0.4090   1.2629
C   2.1864   0.4626   -1.0643
N   0.2562   -0.9219   -0.5415
N   -2.0445   -1.4303   -0.2882
O   -1.5096   1.5372   -0.4451
H   -2.0151   0.7130   -0.4197
H   -0.0200   -0.5872   -1.4767
H   -0.6799   -1.1018   1.2800
H   0.5743   0.9833   0.3259
H   -2.6390   -1.9761   0.3331
H   -2.1165   -1.6869   -1.2843
H   -0.4779   2.5926   1.0057
H   -1.1378   0.9769   1.5975
H   2.7280   0.3244   1.5346
H   1.6629   0.7720   -1.9729
H   2.4297   -1.3786   1.0657
H   1.2867   -0.5098   2.1228
H   2.8260   1.2929   -0.7539
H   2.8125   -0.4034   -1.2983
22
Frame 17: 17
C   -0.8152   -1.1994   0.1992
C   1.2172   0.0950   0.0329
C   -0.8604   1.6181   0.7597
C   1.9507   -0.4129   1.2614
C   2.1884   0.4596   -1.0667
N   0.2486   -0.9107   -0.5376
N   -2.0491   -1.4301   -0.2872
O   -1.5077   1.5327   -0.4406
H   -2.0043   0.7031   -0.4199
H   -0.0152   -0.5890   -1.4813
H   -0.6911   -1.1148   1.2773
H   0.5923   0.9905   0.3235
H   -2.6442   -1.9743   0.3320
H   -2.1140   -1.7010   -1.2772
H   -0.4960   2.6092   1.0089
H   -1.1358   0.9894   1.6018
H   2.7176   0.3194   1.5293
H   1.6613   0.7744   -1.9717
H   2.4325   -1.3754   1.0703
H   1.2842   -0.5161   2.1177
H   2.8217   1.2882   -0.7463
H   2.8205   -0.3984   -1.3108
22
Frame 18: 18
C   -0.8168   -1.2002   0.1949
C   1.2192   0.0957   0.0327
C   -0.8493   1.6275   0.7599
C   1.9462   -0.4154   1.2611
C   2.1887   0.4597   -1.0684
N   0.2484   -0.9066   -0.5405
N   -2.0512   -1.4280   -0.2883
O   -1.5024   1.5264   -0.4339
H   -1.9921   0.6906   -0.4196
H   -0.0169   -0.5897   -1.4843
H   -0.7041   -1.1196   1.2747
H   0.6025   0.9964   0.3258
H   -2.6502   -1.9729   0.3324
H   -2.1144   -1.7167   -1.2709
H   -0.5104   2.6277   1.0102
H   -1.1279   0.9922   1.6025
H   2.7106   0.3153   1.5280
H   1.6591   0.7780   -1.9718
H   2.4348   -1.3719   1.0711
H   1.2805   -0.5221   2.1162
H   2.8212   1.2858   -0.7407
H   2.8225   -0.3960   -1.3172
22
Frame 19: 19
C   -0.8150   -1.1991   0.1923
C   1.2207   0.0959   0.0295
C   -0.8421   1.6329   0.7638
C   1.9446   -0.4174   1.2614
C   2.1913   0.4607   -1.0720
N   0.2495   -0.9075   -0.5436
N   -2.0558   -1.4238   -0.2875
O   -1.4990   1.5218   -0.4252
H   -1.9826   0.6811   -0.4191
H   -0.0211   -0.5916   -1.4880
H   -0.7162   -1.1275   1.2749
H   0.6121   1.0024   0.3301
H   -2.6524   -1.9723   0.3313
H   -2.1137   -1.7302   -1.2658
H   -0.5224   2.6406   1.0097
H   -1.1289   1.0030   1.6026
H   2.7072   0.3122   1.5294
H   1.6586   0.7816   -1.9741
H   2.4380   -1.3712   1.0715
H   1.2735   -0.5269   2.1148
H   2.8239   1.2849   -0.7378
H   2.8265   -0.3939   -1.3244
22
Frame 20: 20
C   -0.8150   -1.1992   0.1912
C   1.2195   0.0958   0.0263
C   -0.8381   1.6401   0.7675
C   1.9434   -0.4188   1.2620
C   2.1924   0.4630   -1.0740
N   0.2513   -0.9116   -0.5489
N   -2.0592   -1.4208   -0.2906
O   -1.4942   1.5168   -0.4201
H   -1.9702   0.6724   -0.4165
H   -0.0272   -0.5918   -1.4900
H   -0.7253   -1.1284   1.2751
H   0.6149   1.0059   0.3347
H   -2.6545   -1.9711   0.3318
H   -2.1152   -1.7440   -1.2637
H   -0.5322   2.6527   1.0082
H   -1.1220   1.0074   1.6019
H   2.7072   0.3127   1.5343
H   1.6584   0.7859   -1.9754
H   2.4407   -1.3726   1.0691
H   1.2668   -0.5311   2.1147
H   2.8282   1.2856   -0.7368
H   2.8259   -0.3936   -1.3272
22
Frame 21: 21
C   -0.8162   -1.2003   0.1910
C   1.2187   0.0954   0.0238
C   -0.8380   1.6450   0.7706
C   1.9445   -0.4196   1.2625
C   2.1937   0.4654   -1.0755
N   0.2510   -0.9155   -0.5517
N   -2.0629   -1.4189   -0.2937
O   -1.4901   1.5147   -0.4180
H   -1.9587   0.6655   -0.4125
H   -0.0331   -0.5921   -1.4906
H   -0.7306   -1.1281   1.2754
H   0.6153   1.0067   0.3378
H   -2.6542   -1.9690   0.3315
H   -2.1163   -1.7560   -1.2633
H   -0.5400   2.6611   1.0062
H   -1.1167   1.0129   1.6039
H   2.7083   0.3141   1.5407
H   1.6598   0.7900   -1.9765
H   2.4427   -1.3751   1.0667
H   1.2611   -0.5344   2.1129
H   2.8330   1.2867   -0.7379
H   2.8248   -0.3932   -1.3296
22
Frame 22: 22
C   -0.8186   -1.2019   0.1915
C   1.2191   0.0948   0.0218
C   -0.8389   1.6506   0.7736
C   1.9462   -0.4209   1.2624
C   2.1954   0.4685   -1.0770
N   0.2492   -0.9186   -0.5532
N   -2.0665   -1.4169   -0.2989
O   -1.4864   1.5124   -0.4176
H   -1.9433   0.6582   -0.4063
H   -0.0408   -0.5928   -1.4896
H   -0.7353   -1.1277   1.2753
H   0.6143   1.0045   0.3402
H   -2.6537   -1.9661   0.3305
H   -2.1174   -1.7711   -1.2628
H   -0.5492   2.6704   1.0033
H   -1.1119   1.0217   1.6102
H   2.7093   0.3152   1.5503
H   1.6632   0.7959   -1.9779
H   2.4445   -1.3780   1.0639
H   1.2550   -0.5383   2.1081
H   2.8399   1.2879   -0.7412
H   2.8230   -0.3920   -1.3327
22
Frame 23: 23
C   -0.8218   -1.2031   0.1919
C   1.2213   0.0939   0.0205
C   -0.8398   1.6556   0.7757
C   1.9482   -0.4224   1.2615
C   2.1975   0.4715   -1.0787
N   0.2464   -0.9189   -0.5520
N   -2.0693   -1.4155   -0.3045
O   -1.4835   1.5116   -0.4173
H   -1.9274   0.6502   -0.3993
H   -0.0487   -0.5944   -1.4868
H   -0.7390   -1.1286   1.2749
H   0.6128   0.9994   0.3411
H   -2.6531   -1.9625   0.3283
H   -2.1175   -1.7879   -1.2619
H   -0.5588   2.6796   1.0000
H   -1.1107   1.0348   1.6210
H   2.7085   0.3143   1.5613
H   1.6684   0.8030   -1.9796
H   2.4458   -1.3802   1.0617
H   1.2497   -0.5427   2.1000
H   2.8476   1.2885   -0.7462
H   2.8216   -0.3900   -1.3374
22
Frame 24: 24
C   -0.8236   -1.2031   0.1921
C   1.2238   0.0936   0.0206
C   -0.8395   1.6589   0.7768
C   1.9490   -0.4237   1.2600
C   2.1988   0.4734   -1.0799
N   0.2443   -0.9171   -0.5489
N   -2.0693   -1.4156   -0.3089
O   -1.4831   1.5107   -0.4167
H   -1.9169   0.6455   -0.3948
H   -0.0539   -0.5956   -1.4832
H   -0.7402   -1.1297   1.2746
H   0.6104   0.9937   0.3405
H   -2.6536   -1.9598   0.3262
H   -2.1166   -1.7999   -1.2610
H   -0.5642   2.6853   0.9972
H   -1.1129   1.0464   1.6308
H   2.7058   0.3112   1.5693
H   1.6731   0.8087   -1.9811
H   2.4460   -1.3803   1.0607
H   1.2473   -0.5462   2.0922
H   2.8533   1.2882   -0.7510
H   2.8203   -0.3883   -1.3413
22
Frame 25: 25
C   -0.8241   -1.2025   0.1921
C   1.2249   0.0941   0.0212
C   -0.8380   1.6606   0.7771
C   1.9484   -0.4246   1.2584
C   2.1988   0.4739   -1.0802
N   0.2438   -0.9148   -0.5465
N   -2.0680   -1.4175   -0.3110
O   -1.4829   1.5101   -0.4150
H   -1.9126   0.6421   -0.3934
H   -0.0552   -0.5954   -1.4809
H   -0.7402   -1.1298   1.2748
H   0.6083   0.9912   0.3394
H   -2.6553   -1.9577   0.3253
H   -2.1152   -1.8067   -1.2611
H   -0.5663   2.6889   0.9955
H   -1.1140   1.0529   1.6358
H   2.7022   0.3078   1.5724
H   1.6752   0.8121   -1.9814
H   2.4459   -1.3793   1.0604
H   1.2470   -0.5490   2.0879
H   2.8553   1.2871   -0.7531
H   2.8194   -0.3877   -1.3435
22
Frame 26: 26
C   -0.8233   -1.2023   0.1926
C   1.2251   0.0953   0.0216
C   -0.8368   1.6624   0.7780
C   1.9471   -0.4254   1.2566
C   2.1984   0.4741   -1.0805
N   0.2445   -0.9134   -0.5447
N   -2.0655   -1.4206   -0.3125
O   -1.4837   1.5090   -0.4122
H   -1.9111   0.6403   -0.3934
H   -0.0554   -0.5944   -1.4786
H   -0.7392   -1.1286   1.2754
H   0.6055   0.9900   0.3387
H   -2.6578   -1.9556   0.3245
H   -2.1124   -1.8115   -1.2617
H   -0.5651   2.6903   0.9932
H   -1.1168   1.0591   1.6395
H   2.6985   0.3040   1.5748
H   1.6768   0.8150   -1.9817
H   2.4457   -1.3782   1.0599
H   1.2468   -0.5519   2.0845
H   2.8569   1.2855   -0.7549
H   2.8179   -0.3878   -1.3452
22
Frame 27: 27
C   -0.8225   -1.2025   0.1934
C   1.2237   0.0974   0.0216
C   -0.8344   1.6664   0.7801
C   1.9442   -0.4270   1.2539
C   2.1972   0.4744   -1.0809
N   0.2451   -0.9117   -0.5434
N   -2.0622   -1.4272   -0.3152
O   -1.4829   1.5062   -0.4074
H   -1.9061   0.6345   -0.3931
H   -0.0551   -0.5912   -1.4762
H   -0.7390   -1.1247   1.2765
H   0.6017   0.9911   0.3380
H   -2.6632   -1.9508   0.3240
H   -2.1077   -1.8224   -1.2633
H   -0.5650   2.6965   0.9896
H   -1.1156   1.0674   1.6439
H   2.6925   0.2994   1.5782
H   1.6778   0.8203   -1.9814
H   2.4460   -1.3772   1.0579
H   1.2452   -0.5584   2.0805
H   2.8588   1.2828   -0.7559
H   2.8145   -0.3886   -1.3479
22
Frame 28: 28
C   -0.8200   -1.2047   0.1957
C   1.2213   0.1005   0.0208
C   -0.8343   1.6710   0.7841
C   1.9407   -0.4291   1.2509
C   2.1958   0.4754   -1.0821
N   0.2472   -0.9120   -0.5427
N   -2.0564   -1.4361   -0.3181
O   -1.4843   1.5028   -0.4009
H   -1.9028   0.6292   -0.3929
H   -0.0550   -0.5868   -1.4728
H   -0.7375   -1.1180   1.2787
H   0.5967   0.9932   0.3381
H   -2.6698   -1.9443   0.3222
H   -2.0988   -1.8345   -1.2650
H   -0.5598   2.7003   0.9832
H   -1.1197   1.0809   1.6512
H   2.6868   0.2941   1.5839
H   1.6795   0.8270   -1.9818
H   2.4466   -1.3769   1.0540
H   1.2412   -0.5675   2.0754
H   2.8630   1.2792   -0.7582
H   2.8092   -0.3902   -1.3513
22
Frame 29: 29
C   -0.8183   -1.2067   0.1982
C   1.2178   0.1034   0.0195
C   -0.8336   1.6779   0.7886
C   1.9364   -0.4322   1.2486
C   2.1939   0.4767   -1.0833
N   0.2476   -0.9121   -0.5434
N   -2.0505   -1.4481   -0.3223
O   -1.4841   1.4980   -0.3945
H   -1.8938   0.6193   -0.3908
H   -0.0548   -0.5802   -1.4708
H   -0.7381   -1.1088   1.2808
H   0.5935   0.9977   0.3385
H   -2.6783   -1.9348   0.3204
H   -2.0883   -1.8541   -1.2668
H   -0.5571   2.7105   0.9758
H   -1.1170   1.0953   1.6598
H   2.6798   0.2904   1.5908
H   1.6795   0.8359   -1.9814
H   2.4478   -1.3776   1.0474
H   1.2343   -0.5808   2.0705
H   2.8674   1.2747   -0.7580
H   2.8016   -0.3924   -1.3560
22
Frame 30: 30
C   -0.8157   -1.2095   0.2011
C   1.2159   0.1053   0.0184
C   -0.8366   1.6815   0.7922
C   1.9339   -0.4346   1.2482
C   2.1930   0.4782   -1.0852
N   0.2486   -0.9135   -0.5449
N   -2.0438   -1.4574   -0.3243
O   -1.4878   1.4959   -0.3902
H   -1.8909   0.6145   -0.3886
H   -0.0551   -0.5755   -1.4698
H   -0.7375   -1.1007   1.2829
H   0.5929   1.0011   0.3395
H   -2.6835   -1.9273   0.3172
H   -2.0763   -1.8671   -1.2666
H   -0.5492   2.7129   0.9680
H   -1.1228   1.1103   1.6697
H   2.6765   0.2888   1.5971
H   1.6795   0.8424   -1.9821
H   2.4482   -1.3789   1.0404
H   1.2267   -0.5920   2.0664
H   2.8724   1.2711   -0.7582
H   2.7948   -0.3944   -1.3601
22
Frame 31: 31
C   -0.8143   -1.2093   0.2029
C   1.2154   0.1058   0.0182
C   -0.8380   1.6846   0.7937
C   1.9319   -0.4368   1.2493
C   2.1920   0.4794   -1.0861
N   0.2479   -0.9130   -0.5465
N   -2.0382   -1.4654   -0.3264
O   -1.4909   1.4944   -0.3885
H   -1.8861   0.6093   -0.3851
H   -0.0556   -0.5713   -1.4709
H   -0.7386   -1.0938   1.2839
H   0.5955   1.0036   0.3402
H   -2.6875   -1.9207   0.3147
H   -2.0667   -1.8808   -1.2657
H   -0.5447   2.7174   0.9618
H   -1.1229   1.1208   1.6779
H   2.6731   0.2894   1.6015
H   1.6775   0.8477   -1.9816
H   2.4481   -1.3796   1.0331
H   1.2200   -0.6024   2.0638
H   2.8756   1.2678   -0.7557
H   2.7881   -0.3962   -1.3639
22
Frame 32: 32
C   -0.8130   -1.2082   0.2036
C   1.2165   0.1056   0.0192
C   -0.8392   1.6847   0.7931
C   1.9313   -0.4382   1.2511
C   2.1914   0.4801   -1.0863
N   0.2478   -0.9114   -0.5477
N   -2.0331   -1.4703   -0.3272
O   -1.4960   1.4952   -0.3880
H   -1.8856   0.6077   -0.3816
H   -0.0564   -0.5690   -1.4725
H   -0.7390   -1.0885   1.2843
H   0.5992   1.0042   0.3412
H   -2.6890   -1.9168   0.3123
H   -2.0579   -1.8897   -1.2639
H   -0.5387   2.7166   0.9562
H   -1.1259   1.1291   1.6844
H   2.6709   0.2906   1.6042
H   1.6752   0.8505   -1.9807
H   2.4469   -1.3794   1.0268
H   1.2154   -0.6100   2.0620
H   2.8778   1.2652   -0.7529
H   2.7825   -0.3976   -1.3668
22
Frame 33: 33
C   -0.8118   -1.2049   0.2033
C   1.2178   0.1054   0.0207
C   -0.8381   1.6854   0.7914
C   1.9305   -0.4395   1.2523
C   2.1904   0.4806   -1.0854
N   0.2476   -0.9082   -0.5484
N   -2.0290   -1.4746   -0.3290
O   -1.5004   1.4957   -0.3872
H   -1.8838   0.6056   -0.3776
H   -0.0576   -0.5669   -1.4740
H   -0.7401   -1.0827   1.2839
H   0.6024   1.0034   0.3423
H   -2.6907   -1.9135   0.3107
H   -2.0505   -1.9004   -1.2623
H   -0.5347   2.7170   0.9509
H   -1.1246   1.1351   1.6885
H   2.6672   0.2914   1.6065
H   1.6722   0.8533   -1.9783
H   2.4454   -1.3782   1.0207
H   1.2127   -0.6172   2.0601
H   2.8791   1.2624   -0.7493
H   2.7765   -0.3990   -1.3693
22
Frame 34: 34
C   -0.8112   -1.2020   0.2022
C   1.2190   0.1056   0.0223
C   -0.8361   1.6857   0.7894
C   1.9302   -0.4404   1.2526
C   2.1895   0.4809   -1.0839
N   0.2480   -0.9044   -0.5487
N   -2.0262   -1.4772   -0.3309
O   -1.5051   1.4966   -0.3852
H   -1.8830   0.6044   -0.3733
H   -0.0594   -0.5655   -1.4748
H   -0.7413   -1.0761   1.2828
H   0.6048   1.0024   0.3443
H   -2.6916   -1.9114   0.3092
H   -2.0431   -1.9117   -1.2607
H   -0.5305   2.7161   0.9450
H   -1.1231   1.1409   1.6906
H   2.6631   0.2915   1.6092
H   1.6692   0.8558   -1.9746
H   2.4442   -1.3765   1.0152
H   1.2116   -0.6237   2.0578
H   2.8804   1.2595   -0.7459
H   2.7707   -0.4003   -1.3720
22
Frame 35: 35
C   -0.8108   -1.1987   0.2011
C   1.2193   0.1063   0.0236
C   -0.8336   1.6877   0.7878
C   1.9295   -0.4414   1.2516
C   2.1885   0.4812   -1.0818
N   0.2482   -0.9007   -0.5489
N   -2.0246   -1.4801   -0.3346
O   -1.5090   1.4964   -0.3817
H   -1.8813   0.6021   -0.3684
H   -0.0615   -0.5637   -1.4748
H   -0.7430   -1.0676   1.2811
H   0.6057   1.0016   0.3470
H   -2.6932   -1.9092   0.3074
H   -2.0355   -1.9265   -1.2589
H   -0.5266   2.7170   0.9381
H   -1.1187   1.1468   1.6912
H   2.6580   0.2907   1.6133
H   1.6661   0.8597   -1.9693
H   2.4439   -1.3748   1.0094
H   1.2115   -0.6311   2.0547
H   2.8822   1.2562   -0.7426
H   2.7641   -0.4018   -1.3750
22
Frame 36: 36
C   -0.8120   -1.1965   0.1996
C   1.2187   0.1075   0.0244
C   -0.8314   1.6905   0.7868
C   1.9293   -0.4428   1.2498
C   2.1879   0.4815   -1.0798
N   0.2480   -0.8977   -0.5491
N   -2.0245   -1.4818   -0.3388
O   -1.5129   1.4957   -0.3771
H   -1.8801   0.5996   -0.3630
H   -0.0639   -0.5620   -1.4743
H   -0.7457   -1.0579   1.2788
H   0.6061   1.0021   0.3507
H   -2.6941   -1.9078   0.3048
H   -2.0272   -1.9439   -1.2563
H   -0.5223   2.7187   0.9303
H   -1.1138   1.1538   1.6910
H   2.6530   0.2892   1.6186
H   1.6632   0.8646   -1.9628
H   2.4453   -1.3737   1.0040
H   1.2119   -0.6389   2.0509
H   2.8850   1.2526   -0.7395
H   2.7580   -0.4031   -1.3789
22
Frame 37: 37
C   -0.8138   -1.1937   0.1989
C   1.2173   0.1085   0.0248
C   -0.8301   1.6948   0.7862
C   1.9290   -0.4449   1.2474
C   2.1874   0.4819   -1.0779
N   0.2469   -0.8960   -0.5492
N   -2.0249   -1.4843   -0.3446
O   -1.5172   1.4943   -0.3721
H   -1.8801   0.5968   -0.3571
H   -0.0658   -0.5595   -1.4733
H   -0.7488   -1.0467   1.2763
H   0.6057   1.0034   0.3544
H   -2.6952   -1.9066   0.3010
H   -2.0178   -1.9641   -1.2527
H   -0.5164   2.7220   0.9213
H   -1.1083   1.1617   1.6913
H   2.6481   0.2874   1.6254
H   1.6602   0.8712   -1.9555
H   2.4485   -1.3732   0.9984
H   1.2125   -0.6478   2.0468
H   2.8889   1.2485   -0.7366
H   2.7515   -0.4046   -1.3833
22
Frame 38: 38
C   -0.8177   -1.1909   0.1981
C   1.2158   0.1093   0.0253
C   -0.8296   1.7001   0.7860
C   1.9293   -0.4481   1.2450
C   2.1873   0.4823   -1.0765
N   0.2449   -0.8949   -0.5493
N   -2.0260   -1.4859   -0.3509
O   -1.5228   1.4930   -0.3673
H   -1.8824   0.5941   -0.3504
H   -0.0672   -0.5569   -1.4725
H   -0.7535   -1.0349   1.2738
H   0.6063   1.0060   0.3582
H   -2.6954   -1.9063   0.2958
H   -2.0067   -1.9879   -1.2475
H   -0.5093   2.7267   0.9111
H   -1.1039   1.1724   1.6934
H   2.6434   0.2850   1.6330
H   1.6572   0.8799   -1.9477
H   2.4544   -1.3734   0.9929
H   1.2128   -0.6583   2.0422
H   2.8941   1.2437   -0.7334
H   2.7458   -0.4057   -1.3895
22
Frame 39: 39
C   -0.8225   -1.1856   0.1977
C   1.2145   0.1092   0.0262
C   -0.8303   1.7062   0.7850
C   1.9301   -0.4527   1.2432
C   2.1871   0.4827   -1.0753
N   0.2420   -0.8945   -0.5488
N   -2.0267   -1.4885   -0.3591
O   -1.5308   1.4922   -0.3630
H   -1.8898   0.5929   -0.3428
H   -0.0672   -0.5535   -1.4718
H   -0.7595   -1.0219   1.2717
H   0.6071   1.0088   0.3613
H   -2.6948   -1.9072   0.2891
H   -1.9931   -2.0149   -1.2403
H   -0.4982   2.7315   0.8990
H   -1.1011   1.1854   1.6977
H   2.6390   0.2819   1.6409
H   1.6538   0.8912   -1.9392
H   2.4630   -1.3740   0.9870
H   1.2134   -0.6711   2.0377
H   2.9004   1.2376   -0.7297
H   2.7397   -0.4066   -1.3968
22
Frame 40: 40
C   -0.8287   -1.1791   0.1967
C   1.2144   0.1082   0.0280
C   -0.8307   1.7125   0.7835
C   1.9314   -0.4587   1.2426
C   2.1868   0.4831   -1.0747
N   0.2387   -0.8932   -0.5479
N   -2.0274   -1.4908   -0.3675
O   -1.5401   1.4922   -0.3597
H   -1.8998   0.5925   -0.3343
H   -0.0660   -0.5502   -1.4720
H   -0.7679   -1.0099   1.2703
H   0.6096   1.0113   0.3632
H   -2.6934   -1.9093   0.2824
H   -1.9780   -2.0445   -1.2322
H   -0.4871   2.7370   0.8861
H   -1.0995   1.2015   1.7045
H   2.6347   0.2781   1.6480
H   1.6507   0.9043   -1.9314
H   2.4736   -1.3744   0.9818
H   1.2134   -0.6858   2.0336
H   2.9070   1.2306   -0.7254
H   2.7344   -0.4065   -1.4058
22
Frame 41: 41
C   -0.8336   -1.1719   0.1954
C   1.2157   0.1059   0.0302
C   -0.8320   1.7151   0.7806
C   1.9336   -0.4636   1.2439
C   2.1863   0.4833   -1.0744
N   0.2366   -0.8923   -0.5466
N   -2.0280   -1.4920   -0.3736
O   -1.5487   1.4945   -0.3596
H   -1.9164   0.5978   -0.3287
H   -0.0626   -0.5484   -1.4728
H   -0.7755   -1.0030   1.2698
H   0.6113   1.0111   0.3628
H   -2.6900   -1.9144   0.2783
H   -1.9677   -2.0609   -1.2250
H   -0.4761   2.7373   0.8773
H   -1.1012   1.2118   1.7090
H   2.6340   0.2750   1.6496
H   1.6493   0.9137   -1.9268
H   2.4833   -1.3743   0.9805
H   1.2156   -0.6954   2.0336
H   2.9107   1.2252   -0.7224
H   2.7320   -0.4052   -1.4112
22
Frame 42: 42
C   -0.8383   -1.1653   0.1932
C   1.2171   0.1043   0.0328
C   -0.8298   1.7210   0.7782
C   1.9346   -0.4697   1.2452
C   2.1847   0.4847   -1.0738
N   0.2344   -0.8891   -0.5457
N   -2.0279   -1.4964   -0.3812
O   -1.5554   1.4951   -0.3574
H   -1.9247   0.5981   -0.3198
H   -0.0608   -0.5452   -1.4738
H   -0.7871   -0.9932   1.2688
H   0.6134   1.0104   0.3631
H   -2.6897   -1.9157   0.2756
H   -1.9546   -2.0891   -1.2196
H   -0.4704   2.7437   0.8658
H   -1.0968   1.2275   1.7161
H   2.6303   0.2712   1.6538
H   1.6482   0.9268   -1.9221
H   2.4927   -1.3735   0.9766
H   1.2149   -0.7113   2.0315
H   2.9158   1.2182   -0.7182
H   2.7258   -0.4037   -1.4192
22
Frame 43: 43
C   -0.8401   -1.1624   0.1907
C   1.2187   0.1021   0.0346
C   -0.8290   1.7203   0.7752
C   1.9364   -0.4713   1.2480
C   2.1834   0.4857   -1.0734
N   0.2350   -0.8880   -0.5451
N   -2.0285   -1.4979   -0.3823
O   -1.5569   1.4980   -0.3594
H   -1.9370   0.6060   -0.3174
H   -0.0572   -0.5455   -1.4750
H   -0.7947   -0.9921   1.2680
H   0.6128   1.0062   0.3617
H   -2.6868   -1.9203   0.2778
H   -1.9533   -2.0898   -1.2181
H   -0.4688   2.7414   0.8637
H   -1.0953   1.2286   1.7149
H   2.6332   0.2700   1.6498
H   1.6503   0.9299   -1.9229
H   2.4972   -1.3722   0.9795
H   1.2183   -0.7149   2.0357
H   2.9152   1.2165   -0.7171
H   2.7248   -0.4011   -1.4191
22
Frame 44: 44
C   -0.8418   -1.1603   0.1885
C   1.2186   0.1013   0.0359
C   -0.8267   1.7238   0.7734
C   1.9368   -0.4737   1.2488
C   2.1816   0.4877   -1.0721
N   0.2351   -0.8864   -0.5451
N   -2.0280   -1.5039   -0.3862
O   -1.5584   1.4983   -0.3572
H   -1.9419   0.6088   -0.3108
H   -0.0561   -0.5435   -1.4752
H   -0.8045   -0.9834   1.2652
H   0.6114   1.0031   0.3634
H   -2.6871   -1.9204   0.2784
H   -1.9467   -2.1052   -1.2168
H   -0.4674   2.7448   0.8561
H   -1.0880   1.2362   1.7155
H   2.6321   0.2681   1.6518
H   1.6515   0.9376   -1.9207
H   2.5017   -1.3710   0.9776
H   1.2199   -0.7257   2.0359
H   2.9178   1.2130   -0.7145
H   2.7180   -0.3999   -1.4220
22
Frame 45: 45
C   -0.8451   -1.1599   0.1852
C   1.2172   0.1004   0.0372
C   -0.8239   1.7295   0.7718
C   1.9376   -0.4766   1.2488
C   2.1796   0.4907   -1.0701
N   0.2346   -0.8858   -0.5457
N   -2.0273   -1.5135   -0.3912
O   -1.5590   1.4985   -0.3536
H   -1.9480   0.6124   -0.3008
H   -0.0547   -0.5410   -1.4751
H   -0.8191   -0.9696   1.2594
H   0.6090   0.9999   0.3679
H   -2.6873   -1.9202   0.2787
H   -1.9383   -2.1259   -1.2143
H   -0.4663   2.7501   0.8451
H   -1.0768   1.2463   1.7147
H   2.6310   0.2660   1.6556
H   1.6537   0.9481   -1.9171
H   2.5078   -1.3697   0.9751
H   1.2233   -0.7406   2.0354
H   2.9218   1.2089   -0.7108
H   2.7080   -0.3985   -1.4263
22
Frame 46: 46
C   -0.8484   -1.1588   0.1833
C   1.2157   0.0998   0.0380
C   -0.8222   1.7358   0.7710
C   1.9379   -0.4797   1.2477
C   2.1786   0.4928   -1.0687
N   0.2333   -0.8857   -0.5459
N   -2.0258   -1.5226   -0.3962
O   -1.5609   1.4976   -0.3503
H   -1.9519   0.6133   -0.2919
H   -0.0537   -0.5388   -1.4750
H   -0.8305   -0.9575   1.2544
H   0.6086   0.9991   0.3724
H   -2.6881   -1.9192   0.2767
H   -1.9300   -2.1459   -1.2105
H   -0.4639   2.7564   0.8349
H   -1.0690   1.2573   1.7165
H   2.6283   0.2638   1.6606
H   1.6546   0.9578   -1.9128
H   2.5132   -1.3692   0.9715
H   1.2257   -0.7539   2.0329
H   2.9259   1.2051   -0.7070
H   2.6999   -0.3981   -1.4316
22
Frame 47: 47
C   -0.8532   -1.1572   0.1804
C   1.2142   0.0988   0.0391
C   -0.8204   1.7442   0.7700
C   1.9387   -0.4843   1.2458
C   2.1781   0.4949   -1.0674
N   0.2312   -0.8857   -0.5461
N   -2.0233   -1.5342   -0.4026
O   -1.5642   1.4966   -0.3463
H   -1.9571   0.6137   -0.2796
H   -0.0523   -0.5369   -1.4754
H   -0.8454   -0.9424   1.2480
H   0.6100   0.9992   0.3787
H   -2.6885   -1.9186   0.2728
H   -1.9195   -2.1717   -1.2038
H   -0.4609   2.7652   0.8216
H   -1.0615   1.2733   1.7203
H   2.6239   0.2608   1.6674
H   1.6557   0.9702   -1.9065
H   2.5203   -1.3690   0.9666
H   1.2287   -0.7704   2.0281
H   2.9315   1.2000   -0.7014
H   2.6907   -0.3975   -1.4400
22
Frame 48: 48
C   -0.8569   -1.1543   0.1781
C   1.2138   0.0981   0.0402
C   -0.8189   1.7517   0.7692
C   1.9391   -0.4889   1.2439
C   2.1780   0.4963   -1.0663
N   0.2297   -0.8849   -0.5460
N   -2.0199   -1.5451   -0.4083
O   -1.5681   1.4954   -0.3427
H   -1.9609   0.6131   -0.2685
H   -0.0511   -0.5358   -1.4760
H   -0.8572   -0.9296   1.2429
H   0.6124   0.9996   0.3841
H   -2.6892   -1.9179   0.2685
H   -1.9101   -2.1946   -1.1974
H   -0.4577   2.7734   0.8098
H   -1.0573   1.2895   1.7256
H   2.6184   0.2577   1.6734
H   1.6560   0.9810   -1.9004
H   2.5259   -1.3690   0.9610
H   1.2305   -0.7847   2.0227
H   2.9361   1.1951   -0.6962
H   2.6831   -0.3971   -1.4481
22
Frame 49: 49
C   -0.8592   -1.1518   0.1754
C   1.2144   0.0976   0.0412
C   -0.8177   1.7571   0.7684
C   1.9399   -0.4928   1.2422
C   2.1785   0.4970   -1.0655
N   0.2294   -0.8839   -0.5459
N   -2.0170   -1.5526   -0.4117
O   -1.5714   1.4946   -0.3401
H   -1.9638   0.6127   -0.2591
H   -0.0501   -0.5369   -1.4770
H   -0.8661   -0.9204   1.2389
H   0.6156   1.0000   0.3886
H   -2.6891   -1.9186   0.2649
H   -1.9044   -2.2105   -1.1917
H   -0.4561   2.7793   0.8012
H   -1.0569   1.3033   1.7301
H   2.6135   0.2549   1.6774
H   1.6564   0.9885   -1.8953
H   2.5299   -1.3693   0.9565
H   1.2317   -0.7943   2.0177
H   2.9392   1.1911   -0.6920
H   2.6788   -0.3962   -1.4548
22
Frame 50: 50
C   -0.8604   -1.1482   0.1733
C   1.2149   0.0976   0.0424
C   -0.8164   1.7627   0.7679
C   1.9400   -0.4972   1.2405
C   2.1783   0.4976   -1.0645
N   0.2298   -0.8822   -0.5458
N   -2.0131   -1.5609   -0.4159
O   -1.5749   1.4933   -0.3368
H   -1.9654   0.6110   -0.2495
H   -0.0489   -0.5374   -1.4781
H   -0.8731   -0.9098   1.2359
H   0.6174   1.0003   0.3922
H   -2.6899   -1.9186   0.2616
H   -1.8978   -2.2281   -1.1871
H   -0.4537   2.7854   0.7921
H   -1.0567   1.3185   1.7355
H   2.6075   0.2515   1.6818
H   1.6563   0.9966   -1.8899
H   2.5336   -1.3697   0.9502
H   1.2311   -0.8048   2.0125
H   2.9423   1.1863   -0.6881
H   2.6737   -0.3955   -1.4608
22
Frame 51: 51
C   -0.8595   -1.1466   0.1715
C   1.2160   0.0976   0.0429
C   -0.8158   1.7650   0.7678
C   1.9405   -0.4995   1.2393
C   2.1786   0.4975   -1.0637
N   0.2317   -0.8814   -0.5460
N   -2.0112   -1.5641   -0.4153
O   -1.5750   1.4923   -0.3356
H   -1.9651   0.6104   -0.2434
H   -0.0473   -0.5414   -1.4798
H   -0.8752   -0.9053   1.2335
H   0.6186   0.9998   0.3939
H   -2.6895   -1.9211   0.2605
H   -1.8993   -2.2307   -1.1853
H   -0.4555   2.7880   0.7895
H   -1.0599   1.3264   1.7372
H   2.6045   0.2494   1.6820
H   1.6570   0.9984   -1.8871
H   2.5342   -1.3706   0.9467
H   1.2303   -0.8062   2.0094
H   2.9422   1.1844   -0.6865
H   2.6739   -0.3939   -1.4624
22
Frame 52: 52
C   -0.8602   -1.1437   0.1689
C   1.2161   0.0975   0.0442
C   -0.8146   1.7705   0.7672
C   1.9409   -0.5042   1.2381
C   2.1777   0.4986   -1.0619
N   0.2328   -0.8802   -0.5465
N   -2.0091   -1.5705   -0.4181
O   -1.5774   1.4907   -0.3323
H   -1.9676   0.6097   -0.2323
H   -0.0445   -0.5438   -1.4819
H   -0.8814   -0.8922   1.2295
H   0.6184   0.9992   0.3966
H   -2.6894   -1.9237   0.2585
H   -1.8946   -2.2465   -1.1822
H   -0.4538   2.7934   0.7805
H   -1.0596   1.3412   1.7410
H   2.6003   0.2456   1.6852
H   1.6569   1.0064   -1.8815
H   2.5387   -1.3714   0.9399
H   1.2287   -0.8158   2.0051
H   2.9452   1.1794   -0.6830
H   2.6698   -0.3922   -1.4662
22
Frame 53: 53
C   -0.8585   -1.1433   0.1674
C   1.2150   0.0976   0.0448
C   -0.8140   1.7742   0.7678
C   1.9405   -0.5074   1.2370
C   2.1762   0.4997   -1.0597
N   0.2352   -0.8809   -0.5477
N   -2.0071   -1.5767   -0.4168
O   -1.5753   1.4879   -0.3305
H   -1.9667   0.6088   -0.2231
H   -0.0389   -0.5486   -1.4851
H   -0.8820   -0.8801   1.2252
H   0.6147   0.9976   0.3971
H   -2.6903   -1.9275   0.2599
H   -1.8971   -2.2489   -1.1837
H   -0.4560   2.7979   0.7765
H   -1.0601   1.3503   1.7421
H   2.5991   0.2425   1.6849
H   1.6576   1.0101   -1.8785
H   2.5398   -1.3730   0.9340
H   1.2257   -0.8196   2.0027
H   2.9457   1.1771   -0.6811
H   2.6685   -0.3902   -1.4642
22
Frame 54: 54
C   -0.8593   -1.1427   0.1656
C   1.2135   0.0965   0.0452
C   -0.8134   1.7785   0.7678
C   1.9407   -0.5105   1.2363
C   2.1753   0.5015   -1.0575
N   0.2359   -0.8826   -0.5490
N   -2.0083   -1.5804   -0.4148
O   -1.5736   1.4851   -0.3290
H   -1.9690   0.6094   -0.2128
H   -0.0319   -0.5544   -1.4893
H   -0.8847   -0.8670   1.2187
H   0.6116   0.9955   0.3977
H   -2.6893   -1.9340   0.2609
H   -1.8990   -2.2525   -1.1844
H   -0.4577   2.8025   0.7717
H   -1.0596   1.3592   1.7423
H   2.6003   0.2391   1.6845
H   1.6579   1.0149   -1.8752
H   2.5427   -1.3742   0.9295
H   1.2243   -0.8244   2.0010
H   2.9473   1.1753   -0.6781
H   2.6680   -0.3876   -1.4624
22
Frame 55: 55
C   -0.8605   -1.1428   0.1638
C   1.2112   0.0954   0.0451
C   -0.8129   1.7826   0.7680
C   1.9400   -0.5127   1.2353
C   2.1745   0.5037   -1.0557
N   0.2358   -0.8853   -0.5504
N   -2.0082   -1.5864   -0.4130
O   -1.5720   1.4819   -0.3276
H   -1.9706   0.6088   -0.2036
H   -0.0243   -0.5594   -1.4935
H   -0.8866   -0.8534   1.2126
H   0.6086   0.9938   0.3985
H   -2.6898   -1.9390   0.2626
H   -1.8998   -2.2542   -1.1854
H   -0.4587   2.8077   0.7667
H   -1.0588   1.3675   1.7439
H   2.6019   0.2359   1.6844
H   1.6580   1.0196   -1.8729
H   2.5436   -1.3747   0.9255
H   1.2234   -0.8302   1.9990
H   2.9491   1.1747   -0.6745
H   2.6665   -0.3861   -1.4605
22
Frame 56: 56
C   -0.8635   -1.1402   0.1621
C   1.2097   0.0936   0.0445
C   -0.8119   1.7862   0.7680
C   1.9393   -0.5143   1.2340
C   2.1750   0.5058   -1.0543
N   0.2350   -0.8879   -0.5518
N   -2.0095   -1.5909   -0.4106
O   -1.5718   1.4784   -0.3258
H   -1.9730   0.6079   -0.1948
H   -0.0158   -0.5661   -1.4987
H   -0.8883   -0.8414   1.2062
H   0.6075   0.9913   0.3991
H   -2.6895   -1.9457   0.2642
H   -1.9002   -2.2548   -1.1856
H   -0.4595   2.8124   0.7615
H   -1.0593   1.3764   1.7462
H   2.6037   0.2323   1.6840
H   1.6574   1.0238   -1.8704
H   2.5433   -1.3748   0.9227
H   1.2239   -0.8359   1.9967
H   2.9507   1.1751   -0.6695
H   2.6663   -0.3847   -1.4594
22
Frame 57: 57
C   -0.8662   -1.1370   0.1594
C   1.2091   0.0925   0.0440
C   -0.8113   1.7883   0.7678
C   1.9387   -0.5152   1.2328
C   2.1758   0.5075   -1.0534
N   0.2346   -0.8898   -0.5530
N   -2.0105   -1.5938   -0.4092
O   -1.5733   1.4760   -0.3238
H   -1.9756   0.6066   -0.1881
H   -0.0093   -0.5723   -1.5030
H   -0.8896   -0.8312   1.2021
H   0.6074   0.9893   0.4000
H   -2.6892   -1.9514   0.2656
H   -1.8985   -2.2552   -1.1850
H   -0.4583   2.8150   0.7561
H   -1.0611   1.3850   1.7493
H   2.6047   0.2289   1.6844
H   1.6569   1.0270   -1.8682
H   2.5419   -1.3745   0.9204
H   1.2250   -0.8413   1.9942
H   2.9518   1.1759   -0.6649
H   2.6657   -0.3838   -1.4594
22
Frame 58: 58
C   -0.8682   -1.1318   0.1579
C   1.2097   0.0919   0.0430
C   -0.8111   1.7881   0.7679
C   1.9384   -0.5150   1.2320
C   2.1770   0.5082   -1.0532
N   0.2346   -0.8904   -0.5536
N   -2.0123   -1.5931   -0.4081
O   -1.5754   1.4747   -0.3221
H   -1.9770   0.6049   -0.1860
H   -0.0052   -0.5780   -1.5063
H   -0.8884   -0.8275   1.2008
H   0.6078   0.9875   0.3996
H   -2.6884   -1.9561   0.2673
H   -1.8975   -2.2521   -1.1851
H   -0.4573   2.8145   0.7533
H   -1.0638   1.3900   1.7518
H   2.6055   0.2268   1.6842
H   1.6565   1.0274   -1.8672
H   2.5391   -1.3746   0.9201
H   1.2263   -0.8431   1.9930
H   2.9511   1.1777   -0.6620
H   2.6670   -0.3832   -1.4594
22
Frame 59: 59
C   -0.8697   -1.1276   0.1555
C   1.2101   0.0918   0.0428
C   -0.8111   1.7888   0.7680
C   1.9388   -0.5160   1.2313
C   2.1774   0.5089   -1.0526
N   0.2354   -0.8906   -0.5541
N   -2.0132   -1.5934   -0.4086
O   -1.5784   1.4737   -0.3197
H   -1.9792   0.6035   -0.1824
H   -0.0022   -0.5831   -1.5090
H   -0.8901   -0.8211   1.1995
H   0.6076   0.9863   0.4003
H   -2.6874   -1.9602   0.2681
H   -1.8944   -2.2535   -1.1840
H   -0.4548   2.8143   0.7481
H   -1.0652   1.3972   1.7549
H   2.6049   0.2245   1.6854
H   1.6571   1.0296   -1.8654
H   2.5383   -1.3754   0.9184
H   1.2275   -0.8470   1.9915
H   2.9507   1.1779   -0.6593
H   2.6665   -0.3821   -1.4609
22
Frame 60: 60
C   -0.8701   -1.1241   0.1548
C   1.2104   0.0921   0.0423
C   -0.8121   1.7876   0.7687
C   1.9393   -0.5160   1.2311
C   2.1776   0.5090   -1.0524
N   0.2362   -0.8905   -0.5543
N   -2.0149   -1.5904   -0.4081
O   -1.5806   1.4732   -0.3180
H   -1.9795   0.6019   -0.1831
H   -0.0005   -0.5882   -1.5108
H   -0.8897   -0.8197   1.1996
H   0.6066   0.9858   0.3997
H   -2.6862   -1.9634   0.2695
H   -1.8934   -2.2491   -1.1845
H   -0.4533   2.8116   0.7458
H   -1.0664   1.3995   1.7569
H   2.6054   0.2238   1.6857
H   1.6586   1.0289   -1.8658
H   2.5363   -1.3773   0.9187
H   1.2284   -0.8469   1.9919
H   2.9483   1.1796   -0.6586
H   2.6681   -0.3808   -1.4611
22
Frame 61: 61
C   -0.8713   -1.1202   0.1532
C   1.2098   0.0921   0.0426
C   -0.8129   1.7896   0.7694
C   1.9403   -0.5186   1.2305
C   2.1768   0.5100   -1.0514
N   0.2368   -0.8904   -0.5544
N   -2.0154   -1.5916   -0.4090
O   -1.5840   1.4719   -0.3146
H   -1.9814   0.5999   -0.1788
H   0.0030   -0.5944   -1.5136
H   -0.8944   -0.8107   1.1967
H   0.6048   0.9853   0.4007
H   -2.6850   -1.9674   0.2696
H   -1.8895   -2.2522   -1.1833
H   -0.4504   2.8120   0.7383
H   -1.0647   1.4082   1.7609
H   2.6045   0.2216   1.6877
H   1.6609   1.0328   -1.8643
H   2.5372   -1.3801   0.9160
H   1.2296   -0.8523   1.9911
H   2.9470   1.1795   -0.6561
H   2.6668   -0.3784   -1.4632
22
Frame 62: 62
C   -0.8711   -1.1200   0.1537
C   1.2087   0.0924   0.0427
C   -0.8143   1.7885   0.7704
C   1.9408   -0.5188   1.2308
C   2.1759   0.5103   -1.0512
N   0.2367   -0.8909   -0.5540
N   -2.0164   -1.5886   -0.4075
O   -1.5854   1.4712   -0.3132
H   -1.9803   0.5980   -0.1809
H   0.0048   -0.5994   -1.5148
H   -0.8949   -0.8089   1.1958
H   0.6028   0.9858   0.4000
H   -2.6840   -1.9693   0.2703
H   -1.8898   -2.2456   -1.1846
H   -0.4492   2.8095   0.7367
H   -1.0627   1.4073   1.7621
H   2.6057   0.2218   1.6874
H   1.6631   1.0316   -1.8664
H   2.5358   -1.3826   0.9165
H   1.2306   -0.8508   1.9930
H   2.9438   1.1820   -0.6562
H   2.6686   -0.3768   -1.4623
22
Frame 63: 63
C   -0.8721   -1.1191   0.1538
C   1.2075   0.0918   0.0433
C   -0.8143   1.7906   0.7705
C   1.9409   -0.5210   1.2306
C   2.1748   0.5114   -1.0505
N   0.2361   -0.8912   -0.5535
N   -2.0157   -1.5909   -0.4080
O   -1.5875   1.4701   -0.3107
H   -1.9805   0.5961   -0.1777
H   0.0076   -0.6031   -1.5162
H   -0.8993   -0.8015   1.1927
H   0.6016   0.9856   0.4009
H   -2.6839   -1.9706   0.2688
H   -1.8878   -2.2485   -1.1840
H   -0.4474   2.8112   0.7315
H   -1.0589   1.4121   1.7645
H   2.6050   0.2204   1.6885
H   1.6640   1.0351   -1.8661
H   2.5370   -1.3840   0.9142
H   1.2312   -0.8546   1.9928
H   2.9432   1.1820   -0.6541
H   2.6672   -0.3752   -1.4632
22
Frame 64: 64
C   -0.8725   -1.1198   0.1546
C   1.2067   0.0913   0.0436
C   -0.8141   1.7907   0.7705
C   1.9405   -0.5214   1.2307
C   2.1739   0.5121   -1.0505
N   0.2353   -0.8917   -0.5527
N   -2.0153   -1.5909   -0.4075
O   -1.5887   1.4698   -0.3095
H   -1.9790   0.5944   -0.1781
H   0.0089   -0.6054   -1.5163
H   -0.9006   -0.7991   1.1918
H   0.6012   0.9855   0.4010
H   -2.6841   -1.9706   0.2676
H   -1.8882   -2.2466   -1.1847
H   -0.4467   2.8111   0.7303
H   -1.0558   1.4114   1.7648
H   2.6052   0.2200   1.6879
H   1.6637   1.0353   -1.8673
H   2.5366   -1.3843   0.9137
H   1.2315   -0.8542   1.9938
H   2.9420   1.1832   -0.6534
H   2.6677   -0.3744   -1.4621
22
Frame 65: 65
C   -0.8732   -1.1195   0.1554
C   1.2062   0.0906   0.0438
C   -0.8133   1.7910   0.7700
C   1.9398   -0.5222   1.2305
C   2.1731   0.5131   -1.0506
N   0.2348   -0.8923   -0.5515
N   -2.0146   -1.5914   -0.4077
O   -1.5911   1.4696   -0.3074
H   -1.9774   0.5921   -0.1774
H   0.0106   -0.6087   -1.5164
H   -0.9025   -0.7953   1.1912
H   0.6013   0.9847   0.4013
H   -2.6847   -1.9707   0.2655
H   -1.8881   -2.2462   -1.1854
H   -0.4455   2.8112   0.7281
H   -1.0523   1.4126   1.7657
H   2.6050   0.2189   1.6874
H   1.6627   1.0363   -1.8680
H   2.5364   -1.3840   0.9125
H   1.2316   -0.8545   1.9942
H   2.9409   1.1843   -0.6522
H   2.6680   -0.3734   -1.4612
22
Frame 66: 66
C   -0.8740   -1.1187   0.1562
C   1.2063   0.0900   0.0436
C   -0.8126   1.7906   0.7695
C   1.9390   -0.5226   1.2302
C   2.1726   0.5141   -1.0509
N   0.2347   -0.8931   -0.5500
N   -2.0144   -1.5910   -0.4083
O   -1.5943   1.4700   -0.3050
H   -1.9755   0.5898   -0.1771
H   0.0122   -0.6127   -1.5161
H   -0.9041   -0.7926   1.1918
H   0.6017   0.9835   0.4015
H   -2.6851   -1.9709   0.2634
H   -1.8882   -2.2448   -1.1866
H   -0.4442   2.8103   0.7262
H   -1.0494   1.4137   1.7664
H   2.6050   0.2176   1.6865
H   1.6613   1.0365   -1.8687
H   2.5358   -1.3837   0.9118
H   1.2315   -0.8538   1.9948
H   2.9395   1.1859   -0.6514
H   2.6693   -0.3720   -1.4601
22
Frame 67: 67
C   -0.8746   -1.1177   0.1567
C   1.2067   0.0896   0.0433
C   -0.8123   1.7901   0.7692
C   1.9386   -0.5229   1.2298
C   2.1724   0.5147   -1.0512
N   0.2352   -0.8942   -0.5487
N   -2.0147   -1.5902   -0.4093
O   -1.5976   1.4706   -0.3029
H   -1.9744   0.5884   -0.1766
H   0.0135   -0.6166   -1.5156
H   -0.9055   -0.7909   1.1928
H   0.6021   0.9825   0.4016
H   -2.6853   -1.9714   0.2620
H   -1.8880   -2.2435   -1.1879
H   -0.4429   2.8091   0.7245
H   -1.0480   1.4156   1.7672
H   2.6053   0.2164   1.6856
H   1.6602   1.0364   -1.8689
H   2.5355   -1.3836   0.9115
H   1.2311   -0.8531   1.9949
H   2.9382   1.1873   -0.6511
H   2.6711   -0.3705   -1.4594
22
Frame 68: 68
C   -0.8750   -1.1169   0.1568
C   1.2071   0.0892   0.0429
C   -0.8125   1.7898   0.7692
C   1.9386   -0.5230   1.2295
C   2.1724   0.5150   -1.0512
N   0.2360   -0.8955   -0.5477
N   -2.0153   -1.5892   -0.4101
O   -1.6000   1.4713   -0.3014
H   -1.9740   0.5879   -0.1760
H   0.0145   -0.6200   -1.5152
H   -0.9068   -0.7905   1.1937
H   0.6024   0.9818   0.4016
H   -2.6851   -1.9719   0.2614
H   -1.8879   -2.2421   -1.1893
H   -0.4419   2.8080   0.7234
H   -1.0476   1.4171   1.7678
H   2.6060   0.2157   1.6847
H   1.6595   1.0358   -1.8687
H   2.5354   -1.3839   0.9118
H   1.2307   -0.8522   1.9947
H   2.9370   1.1886   -0.6513
H   2.6730   -0.3691   -1.4590
22
Frame 69: 69
C   -0.8753   -1.1165   0.1568
C   1.2075   0.0888   0.0427
C   -0.8129   1.7898   0.7693
C   1.9390   -0.5230   1.2293
C   2.1724   0.5151   -1.0511
N   0.2369   -0.8971   -0.5469
N   -2.0158   -1.5885   -0.4109
O   -1.6022   1.4721   -0.3002
H   -1.9743   0.5880   -0.1749
H   0.0158   -0.6235   -1.5147
H   -0.9082   -0.7903   1.1941
H   0.6023   0.9813   0.4015
H   -2.6846   -1.9723   0.2613
H   -1.8879   -2.2405   -1.1910
H   -0.4409   2.8073   0.7225
H   -1.0475   1.4184   1.7683
H   2.6072   0.2153   1.6837
H   1.6589   1.0349   -1.8682
H   2.5353   -1.3845   0.9123
H   1.2303   -0.8513   1.9943
H   2.9357   1.1902   -0.6517
H   2.6750   -0.3677   -1.4589
22
Frame 70: 70
C   -0.8755   -1.1165   0.1567
C   1.2076   0.0882   0.0427
C   -0.8132   1.7901   0.7695
C   1.9396   -0.5229   1.2293
C   2.1724   0.5150   -1.0507
N   0.2379   -0.8993   -0.5459
N   -2.0162   -1.5878   -0.4116
O   -1.6042   1.4731   -0.2991
H   -1.9749   0.5885   -0.1735
H   0.0174   -0.6275   -1.5143
H   -0.9100   -0.7907   1.1939
H   0.6019   0.9808   0.4011
H   -2.6840   -1.9723   0.2615
H   -1.8883   -2.2382   -1.1932
H   -0.4399   2.8071   0.7218
H   -1.0469   1.4191   1.7686
H   2.6090   0.2154   1.6822
H   1.6579   1.0334   -1.8677
H   2.5352   -1.3855   0.9132
H   1.2298   -0.8501   1.9939
H   2.9339   1.1924   -0.6522
H   2.6776   -0.3663   -1.4585
22
Frame 71: 71
C   -0.8756   -1.1170   0.1565
C   1.2076   0.0875   0.0431
C   -0.8133   1.7908   0.7696
C   1.9402   -0.5227   1.2294
C   2.1723   0.5149   -1.0502
N   0.2388   -0.9013   -0.5451
N   -2.0161   -1.5876   -0.4119
O   -1.6057   1.4739   -0.2981
H   -1.9755   0.5890   -0.1720
H   0.0192   -0.6313   -1.5141
H   -0.9118   -0.7909   1.1931
H   0.6011   0.9803   0.4006
H   -2.6834   -1.9720   0.2616
H   -1.8890   -2.2359   -1.1955
H   -0.4390   2.8078   0.7214
H   -1.0457   1.4190   1.7688
H   2.6108   0.2158   1.6807
H   1.6565   1.0317   -1.8672
H   2.5347   -1.3865   0.9141
H   1.2296   -0.8489   1.9937
H   2.9320   1.1949   -0.6525
H   2.6798   -0.3652   -1.4579
22
Frame 72: 72
C   -0.8755   -1.1176   0.1562
C   1.2075   0.0868   0.0435
C   -0.8128   1.7915   0.7696
C   1.9406   -0.5225   1.2298
C   2.1721   0.5148   -1.0499
N   0.2392   -0.9026   -0.5445
N   -2.0157   -1.5876   -0.4121
O   -1.6062   1.4744   -0.2973
H   -1.9758   0.5892   -0.1711
H   0.0206   -0.6339   -1.5141
H   -0.9127   -0.7914   1.1923
H   0.6003   0.9798   0.3999
H   -2.6831   -1.9712   0.2615
H   -1.8900   -2.2341   -1.1973
H   -0.4386   2.8089   0.7215
H   -1.0441   1.4181   1.7687
H   2.6120   0.2165   1.6796
H   1.6550   1.0301   -1.8672
H   2.5339   -1.3873   0.9147
H   1.2297   -0.8478   1.9939
H   2.9303   1.1971   -0.6526
H   2.6812   -0.3647   -1.4572
22
Frame 73: 73
C   -0.8754   -1.1181   0.1560
C   1.2074   0.0864   0.0438
C   -0.8121   1.7921   0.7696
C   1.9408   -0.5224   1.2302
C   2.1718   0.5148   -1.0497
N   0.2394   -0.9031   -0.5442
N   -2.0152   -1.5877   -0.4123
O   -1.6063   1.4745   -0.2966
H   -1.9759   0.5893   -0.1705
H   0.0217   -0.6355   -1.5144
H   -0.9131   -0.7917   1.1917
H   0.5995   0.9792   0.3993
H   -2.6829   -1.9706   0.2611
H   -1.8907   -2.2334   -1.1984
H   -0.4384   2.8099   0.7216
H   -1.0425   1.4175   1.7687
H   2.6125   0.2170   1.6791
H   1.6537   1.0290   -1.8674
H   2.5331   -1.3878   0.9150
H   1.2299   -0.8471   1.9944
H   2.9289   1.1987   -0.6525
H   2.6819   -0.3646   -1.4566
22
Frame 74: 74
C   -0.8751   -1.1185   0.1557
C   1.2075   0.0861   0.0439
C   -0.8113   1.7926   0.7698
C   1.9408   -0.5223   1.2306
C   2.1715   0.5149   -1.0499
N   0.2396   -0.9034   -0.5441
N   -2.0148   -1.5874   -0.4127
O   -1.6061   1.4747   -0.2956
H   -1.9757   0.5893   -0.1701
H   0.0228   -0.6372   -1.5149
H   -0.9129   -0.7926   1.1915
H   0.5988   0.9786   0.3986
H   -2.6829   -1.9697   0.2603
H   -1.8915   -2.2327   -1.1993
H   -0.4385   2.8109   0.7219
H   -1.0410   1.4172   1.7689
H   2.6128   0.2174   1.6789
H   1.6521   1.0275   -1.8679
H   2.5321   -1.3883   0.9154
H   1.2302   -0.8462   1.9953
H   2.9273   1.2004   -0.6525
H   2.6827   -0.3645   -1.4559
22
Frame 75: 75
C   -0.8748   -1.1191   0.1553
C   1.2076   0.0858   0.0439
C   -0.8102   1.7933   0.7703
C   1.9406   -0.5221   1.2310
C   2.1711   0.5150   -1.0502
N   0.2400   -0.9039   -0.5440
N   -2.0145   -1.5869   -0.4138
O   -1.6061   1.4749   -0.2941
H   -1.9753   0.5892   -0.1692
H   0.0244   -0.6399   -1.5157
H   -0.9124   -0.7937   1.1915
H   0.5981   0.9777   0.3977
H   -2.6829   -1.9688   0.2590
H   -1.8924   -2.2323   -1.2004
H   -0.4385   2.8120   0.7222
H   -1.0393   1.4179   1.7696
H   2.6129   0.2176   1.6790
H   1.6500   1.0255   -1.8688
H   2.5307   -1.3891   0.9159
H   1.2305   -0.8450   1.9965
H   2.9250   1.2027   -0.6527
H   2.6838   -0.3641   -1.4550
22
Frame 76: 76
C   -0.8743   -1.1199   0.1547
C   1.2077   0.0854   0.0435
C   -0.8092   1.7940   0.7712
C   1.9404   -0.5218   1.2315
C   2.1705   0.5152   -1.0509
N   0.2407   -0.9049   -0.5440
N   -2.0145   -1.5857   -0.4155
O   -1.6060   1.4753   -0.2922
H   -1.9747   0.5893   -0.1679
H   0.0266   -0.6435   -1.5168
H   -0.9114   -0.7959   1.1918
H   0.5974   0.9768   0.3968
H   -2.6830   -1.9676   0.2572
H   -1.8934   -2.2318   -1.2018
H   -0.4386   2.8130   0.7227
H   -1.0375   1.4193   1.7709
H   2.6131   0.2175   1.6793
H   1.6475   1.0225   -1.8702
H   2.5289   -1.3901   0.9171
H   1.2307   -0.8430   1.9982
H   2.9218   1.2057   -0.6536
H   2.6857   -0.3633   -1.4539
22
Frame 77: 77
C   -0.8737   -1.1211   0.1540
C   1.2076   0.0851   0.0431
C   -0.8084   1.7949   0.7725
C   1.9399   -0.5216   1.2319
C   2.1696   0.5154   -1.0515
N   0.2416   -0.9064   -0.5443
N   -2.0148   -1.5843   -0.4178
O   -1.6060   1.4758   -0.2901
H   -1.9739   0.5895   -0.1659
H   0.0289   -0.6476   -1.5181
H   -0.9102   -0.7982   1.1921
H   0.5970   0.9762   0.3961
H   -2.6833   -1.9662   0.2552
H   -1.8940   -2.2317   -1.2033
H   -0.4384   2.8139   0.7229
H   -1.0358   1.4216   1.7727
H   2.6133   0.2171   1.6797
H   1.6449   1.0192   -1.8719
H   2.5272   -1.3911   0.9184
H   1.2305   -0.8410   1.9998
H   2.9183   1.2090   -0.6550
H   2.6878   -0.3621   -1.4528
22
Frame 78: 78
C   -0.8733   -1.1221   0.1533
C   1.2073   0.0847   0.0429
C   -0.8081   1.7958   0.7737
C   1.9393   -0.5214   1.2322
C   2.1687   0.5154   -1.0520
N   0.2424   -0.9079   -0.5446
N   -2.0152   -1.5833   -0.4198
O   -1.6060   1.4763   -0.2886
H   -1.9731   0.5898   -0.1639
H   0.0308   -0.6508   -1.5191
H   -0.9092   -0.8002   1.1919
H   0.5969   0.9761   0.3961
H   -2.6838   -1.9649   0.2534
H   -1.8940   -2.2320   -1.2043
H   -0.4381   2.8146   0.7231
H   -1.0344   1.4238   1.7745
H   2.6134   0.2166   1.6800
H   1.6431   1.0164   -1.8733
H   2.5260   -1.3917   0.9197
H   1.2302   -0.8395   2.0010
H   2.9154   1.2116   -0.6566
H   2.6894   -0.3609   -1.4519
22
Frame 79: 79
C   -0.8732   -1.1227   0.1524
C   1.2067   0.0845   0.0429
C   -0.8080   1.7967   0.7747
C   1.9387   -0.5214   1.2325
C   2.1677   0.5155   -1.0520
N   0.2430   -0.9093   -0.5449
N   -2.0153   -1.5831   -0.4214
O   -1.6060   1.4766   -0.2876
H   -1.9724   0.5900   -0.1617
H   0.0322   -0.6528   -1.5198
H   -0.9087   -0.8011   1.1910
H   0.5970   0.9763   0.3966
H   -2.6844   -1.9637   0.2520
H   -1.8933   -2.2333   -1.2048
H   -0.4373   2.8152   0.7228
H   -1.0331   1.4257   1.7760
H   2.6133   0.2160   1.6802
H   1.6419   1.0146   -1.8742
H   2.5254   -1.3918   0.9206
H   1.2297   -0.8388   2.0017
H   2.9134   1.2132   -0.6580
H   2.6901   -0.3600   -1.4513
22
Frame 80: 80
C   -0.8734   -1.1229   0.1515
C   1.2060   0.0843   0.0432
C   -0.8077   1.7975   0.7752
C   1.9381   -0.5214   1.2328
C   2.1667   0.5155   -1.0519
N   0.2433   -0.9102   -0.5452
N   -2.0151   -1.5835   -0.4226
O   -1.6060   1.4767   -0.2867
H   -1.9718   0.5900   -0.1598
H   0.0331   -0.6538   -1.5202
H   -0.9085   -0.8015   1.1898
H   0.5970   0.9766   0.3974
H   -2.6851   -1.9625   0.2508
H   -1.8923   -2.2349   -1.2048
H   -0.4363   2.8158   0.7224
H   -1.0316   1.4269   1.7771
H   2.6132   0.2156   1.6802
H   1.6411   1.0136   -1.8748
H   2.5252   -1.3916   0.9212
H   1.2291   -0.8388   2.0021
H   2.9120   1.2143   -0.6592
H   2.6901   -0.3595   -1.4507
22
Frame 81: 81
C   -0.8739   -1.1226   0.1504
C   1.2054   0.0841   0.0437
C   -0.8072   1.7984   0.7756
C   1.9375   -0.5216   1.2331
C   2.1658   0.5156   -1.0517
N   0.2433   -0.9105   -0.5454
N   -2.0147   -1.5844   -0.4237
O   -1.6062   1.4766   -0.2856
H   -1.9712   0.5898   -0.1578
H   0.0338   -0.6544   -1.5205
H   -0.9087   -0.8013   1.1883
H   0.5967   0.9765   0.3982
H   -2.6858   -1.9614   0.2496
H   -1.8909   -2.2373   -1.2044
H   -0.4350   2.8165   0.7215
H   -1.0300   1.4281   1.7780
H   2.6128   0.2154   1.6802
H   1.6403   1.0130   -1.8752
H   2.5252   -1.3912   0.9213
H   1.2285   -0.8393   2.0021
H   2.9109   1.2151   -0.6600
H   2.6896   -0.3592   -1.4502
22
Frame 82: 82
C   -0.8744   -1.1221   0.1494
C   1.2050   0.0840   0.0440
C   -0.8065   1.7992   0.7759
C   1.9370   -0.5219   1.2333
C   2.1652   0.5157   -1.0516
N   0.2432   -0.9103   -0.5455
N   -2.0143   -1.5851   -0.4247
O   -1.6064   1.4765   -0.2842
H   -1.9705   0.5893   -0.1561
H   0.0344   -0.6548   -1.5209
H   -0.9089   -0.8011   1.1871
H   0.5964   0.9763   0.3988
H   -2.6864   -1.9603   0.2484
H   -1.8894   -2.2396   -1.2039
H   -0.4337   2.8170   0.7207
H   -1.0286   1.4293   1.7787
H   2.6123   0.2154   1.6803
H   1.6395   1.0126   -1.8755
H   2.5251   -1.3910   0.9214
H   1.2278   -0.8399   2.0021
H   2.9101   1.2159   -0.6606
H   2.6892   -0.3593   -1.4497
22
Frame 83: 83
C   -0.8749   -1.1214   0.1485
C   1.2049   0.0840   0.0442
C   -0.8057   1.7999   0.7763
C   1.9367   -0.5222   1.2335
C   2.1648   0.5159   -1.0517
N   0.2430   -0.9098   -0.5456
N   -2.0139   -1.5857   -0.4259
O   -1.6067   1.4763   -0.2826
H   -1.9698   0.5887   -0.1545
H   0.0351   -0.6552   -1.5213
H   -0.9094   -0.8006   1.1862
H   0.5959   0.9758   0.3993
H   -2.6868   -1.9595   0.2473
H   -1.8880   -2.2421   -1.2031
H   -0.4324   2.8174   0.7197
H   -1.0276   1.4308   1.7794
H   2.6116   0.2154   1.6805
H   1.6387   1.0123   -1.8756
H   2.5252   -1.3910   0.9213
H   1.2270   -0.8406   2.0018
H   2.9094   1.2166   -0.6610
H   2.6889   -0.3593   -1.4494
22
Frame 84: 84
C   -0.8753   -1.1210   0.1478
C   1.2049   0.0841   0.0442
C   -0.8051   1.8004   0.7768
C   1.9364   -0.5223   1.2335
C   2.1647   0.5160   -1.0519
N   0.2428   -0.9093   -0.5457
N   -2.0139   -1.5859   -0.4270
O   -1.6071   1.4762   -0.2811
H   -1.9691   0.5882   -0.1531
H   0.0357   -0.6556   -1.5218
H   -0.9099   -0.8006   1.1858
H   0.5956   0.9753   0.3994
H   -2.6871   -1.9588   0.2462
H   -1.8867   -2.2440   -1.2024
H   -0.4312   2.8174   0.7191
H   -1.0271   1.4323   1.7802
H   2.6111   0.2155   1.6806
H   1.6381   1.0118   -1.8758
H   2.5252   -1.3911   0.9215
H   1.2262   -0.8409   2.0013
H   2.9088   1.2174   -0.6615
H   2.6890   -0.3594   -1.4490
22
Frame 85: 85
C   -0.8755   -1.1208   0.1474
C   1.2050   0.0841   0.0439
C   -0.8048   1.8007   0.7775
C   1.9362   -0.5225   1.2334
C   2.1647   0.5161   -1.0521
N   0.2427   -0.9088   -0.5459
N   -2.0140   -1.5859   -0.4280
O   -1.6074   1.4762   -0.2797
H   -1.9684   0.5877   -0.1518
H   0.0364   -0.6558   -1.5223
H   -0.9106   -0.8006   1.1857
H   0.5953   0.9750   0.3995
H   -2.6874   -1.9583   0.2454
H   -1.8857   -2.2458   -1.2017
H   -0.4301   2.8174   0.7186
H   -1.0270   1.4338   1.7810
H   2.6105   0.2156   1.6806
H   1.6375   1.0112   -1.8760
H   2.5252   -1.3914   0.9219
H   1.2254   -0.8410   2.0007
H   2.9082   1.2182   -0.6620
H   2.6893   -0.3594   -1.4486
22
Frame 86: 86
C   -0.8755   -1.1210   0.1473
C   1.2050   0.0842   0.0436
C   -0.8046   1.8008   0.7781
C   1.9360   -0.5224   1.2332
C   2.1647   0.5161   -1.0523
N   0.2426   -0.9085   -0.5462
N   -2.0142   -1.5856   -0.4288
O   -1.6075   1.4762   -0.2789
H   -1.9676   0.5874   -0.1510
H   0.0369   -0.6557   -1.5228
H   -0.9111   -0.8010   1.1857
H   0.5952   0.9748   0.3994
H   -2.6876   -1.9579   0.2448
H   -1.8851   -2.2466   -1.2012
H   -0.4293   2.8170   0.7187
H   -1.0271   1.4345   1.7818
H   2.6100   0.2159   1.6805
H   1.6371   1.0102   -1.8765
H   2.5250   -1.3916   0.9225
H   1.2246   -0.8405   2.0002
H   2.9078   1.2190   -0.6627
H   2.6900   -0.3594   -1.4480
