7
Image 0  Energy = -29.67961370
C   0.8260657415  0.5508603911 -0.1261794589
H   0.4554445983  1.2417513435 -0.8784317668
O   0.5680753083  1.0246514429  1.1187434847
C   1.4411098584 -0.5873603774 -0.4363613732
H   0.9099091373  0.3932317500  1.7666320721
H   1.5916834696 -0.8592929697 -1.4741885892
H   1.8089534565 -1.2734747403  0.3237244514
7
Image 1  Energy = -29.66282809
C   0.8154533914  0.5937828411 -0.1376350721
H   0.5006335769  1.2603960839 -0.9181345506
O   0.5352843572  1.0592635551  1.1067248808
C   1.4270176026 -0.5789791747 -0.3861968317
H   0.9377957177  0.2388283936  1.7167761925
H   1.5285210223 -0.9050668934 -1.3910285132
H   1.8565359019 -1.1778579655  0.3034327143
7
Image 2  Energy = -29.60330056
C   0.8095593546  0.6331655501 -0.1231508606
H   0.5659557914  1.2721745858 -0.9335530248
O   0.4836916633  1.1198758617  1.0672099541
C   1.4116325360 -0.5743503874 -0.3142789952
H   0.9574062334  0.0723391200  1.6293577342
H   1.4379209192 -0.9457576915 -1.2865950483
H   1.9350750720 -1.0870801986  0.2549490606
7
Image 3  Energy = -29.53636951
C   0.8035580743  0.6726019522 -0.1088862810
H   0.6313746035  1.2841824251 -0.9491969517
O   0.4318235903  1.1802029717  1.0273789021
C   1.3962524330 -0.5695364091 -0.2423067120
H   0.9776205455 -0.0943240044  1.5426423571
H   1.3475851841 -0.9865355457 -1.1818147840
H   2.0130271394 -0.9962245498  0.2061222894
7
Image 4  Energy = -29.51054768
C   0.7975462618  0.7120436274 -0.0946432709
H   0.6968029022  1.2962127870 -0.9648630199
O   0.3799284730  1.2405020732  0.9875168042
C   1.3808728174 -0.5647042436 -0.1703290817
H   0.9978941550 -0.2610042023  1.4559960280
H   1.2572754119 -1.0273219494 -1.0770004613
H   2.0909215487 -0.9053612523  0.1572618216
7
Image 5  Energy = -29.55522635
C   0.7914736844  0.7515663294 -0.0806271142
H   0.7624350542  1.3084951465 -0.9807018712
O   0.3278150088  1.3005102533  0.9473105539
C   1.3654521982 -0.5596492605 -0.0983207156
H   1.0186583388 -0.4279591670  1.3701269171
H   1.1671690932 -1.0680631332 -0.9718934566
H   2.1682381924 -0.8145333285  0.1080445067
7
Image 6  Energy = -29.62775550
C   0.7853960172  0.7910958185 -0.0666299595
H   0.8280842815  1.3207986139 -0.9965551954
O   0.2756832553  1.3604940651  0.9070754764
C   1.3500281444 -0.5545756135 -0.0263097750
H   1.0394636146 -0.5949371469  1.2843229081
H   1.0770798163 -1.1088005293 -0.8667619360
H   2.2455064407 -0.7237083678  0.0587973012
7
Image 7  Energy = -29.68790320
C   0.7845346108  0.8284529470 -0.0518987629
H   0.9041440209  1.3306788115 -1.0099261838
O   0.2313597341  1.4145165533  0.8647809769
C   1.3302058427 -0.5453820285  0.0445710599
H   1.0519946246 -0.7593743450  1.1952716674
H   0.9778248932 -1.1453910075 -0.7624928037
H   2.3211778436 -0.6331340909  0.0136328663
7
Image 8  Energy = -29.70969716
C   0.7840367852  0.8656586589 -0.0371164025
H   0.9809293880  1.3403901038 -1.0231241499
O   0.1875804579  1.4681235287  0.8223429327
C   1.3100769769 -0.5359012779  0.1153731248
H   1.0639489065 -0.9236344469  1.1059940899
H   0.8779311114 -1.1816924395 -0.6582837811
H   2.3967379442 -0.5425772870 -0.0312469938
