22
Image 0  Energy = -383.5281735610
C  -0.7781260000 -1.0675610000  0.3210590000
C   1.3025530000  0.0521200000 -0.0282990000
C  -0.9719930000  1.4562490000  0.8236570000
C   1.9812290000 -0.4184330000  1.2501750000
C   2.2640330000  0.4351680000 -1.1331070000
N   0.2911640000 -0.8768210000 -0.5003990000
N  -2.0191630000 -1.3720060000 -0.2331120000
O  -1.6647340000  1.6302230000 -0.4018370000
H  -2.2586320000  0.8701390000 -0.4758990000
H   0.0278490000 -0.6783120000 -1.4584950000
H  -0.6097590000 -1.3678560000  1.3411780000
H   0.6812640000  0.9183000000  0.2869410000
H  -2.5732630000 -2.0573610000  0.2574120000
H  -2.0524280000 -1.5045420000 -1.2338230000
H  -0.3689930000  2.3513920000  0.9917470000
H  -1.6396090000  1.2942150000  1.6746530000
H   2.7644490000  0.2914620000  1.5228460000
H   1.7251140000  0.7306950000 -2.0377940000
H   2.4355930000 -1.4060980000  1.1342150000
H   1.2730050000 -0.4472240000  2.0805790000
H   2.8503450000  1.2986970000 -0.8143220000
H   2.9600090000 -0.3688060000 -1.3889100000
22
Image 1  Energy = -383.5280898252
C  -0.7780744977 -1.0682551050  0.3209896724
C   1.3024043697  0.0521704947 -0.0282825088
C  -0.9714503187  1.4567389493  0.8235666042
C   1.9811930370 -0.4183931102  1.2502647638
C   2.2639656268  0.4352408538 -1.1330758553
N   0.2910920216 -0.8766922717 -0.5003651200
N  -2.0193158570 -1.3720730894 -0.2331814948
O  -1.6647301810  1.6302406418 -0.4018664214
H  -2.2586520095  0.8700950307 -0.4758765811
H   0.0278703423 -0.6783378641 -1.4585273206
H  -0.6097656269 -1.3678242155  1.3411921730
H   0.6811726397  0.9182952210  0.2870137693
H  -2.5732930451 -2.0574089498  0.2574021489
H  -2.0524759831 -1.5045479598 -1.2338480979
H  -0.3690257884  2.3514927413  0.9917593106
H  -1.6395583028  1.2941162853  1.6746785336
H   2.7644586571  0.2914803351  1.5228519741
H   1.7251078847  0.7307047644 -2.0378139433
H   2.4356013710 -1.4061070677  1.1342160556
H   1.2730118510 -0.4472106574  2.0805978443
H   2.8503441982  1.2987218567 -0.8143194664
H   2.9600266112 -0.3688068836 -1.3889110401
22
Image 2  Energy = -383.5363549058
C  -0.7865038089 -0.9511644327  0.3411744110
C   1.3211225323  0.0462385334 -0.0326747607
C  -1.0343115378  1.3900543531  0.8305386628
C   1.9861558990 -0.4237001564  1.2401669193
C   2.2740135683  0.4266300902 -1.1378622662
N   0.3054662144 -0.8952224970 -0.5044225046
N  -1.9985057111 -1.3616442565 -0.2255149298
O  -1.6696373657  1.6274901892 -0.3974383937
H  -2.2589505482  0.8754916608 -0.4828469965
H   0.0245073591 -0.6735214702 -1.4539169270
H  -0.6089805570 -1.3709911457  1.3349608347
H   0.6995574092  0.9164747816  0.2734162743
H  -2.5654065814 -2.0467234501  0.2594010784
H  -2.0431425114 -1.5022903920 -1.2268042194
H  -0.3732360426  2.3150264371  0.9882839328
H  -1.6610262306  1.3082272044  1.6810685087
H   2.7631334425  0.2881546709  1.5216813786
H   1.7263800557  0.7286493108 -2.0343503481
H   2.4354012851 -1.4067454436  1.1336527886
H   1.2733679363 -0.4495127028  2.0749832595
H   2.8508456862  1.2940137253 -0.8150893089
H   2.9596563019 -0.3712949776 -1.3899418438
22
Image 3  Energy = -383.5426298051
C  -0.7963681970 -0.8323741340  0.3692069746
C   1.3334432501  0.0428354080 -0.0397090899
C  -1.0830270622  1.3252968644  0.8262605669
C   1.9911556954 -0.4277402505  1.2341623669
C   2.2830655664  0.4218021578 -1.1417377797
N   0.3197911999 -0.9093746821 -0.5041735874
N  -1.9825112629 -1.3454624933 -0.2174147294
O  -1.6771016656  1.6269269454 -0.3900034155
H  -2.2665924425  0.8762854889 -0.4957116094
H   0.0221813647 -0.6677859276 -1.4484804432
H  -0.6088095128 -1.3683242612  1.3248705833
H   0.7263618154  0.9129936957  0.2561606701
H  -2.5528368363 -2.0321256169  0.2628442278
H  -2.0301034496 -1.4986492448 -1.2185569305
H  -0.3815034331  2.2592504259  0.9848501121
H  -1.6955086799  1.3201564640  1.6963380461
H   2.7629654743  0.2847223589  1.5206049303
H   1.7279633705  0.7259451149 -2.0313440000
H   2.4366239042 -1.4101031674  1.1324611765
H   1.2748624386 -0.4524178418  2.0669558149
H   2.8531990778  1.2892604631 -0.8163464504
H   2.9626561135 -0.3774777329 -1.3927717604
22
Image 4  Energy = -383.5530200587
C  -0.8130609453 -0.6323741311  0.4259165920
C   1.3575284141  0.0342096036 -0.0545650931
C  -1.1630792070  1.1908432101  0.8265091391
C   2.0011654536 -0.4339312555  1.2247729161
C   2.3003866352  0.4138007986 -1.1493738681
N   0.3278792391 -0.9174204281 -0.4893565339
N  -1.9620461646 -1.2936033417 -0.2012503446
O  -1.7103026001  1.6184091390 -0.3805176437
H  -2.2891418985  0.8805604001 -0.5332363468
H   0.0219522169 -0.6566279586 -1.4326623055
H  -0.6120418331 -1.3374899756  1.2996540467
H   0.7883370040  0.9143597124  0.2194499496
H  -2.5216845860 -1.9982270398  0.2747517373
H  -1.9966530957 -1.4869991286 -1.1981515877
H  -0.3980537338  2.1198877182  0.9800833936
H  -1.7635033714  1.3365662709  1.7150619642
H   2.7666684001  0.2793254298  1.5197090315
H   1.7317552743  0.7201990535 -2.0282465166
H   2.4407379439 -1.4194326680  1.1289944062
H   1.2783204773 -0.4592569980  2.0504966498
H   2.8634366142  1.2827054828 -0.8191851705
H   2.9713065030 -0.3918638979 -1.4003888829
22
Image 5  Energy = -383.5674341239
C  -0.8404435445 -0.5009383046  0.4712496794
C   1.3847389980  0.0254197569 -0.0644121474
C  -1.2234557952  1.0613847380  0.8152821647
C   2.0161757509 -0.4413358637  1.2169153708
C   2.3221061543  0.4039075908 -1.1611162188
N   0.3198138496 -0.8886430225 -0.4608167292
N  -1.9635553589 -1.2224021737 -0.1757798065
O  -1.7330602253  1.6149362620 -0.3562327090
H  -2.3393712691  0.8671837097 -0.5897037011
H   0.0232836392 -0.6458912678 -1.4106566842
H  -0.6197254324 -1.2654789668  1.2788448061
H   0.8524639649  0.9310400406  0.1842256869
H  -2.4812084352 -1.9531322145  0.2899155184
H  -1.9532919497 -1.4679114396 -1.1744632434
H  -0.4168935680  1.9507510003  0.9801911977
H  -1.8274094524  1.3337246704  1.7189234302
H   2.7737510859  0.2738266512  1.5198314665
H   1.7373699890  0.7138576036 -2.0277777202
H   2.4460281187 -1.4287769860  1.1251323419
H   1.2817090169 -0.4668057912  2.0338867203
H   2.8778600582  1.2754151372 -0.8236404021
H   2.9830213312 -0.4064912046 -1.4113341667
22
Image 6  Energy = -383.6046226722
C  -0.8736919355 -0.4948939457  0.4901087027
C   1.4024601537  0.0300677723 -0.0664951758
C  -1.2393462613  0.9954421153  0.8156457362
C   2.0323432165 -0.4463115998  1.2179157229
C   2.3422693327  0.3953021590 -1.1740921593
N   0.2898901629 -0.8174512497 -0.4174250172
N  -2.0011786190 -1.1313759644 -0.1654495784
O  -1.7834826815  1.5746091154 -0.3449601538
H  -2.3892274550  0.8734906066 -0.6550735307
H   0.0257552713 -0.6344943335 -1.3846423878
H  -0.6327560956 -1.1476837751  1.2749147696
H   0.9191616593  0.9644896420  0.1556316122
H  -2.4363731062 -1.9045966626  0.3154046252
H  -1.8994006522 -1.4373302540 -1.1366564866
H  -0.4376228360  1.7507509973  0.9895316311
H  -1.8760394627  1.2916591208  1.6969635759
H   2.7872712028  0.2689135749  1.5221429073
H   1.7459122939  0.7067362977 -2.0320454793
H   2.4554121585 -1.4417809043  1.1206180705
H   1.2869331564 -0.4747889607  2.0162665293
H   2.8985175640  1.2671890117 -0.8309832887
H   3.0031004131 -0.4243029947 -1.4288575150
22
Image 7  Energy = -383.6172361238
C  -0.8889776463 -0.5410303734  0.4171563875
C   1.3953429684  0.0620248286 -0.0455230022
C  -1.2277538601  1.0222977628  0.8055813364
C   2.0441843861 -0.4469033943  1.2219354597
C   2.3517881088  0.3805469202 -1.1825161238
N   0.2462810690 -0.7536895162 -0.3972272494
N  -2.0903008474 -1.0811469366 -0.1724517072
O  -1.8179407674  1.5509123054 -0.3492373016
H  -2.4423154197  0.8655624000 -0.7034578916
H   0.0244692039 -0.6221614917 -1.3614848006
H  -0.6372251987 -1.0861499179  1.3621666787
H   0.9700714206  1.0196702028  0.1537181208
H  -2.4016447840 -1.8659059466  0.3382662754
H  -1.8508218460 -1.4054407521 -1.1002910446
H  -0.4264636805  1.6008323368  1.0061581605
H  -1.8994824631  1.2056960206  1.6659338132
H   2.8088411496  0.2663094534  1.5298598760
H   1.7578049507  0.7008114539 -2.0439955885
H   2.4666294062 -1.4511658605  1.1160747218
H   1.2912428814 -0.4809725370  2.0090189095
H   2.9228420444  1.2581667022 -0.8425749039
H   3.0233369313 -0.4346240381 -1.4486486562
22
Image 8  Energy = -383.6269814139
C  -0.9053683685 -0.4766852967  0.4591552619
C   1.4046741175  0.0678840863 -0.0462845993
C  -1.2860966857  0.9466825058  0.7959064473
C   2.0518093452 -0.4482719928  1.2203968570
C   2.3597085957  0.3732234917 -1.1861049092
N   0.2450477577 -0.7396730835 -0.3949252894
N  -2.1028725873 -1.0354733725 -0.1810279801
O  -1.8570725727  1.5326996908 -0.3634305012
H  -2.4548677686  0.8801657913 -0.7246369493
H   0.0221843425 -0.6111508803 -1.3565311833
H  -0.6484622138 -1.0422407780  1.3698156524
H   1.0102513810  1.0482251769  0.1444139912
H  -2.3853048468 -1.8518923479  0.3571374580
H  -1.8257190705 -1.3926813348 -1.0805479318
H  -0.3985624371  1.5181506585  1.0167550151
H  -1.9286421915  1.1742046740  1.6575964105
H   2.8184167857  0.2615812814  1.5329248637
H   1.7655276479  0.6956231984 -2.0473818699
H   2.4718270174 -1.4556429284  1.1121189059
H   1.2952894631 -0.4860933117  2.0020589851
H   2.9353229935  1.2484278127 -0.8504461080
H   3.0328174347 -0.4434234681 -1.4585015014
22
Image 9  Energy = -383.6299827064
C  -0.8989506707 -0.5419930033  0.4733106889
C   1.3925712276  0.0688991031 -0.0462961820
C  -1.2670894053  0.9985271846  0.7819914385
C   2.0448776058 -0.4435142868  1.2241730748
C   2.3478200888  0.3796017661 -1.1781429235
N   0.2612946931 -0.7584684807 -0.4116541748
N  -2.0918451609 -1.0791406777 -0.1865898688
O  -1.8330774973  1.5552161668 -0.3727954163
H  -2.4361950024  0.8765405360 -0.6940990758
H   0.0182138708 -0.6123718320 -1.3803260020
H  -0.6537128586 -1.0732010398  1.3676880642
H   0.9776645494  1.0479256759  0.1680994894
H  -2.4103657594 -1.8769489801  0.3465587651
H  -1.8521095112 -1.4085365708 -1.1009249698
H  -0.3743359746  1.6202689569  1.0185659679
H  -1.9006576804  1.1688314847  1.6605434739
H   2.8151908315  0.2618074618  1.5338312773
H   1.7653481212  0.6974981379 -2.0478891625
H   2.4680046791 -1.4465262620  1.1124398570
H   1.2947660359 -0.4827721693  2.0137799646
H   2.9284089716  1.2470282487 -0.8518658639
H   3.0240868500 -0.4350318009 -1.4519369075
22
Image 10  Energy = -383.6342906914
C  -0.9125553983 -0.5145439244  0.4715547033
C   1.3951113809  0.0801582752 -0.0459401606
C  -1.2590870794  0.9854388307  0.7762230909
C   2.0481284086 -0.4424171961  1.2233384557
C   2.3516870054  0.3745441528 -1.1805209135
N   0.2561915269 -0.7508362968 -0.4034553110
N  -2.1000194322 -1.0709290092 -0.1705763695
O  -1.8401976213  1.5580819756 -0.3771758133
H  -2.4524390581  0.8746972682 -0.7062392539
H   0.0129728884 -0.6013864640 -1.3836152340
H  -0.6651406364 -1.0547908973  1.3873837522
H   0.9980053534  1.0688788338  0.1720886867
H  -2.4082738047 -1.8688245634  0.3483776467
H  -1.8401357158 -1.4092658919 -1.1013837329
H  -0.3750144997  1.5772677671  1.0203118659
H  -1.9158650810  1.1359158553  1.6543388334
H   2.8222027517  0.2574065976  1.5374529060
H   1.7725072453  0.6935572739 -2.0511911693
H   2.4701382695 -1.4444504760  1.1084445307
H   1.2985351158 -0.4855116237  2.0150121677
H   2.9374931749  1.2383591247 -0.8598571425
H   3.0256633053 -0.4377100146 -1.4561103060
22
Image 11  Energy = -383.6367837034
C  -0.9202476664 -0.4939915295  0.4726889641
C   1.3948968386  0.0960967342 -0.0418242224
C  -1.2578268059  0.9765701848  0.7676247391
C   2.0508310148 -0.4384669709  1.2230013369
C   2.3545191240  0.3690952545 -1.1838857305
N   0.2458545290 -0.7385457930 -0.4034309361
N  -2.1065521627 -1.0649781010 -0.1728211549
O  -1.8488521385  1.5582170671 -0.3849618465
H  -2.4669425585  0.8778183769 -0.7147645174
H   0.0073371793 -0.5869131785 -1.3801990420
H  -0.6834315361 -1.0302240346  1.4115003670
H   1.0228776974  1.0960699177  0.1804232722
H  -2.4112713819 -1.8684809392  0.3549503408
H  -1.8320998073 -1.4068809319 -1.0891450385
H  -0.3696801397  1.5349833231  1.0235541048
H  -1.9288340831  1.0878257960  1.6412442573
H   2.8320941807  0.2514558002  1.5430378282
H   1.7824090474  0.6883325165 -2.0567378234
H   2.4726486642 -1.4407515312  1.1019904652
H   1.3045228555 -0.4887476731  2.0181353398
H   2.9509419860  1.2273675002 -0.8712006794
H   3.0267133797 -0.4422122128 -1.4607191271
22
Image 12  Energy = -383.6389703398
C  -0.9204939005 -0.4872210840  0.4671025518
C   1.3910745569  0.1121474063 -0.0392226277
C  -1.2644274638  0.9713791944  0.7567827119
C   2.0507493526 -0.4312486706  1.2234042941
C   2.3547015244  0.3661978699 -1.1855788282
N   0.2410281327 -0.7213474725 -0.3983727705
N  -2.1072964039 -1.0752266773 -0.1618184541
O  -1.8486962504  1.5601050029 -0.3937040523
H  -2.4734912687  0.8875226194 -0.7108700969
H  -0.0026071860 -0.5648823388 -1.3770745761
H  -0.7114870345 -1.0055451784  1.4314218244
H   1.0463740216  1.1236196464  0.1964273354
H  -2.4245969213 -1.8734500373  0.3544211098
H  -1.8313731704 -1.4144030972 -1.0851098381
H  -0.3615052602  1.5194955628  1.0266006232
H  -1.9346950875  1.0287131130  1.6209886824
H   2.8435776665  0.2438594811  1.5508003320
H   1.7940930739  0.6822708029 -2.0661514634
H   2.4729905022 -1.4312980128  1.0908025467
H   1.3142456806 -0.4914822066  2.0264156366
H   2.9694694752  1.2147061884 -0.8870170457
H   3.0222742647 -0.4502725442 -1.4617872250
22
Image 13  Energy = -383.6407799375
C  -0.9229055899 -0.4931752104  0.4707445544
C   1.3924834037  0.1335717725 -0.0327153731
C  -1.2546763525  0.9668675149  0.7410925678
C   2.0519206900 -0.4213080966  1.2239002998
C   2.3546334293  0.3635884859 -1.1882237084
N   0.2439868754 -0.6982634113 -0.3999662557
N  -2.0911619630 -1.0926760302 -0.1628053328
O  -1.8338050292  1.5700999223 -0.3977056348
H  -2.4801737242  0.8997035634 -0.6997763416
H  -0.0155769388 -0.5326812275 -1.3645041903
H  -0.7469184456 -0.9764480125  1.4386530217
H   1.0700635412  1.1476376957  0.2171124940
H  -2.4510324958 -1.8955862320  0.3563329269
H  -1.8441493059 -1.4311588607 -1.0790982542
H  -0.3715395969  1.5238691910  1.0268123878
H  -1.9452474425  0.9630999177  1.6012119358
H   2.8555541432  0.2347625532  1.5597818477
H   1.8071185366  0.6752614382 -2.0805454561
H   2.4697786177 -1.4158167755  1.0719345623
H   1.3279538940 -0.4932784435  2.0404537701
H   2.9956068607  1.2011061966 -0.9078857401
H   3.0079952605 -0.4655363839 -1.4563435407
22
Image 14  Energy = -383.6418208738
C  -0.9161873790 -0.4987582750  0.4671927618
C   1.3976094930  0.1355866314 -0.0314327313
C  -1.2620955722  0.9655210502  0.7469396535
C   2.0532202607 -0.4194675941  1.2254362560
C   2.3567747371  0.3659549321 -1.1897367126
N   0.2485912308 -0.6951523215 -0.3958751154
N  -2.0920514435 -1.1070930331 -0.1632084896
O  -1.8300154818  1.5663747373 -0.3963426013
H  -2.4755992647  0.9091742506 -0.6945557938
H  -0.0177451099 -0.5228654275 -1.3594768970
H  -0.7485191429 -0.9746022062  1.4327691585
H   1.0712766142  1.1464647310  0.2182026410
H  -2.4530421188 -1.8945456678  0.3528559253
H  -1.8497633193 -1.4378943960 -1.0799688674
H  -0.3821201683  1.5347068409  1.0272498581
H  -1.9465860235  0.9622780654  1.5966104539
H   2.8566673368  0.2347509127  1.5604113841
H   1.8080228734  0.6740487908 -2.0827895819
H   2.4678492449 -1.4143388704  1.0653795192
H   1.3314987163 -0.4924271993  2.0422318297
H   3.0013609809  1.1996084815 -0.9121345925
H   3.0007618918 -0.4736848557 -1.4512974716
22
Image 15  Energy = -383.6424537811
C  -0.9146181222 -0.5027073295  0.4636300409
C   1.4029867950  0.1380215968 -0.0301160390
C  -1.2695015225  0.9606014453  0.7491943873
C   2.0562252179 -0.4186075369  1.2265208832
C   2.3596704762  0.3667571183 -1.1911111605
N   0.2544929186 -0.6925756285 -0.3930244944
N  -2.0903896184 -1.1131629945 -0.1630265669
O  -1.8241795217  1.5655559028 -0.3933182504
H  -2.4754121449  0.9165762343 -0.6924015425
H  -0.0191200541 -0.5109737784 -1.3536666041
H  -0.7472058163 -0.9743951885  1.4289396959
H   1.0726205562  1.1469713381  0.2186454457
H  -2.4551028337 -1.8967427789  0.3528257490
H  -1.8541776095 -1.4472138337 -1.0848664185
H  -0.3937338874  1.5446716302  1.0296988484
H  -1.9527313588  0.9630673538  1.5952049390
H   2.8589687539  0.2355938262  1.5612455154
H   1.8089343737  0.6725800114 -2.0846785731
H   2.4659652415 -1.4136638024  1.0579616843
H   1.3350738793 -0.4913639756  2.0435252157
H   3.0086874283  1.1981963494 -0.9171066806
H   2.9924551994 -0.4835463743 -1.4456154567
22
Image 16  Energy = -383.6435162187
C  -0.9136951804 -0.5075508197  0.4601132278
C   1.4124202675  0.1481168225 -0.0262739713
C  -1.2796189909  0.9518597052  0.7522985381
C   2.0651859744 -0.4160796396  1.2275238668
C   2.3664216690  0.3651192060 -1.1932275742
N   0.2640440004 -0.6852557502 -0.3880189215
N  -2.0895019775 -1.1260497395 -0.1674268598
O  -1.8173038451  1.5647859082 -0.3919533335
H  -2.4810318427  0.9346050561 -0.6929360520
H  -0.0212067014 -0.4784147039 -1.3416730404
H  -0.7439155242 -0.9722374838  1.4277396354
H   1.0803005252  1.1566405861  0.2210763506
H  -2.4572024825 -1.8991962723  0.3551004068
H  -1.8614679197 -1.4681972000 -1.0923853056
H  -0.4210271113  1.5540296675  1.0393298330
H  -1.9757893281  0.9561625091  1.5933105660
H   2.8685515137  0.2369820391  1.5646430577
H   1.8134632273  0.6675638177 -2.0886684815
H   2.4631864834 -1.4130254762  1.0397197051
H   1.3445254642 -0.4894930168  2.0458593324
H   3.0298813312  1.1918287405 -0.9318955932
H   2.9736888167 -0.5085543673 -1.4337947874
22
Image 17  Energy = -383.6443242728
C  -0.9114387011 -0.5144767612  0.4596502204
C   1.4258323259  0.1726622462 -0.0147151284
C  -1.3237028730  0.9381773612  0.7678966834
C   2.0852074167 -0.4087733302  1.2264322160
C   2.3796301439  0.3573176378 -1.1947923739
N   0.2716692501 -0.6709655152 -0.3896582855
N  -2.0807615068 -1.1390349261 -0.1865674703
O  -1.8078042887  1.5675952742 -0.3937566481
H  -2.5035607816  0.9681318530 -0.7048232596
H  -0.0178800761 -0.4081271261 -1.3183061887
H  -0.7280954735 -0.9786193797  1.4299829533
H   1.0948073691  1.1823092686  0.2249987697
H  -2.4571029050 -1.9065721184  0.3669747631
H  -1.8704401696 -1.5105355191 -1.1019368633
H  -0.4670027257  1.5657036832  1.0715125228
H  -2.0235236333  0.9455893586  1.5811751693
H   2.8924431899  0.2378177020  1.5704361267
H   1.8252328927  0.6545728177 -2.0905166708
H   2.4608211627 -1.4134608684  1.0047483376
H   1.3661200835 -0.4860838372  2.0451637866
H   3.0740312068  1.1703751737 -0.9648878333
H   2.9354265016 -0.5599634069 -1.4105503040
22
Image 18  Energy = -383.6457739740
C  -0.9155989958 -0.5141600391  0.4620810377
C   1.4267485356  0.1820224041 -0.0128261070
C  -1.3214226580  0.9385305577  0.7625546777
C   2.0917572212 -0.4064710708  1.2241542781
C   2.3823548520  0.3507289502 -1.1929469875
N   0.2744470442 -0.6596605946 -0.3858655158
N  -2.0797206999 -1.1457358083 -0.1837948545
O  -1.8108925849  1.5679985734 -0.3969622820
H  -2.5130271513  0.9808030554 -0.7110308482
H  -0.0182436191 -0.3800327264 -1.3164514472
H  -0.7255293443 -0.9797386925  1.4334533606
H   1.1022122306  1.1973996475  0.2292518563
H  -2.4557373751 -1.9049973330  0.3682785813
H  -1.8689007232 -1.5259373938 -1.1053562991
H  -0.4842393812  1.5593670138  1.0851970405
H  -2.0495570236  0.9325879464  1.5805173167
H   2.9035587158  0.2357068878  1.5728643499
H   1.8313103094  0.6487470592 -2.0915010188
H   2.4609653928 -1.4101568102  0.9935249357
H   1.3749990615 -0.4858251064  2.0455117362
H   3.0916845976  1.1584985393 -0.9783058884
H   2.9227400367 -0.5760354753 -1.4038874738
22
Image 19  Energy = -383.6465990960
C  -0.9183185711 -0.5103309110  0.4665943163
C   1.4246469044  0.1902018526 -0.0108031141
C  -1.3243022063  0.9406092006  0.7610193074
C   2.0960931257 -0.4038265494  1.2208357364
C   2.3826703540  0.3433760695 -1.1898401827
N   0.2709064273 -0.6477741172 -0.3876133241
N  -2.0769518795 -1.1486671929 -0.1848902010
O  -1.8180664816  1.5692619162 -0.4018538289
H  -2.5226707907  0.9889299736 -0.7195283462
H  -0.0159917223 -0.3589372121 -1.3171569602
H  -0.7209387981 -0.9851047077  1.4364096236
H   1.1069492688  1.2104532771  0.2324318149
H  -2.4522394490 -1.9028251954  0.3705775315
H  -1.8629641970 -1.5343936900 -1.1011851689
H  -0.4931473317  1.5491224767  1.1005742928
H  -2.0694706896  0.9235163728  1.5760156098
H   2.9132296169  0.2317964626  1.5729515510
H   1.8367473236  0.6430323876 -2.0895963293
H   2.4630161726 -1.4065719862  0.9878632870
H   1.3824477045 -0.4863195981  2.0439351449
H   3.1038718997  1.1439176702 -0.9882162707
H   2.9143917915 -0.5858269221 -1.4000641138
22
Image 20  Energy = -383.6474627739
C  -0.9197010193 -0.5059201035  0.4706604171
C   1.4242082002  0.2058567425 -0.0064521404
C  -1.3416327076  0.9395616325  0.7626446540
C   2.1035632226 -0.3976666007  1.2161317928
C   2.3829370530  0.3327481618 -1.1854524366
N   0.2664705365 -0.6239076630 -0.3879765564
N  -2.0710685505 -1.1544475685 -0.1860488394
O  -1.8265143420  1.5722638049 -0.4069016229
H  -2.5399323480  1.0042950899 -0.7342232791
H  -0.0133975005 -0.3168901026 -1.3181522952
H  -0.7110257010 -0.9947321552  1.4358021637
H   1.1151643246  1.2313604593  0.2373060220
H  -2.4463489958 -1.9002376425  0.3757139516
H  -1.8503441335 -1.5517778261 -1.0935998319
H  -0.5124673075  1.5363140476  1.1300101044
H  -2.1045977259  0.9113304108  1.5638957792
H   2.9305026853  0.2243259545  1.5710689214
H   1.8456834708  0.6319397881 -2.0867443050
H   2.4669720211 -1.4004074200  0.9757107521
H   1.3968900533 -0.4870558479  2.0417563574
H   3.1272192868  1.1153024936 -1.0055200896
H   2.8973279987 -0.6086160801 -1.3911692615
22
Image 21  Energy = -383.6478762921
C  -0.9248810475 -0.5004002654  0.4708007760
C   1.4293247710  0.2320939006  0.0028354945
C  -1.3702936196  0.9341020604  0.7682317075
C   2.1139212628 -0.3910629681  1.2095770029
C   2.3879293052  0.3085423598 -1.1832057063
N   0.2603573914 -0.5683560372 -0.4052358636
N  -2.0561215011 -1.1599831343 -0.1835549681
O  -1.8429905168  1.5706105437 -0.4076819961
H  -2.5538511492  1.0333242581 -0.7505004805
H  -0.0128990477 -0.2508004874 -1.3089933040
H  -0.6958469079 -1.0040581745  1.4176932090
H   1.1288180360  1.2597168531  0.2454352313
H  -2.4403137936 -1.9024770903  0.3890336553
H  -1.8145271027 -1.5784291639 -1.0747765678
H  -0.5565453223  1.5166279857  1.1761828984
H  -2.1635955842  0.8949166402  1.5378199411
H   2.9566484900  0.2099465147  1.5595075826
H   1.8537861634  0.6139329157 -2.0887849660
H   2.4738834502 -1.3835364073  0.9572006060
H   1.4189186448 -0.4891151450  2.0449830384
H   3.1640693257  1.0608945393 -1.0246198466
H   2.8641173300 -0.6428501494 -1.3734873499
22
Image 22  Energy = -383.6489015887
C  -0.9217952431 -0.4976860634  0.4682704243
C   1.4316185114  0.2380473745  0.0027560162
C  -1.3840039648  0.9297660157  0.7714746265
C   2.1156383312 -0.3877436381  1.2098955469
C   2.3873661194  0.3080371827 -1.1834434079
N   0.2608301297 -0.5600756724 -0.3976897893
N  -2.0551478151 -1.1669503822 -0.1856387734
O  -1.8386529024  1.5754148285 -0.4046789720
H  -2.5621189123  1.0374530746 -0.7557916370
H  -0.0156076970 -0.2282922797 -1.3135797435
H  -0.6904056538 -1.0065055561  1.4135209397
H   1.1331879771  1.2670150954  0.2474171441
H  -2.4379696824 -1.9014327291  0.3912220869
H  -1.8068258184 -1.5867127203 -1.0701909785
H  -0.5689462428  1.5163784060  1.1878783187
H  -2.1783604025  0.8916356474  1.5311331949
H   2.9633316789  0.2075496766  1.5567048495
H   1.8566585241  0.6087515482 -2.0884634823
H   2.4755492172 -1.3822232811  0.9501515824
H   1.4253865953 -0.4891981818  2.0458164737
H   3.1749215862  1.0477742886 -1.0299700550
H   2.8552542590 -0.6573630906 -1.3683343034
22
Image 23  Energy = -383.6492177291
C  -0.9199701788 -0.4961613289  0.4649958641
C   1.4338816948  0.2397417026  0.0021833105
C  -1.3911138731  0.9264069394  0.7744927754
C   2.1147586069 -0.3868727073  1.2109577288
C   2.3870832226  0.3080599128 -1.1854177633
N   0.2604411803 -0.5548140412 -0.3976867074
N  -2.0543011417 -1.1696392160 -0.1856200030
O  -1.8360709228  1.5770655921 -0.4009634441
H  -2.5602108608  1.0386680655 -0.7545748886
H  -0.0190393648 -0.2198183693 -1.3145523901
H  -0.6877457575 -1.0050544770  1.4068355040
H   1.1356598345  1.2675135452  0.2481201671
H  -2.4374964071 -1.9021764367  0.3929945780
H  -1.7978304605 -1.5896862272 -1.0667608406
H  -0.5770779852  1.5186148412  1.1911464668
H  -2.1838077935  0.8915299582  1.5270022457
H   2.9645303766  0.2067276251  1.5523804101
H   1.8558195553  0.6068002510 -2.0900011009
H   2.4763934330 -1.3813834676  0.9478843227
H   1.4270624785 -0.4893620091  2.0487266677
H   3.1782647360  1.0407211601 -1.0278450025
H   2.8506782214 -0.6632417752 -1.3658378383
22
Image 24  Energy = -383.6495512134
C  -0.9197786849 -0.4926063359  0.4616767517
C   1.4353744869  0.2446856257  0.0019828738
C  -1.4021348260  0.9228494494  0.7780102504
C   2.1145104008 -0.3857597022  1.2107570211
C   2.3865527361  0.3035897102 -1.1875914499
N   0.2579105489 -0.5421675030 -0.4016483353
N  -2.0510876567 -1.1730076935 -0.1859314829
O  -1.8343790179  1.5806534914 -0.3962292642
H  -2.5579379730  1.0427779506 -0.7542088500
H  -0.0249482866 -0.1986901395 -1.3159486658
H  -0.6807417889 -1.0033949943  1.3970247098
H   1.1424125635  1.2726810863  0.2503857296
H  -2.4353507470 -1.9033586561  0.3973339573
H  -1.7777771222 -1.5987390701 -1.0604220515
H  -0.5940200523  1.5197769656  1.2015080647
H  -2.2013562279  0.8871337744  1.5199974598
H   2.9692712351  0.2049523511  1.5442350163
H   1.8556994437  0.6021089897 -2.0928185835
H   2.4780711321 -1.3790002210  0.9427833493
H   1.4318658339 -0.4895666294  2.0540839239
H   3.1882180663  1.0244611304 -1.0257436431
H   2.8395345389 -0.6757400487 -1.3607767460
22
Image 25  Energy = -383.6500715983
C  -0.9199822202 -0.4857264371  0.4578431195
C   1.4334273738  0.2487147884 -0.0004585096
C  -1.4174895599  0.9225728629  0.7863352460
C   2.1126467462 -0.3856439152  1.2100487059
C   2.3868800700  0.2965012385 -1.1897332518
N   0.2493263466 -0.5252886299 -0.4120924027
N  -2.0462376202 -1.1823813649 -0.1934401636
O  -1.8329120508  1.5887363292 -0.3907893545
H  -2.5476756411  1.0479504747 -0.7508765285
H  -0.0381309649 -0.1617455006 -1.3194155311
H  -0.6652331250 -0.9979988465  1.3861438801
H   1.1567982498  1.2818747833  0.2540050601
H  -2.4286457968 -1.9021477559  0.4019858623
H  -1.7391986380 -1.6165985327 -1.0470295723
H  -0.6223575701  1.5254102686  1.2186267179
H  -2.2318965899  0.8752721418  1.5110974014
H   2.9739239876  0.2051071896  1.5283608521
H   1.8564158489  0.5956059874 -2.0977805552
H   2.4787610773 -1.3784186078  0.9353780683
H   1.4403745953 -0.4885434719  2.0632392039
H   3.2023202160  0.9969699613 -1.0187081432
H   2.8187938901 -0.6965834502 -1.3542801102
22
Image 26  Energy = -383.6503818158
C  -0.9262960517 -0.4769436434  0.4537648551
C   1.4277566331  0.2568957987 -0.0025672658
C  -1.4445027556  0.9236669800  0.7943762516
C   2.1108816765 -0.3877560961  1.2034429927
C   2.3837999315  0.2768806616 -1.1916842470
N   0.2341938486 -0.4931949895 -0.4328229671
N  -2.0326223259 -1.1841900227 -0.1978560157
O  -1.8285361120  1.6054995209 -0.3791535546
H  -2.5372895615  1.0526152599 -0.7522645970
H  -0.0599132439 -0.0985059485 -1.3231332253
H  -0.6382150101 -0.9891594721  1.3745556950
H   1.1810519162  1.2968900082  0.2588069048
H  -2.4175583140 -1.9013358953  0.4088546694
H  -1.6717876549 -1.6560490664 -1.0322418527
H  -0.6642122906  1.5352188350  1.2533465241
H  -2.2828343915  0.8511850126  1.4967495715
H   2.9800552497  0.2058309995  1.5022450379
H   1.8629036664  0.5855643641 -2.1024065276
H   2.4773166838 -1.3772815447  0.9250479184
H   1.4561150588 -0.4858097488  2.0757707396
H   3.2268949987  0.9520707324 -1.0088345649
H   2.7827067236 -0.7284522657 -1.3455364330
22
Image 27  Energy = -383.6508595837
C  -0.9249064122 -0.4773007480  0.4571555841
C   1.4261062780  0.2534441720 -0.0035128800
C  -1.4373842250  0.9267887560  0.7942399953
C   2.1097129312 -0.3887304914  1.2024753607
C   2.3837751916  0.2784825835 -1.1894250063
N   0.2338154953 -0.4979868244 -0.4307355144
N  -2.0314661965 -1.1851319174 -0.2033065885
O  -1.8326075777  1.6031179584 -0.3819117924
H  -2.5342450773  1.0511513106 -0.7525871880
H  -0.0597488507 -0.1060637355 -1.3227982772
H  -0.6401303842 -0.9874695234  1.3801507266
H   1.1787780176  1.2930560298  0.2568646714
H  -2.4176517420 -1.8994066476  0.4052490425
H  -1.6787393004 -1.6532372501 -1.0302662822
H  -0.6574146552  1.5356888061  1.2502946333
H  -2.2743524941  0.8511467215  1.4999492222
H   2.9752176916  0.2075669527  1.5039250955
H   1.8648252929  0.5887349747 -2.1004864429
H   2.4748986456 -1.3803106052  0.9284443871
H   1.4545876546 -0.4848280777  2.0724947479
H   3.2203690785  0.9580827106 -1.0083417021
H   2.7864693099 -0.7231556740 -1.3494118697
22
Image 28  Energy = -383.6511487029
C  -0.9239814775 -0.4751518904  0.4596587631
C   1.4226940816  0.2505403126 -0.0052186298
C  -1.4349315588  0.9308516023  0.7959114368
C   2.1076044071 -0.3906986188  1.1990306053
C   2.3831086803  0.2757260722 -1.1866400999
N   0.2298785442 -0.4950362978 -0.4328833377
N  -2.0270968365 -1.1863872232 -0.2082162445
O  -1.8363855909  1.6048261266 -0.3815037675
H  -2.5292557052  1.0493582067 -0.7555990540
H  -0.0651634633 -0.0997624060 -1.3221711253
H  -0.6360496849 -0.9830127668  1.3856475373
H   1.1811149346  1.2917618727  0.2551546697
H  -2.4148140238 -1.8950994400  0.4005308631
H  -1.6699477047 -1.6615385725 -1.0250844304
H  -0.6587192292  1.5384802974  1.2561183652
H  -2.2749808465  0.8449362826  1.5004801905
H   2.9698939765  0.2099501929  1.4994115044
H   1.8698787666  0.5909935188 -2.0986757179
H   2.4706505677 -1.3843499473  0.9306518109
H   1.4565553690 -0.4825352749  2.0704255235
H   3.2174708536  0.9544561554 -1.0056324121
H   2.7823846222 -0.7246687267 -1.3529365310
22
Image 29  Energy = -383.6514321622
C  -0.9213223832 -0.4707201523  0.4614996679
C   1.4193229989  0.2491061374 -0.0076905562
C  -1.4386552235  0.9333730234  0.7996586262
C   2.1042693642 -0.3931853237  1.1938947534
C   2.3816426199  0.2697137204 -1.1845056484
N   0.2241679657 -0.4849069588 -0.4363440104
N  -2.0176946564 -1.1868138330 -0.2149658847
O  -1.8405398143  1.6096874535 -0.3773830395
H  -2.5229985298  1.0471858002 -0.7628172999
H  -0.0758443064 -0.0806120912 -1.3209668287
H  -0.6279178130 -0.9752935844  1.3897133168
H   1.1860244728  1.2920236696  0.2531986059
H  -2.4116586265 -1.8899386472  0.3963700901
H  -1.6479616989 -1.6791893164 -1.0148397601
H  -0.6670168766  1.5426765897  1.2704760494
H  -2.2810709604  0.8344073978  1.4979413267
H   2.9639877159  0.2122655372  1.4891198116
H   1.8780946727  0.5933359673 -2.0967712434
H   2.4643501169 -1.3898005532  0.9318820224
H   1.4606862945 -0.4789156534  2.0687744569
H   3.2179353222  0.9424862109 -1.0010874699
H   2.7721080467 -0.7332459292 -1.3566970851
22
Image 30  Energy = -383.6514862307
C  -0.9148998030 -0.4603370456  0.4613242009
C   1.4189627165  0.2523093465 -0.0126484915
C  -1.4448769072  0.9340665754  0.8071588985
C   2.0978548427 -0.3987033648  1.1839072780
C   2.3821660268  0.2526351476 -1.1865914636
N   0.2186809130 -0.4572424166 -0.4477103498
N  -1.9990440315 -1.1919621525 -0.2167486937
O  -1.8554993406  1.6147052276 -0.3642864713
H  -2.5042012290  1.0468192396 -0.7817785637
H  -0.0991543568 -0.0342671553 -1.3094884251
H  -0.6131678296 -0.9566446005  1.3904793648
H   1.1926462345  1.2934803637  0.2486572632
H  -2.4104899854 -1.8721750978  0.3876476451
H  -1.5903786872 -1.7216046410 -0.9909904553
H  -0.6961980292  1.5447413030  1.3018981280
H  -2.2967953400  0.8147457235  1.4946326426
H   2.9551866971  0.2136794373  1.4639475799
H   1.8931413400  0.6025366213 -2.0976069105
H   2.4489438035 -1.4006439447  0.9329509739
H   1.4624041508 -0.4704473039  2.0679464154
H   3.2260380205  0.9137452722 -0.9895752388
H   2.7485895439 -0.7557971007 -1.3646654876
22
Image 31  Energy = -383.6519235063
C  -0.9142927192 -0.4606015488  0.4613598506
C   1.4192911151  0.2516906583 -0.0136185984
C  -1.4489582179  0.9321023109  0.8067289364
C   2.0969220351 -0.3984730731  1.1846243357
C   2.3823437499  0.2544048493 -1.1870671569
N   0.2187489841 -0.4582312186 -0.4452881935
N  -1.9946216570 -1.1903952752 -0.2221258378
O  -1.8526609045  1.6176564813 -0.3620468182
H  -2.5065236162  1.0440131717 -0.7842879726
H  -0.0997729298 -0.0322821618 -1.3106022668
H  -0.6130124043 -0.9563607655  1.3906079007
H   1.1923338900  1.2941103948  0.2484819510
H  -2.4132525081 -1.8742323339  0.3907093418
H  -1.5906068430 -1.7209885806 -0.9877067877
H  -0.6953032285  1.5453520463  1.3028693451
H  -2.2953402251  0.8146577598  1.4945381423
H   2.9555204554  0.2131976753  1.4637236747
H   1.8937936456  0.6031053728 -2.0973716963
H   2.4482383803 -1.4010798169  0.9329584275
H   1.4619701513 -0.4699997587  2.0670302476
H   3.2263927148  0.9128677976 -0.9896737771
H   2.7486988846 -0.7568745516 -1.3653832070
22
Image 32  Energy = -383.6520401248
C  -0.9135456541 -0.4608141273  0.4604442745
C   1.4210934052  0.2527552905 -0.0143453814
C  -1.4517161560  0.9296326702  0.8067646715
C   2.0963278241 -0.3981645011  1.1855100045
C   2.3834815787  0.2550230252 -1.1892506692
N   0.2201885804 -0.4579622749 -0.4446445287
N  -1.9923595359 -1.1911329853 -0.2223114688
O  -1.8531105450  1.6180292084 -0.3603958457
H  -2.5056771189  1.0435651763 -0.7864910671
H  -0.1001125980 -0.0292682155 -1.3092334776
H  -0.6134633515 -0.9557636727  1.3889689330
H   1.1912691996  1.2949548783  0.2481555414
H  -2.4169037585 -1.8729238968  0.3927290796
H  -1.5875921814 -1.7220174502 -0.9847408987
H  -0.6974297665  1.5437954086  1.3034404013
H  -2.2949690690  0.8150822406  1.4954925557
H   2.9569968349  0.2115940665  1.4629601370
H   1.8937664431  0.6048401394 -2.0984879374
H   2.4469019199 -1.4012027008  0.9326154329
H   1.4594140520 -0.4692613387  2.0668111622
H   3.2288912153  0.9113319432 -0.9893275615
H   2.7484574371 -0.7584534519 -1.3662035210
22
Image 33  Energy = -383.6522408033
C  -0.9112499072 -0.4594753033  0.4596421205
C   1.4239569814  0.2553410427 -0.0172694141
C  -1.4586324541  0.9256355185  0.8085708209
C   2.0934748163 -0.3983006290  1.1849633497
C   2.3866153352  0.2531641843 -1.1938241587
N   0.2208713938 -0.4522984185 -0.4467743346
N  -1.9833181400 -1.1947185057 -0.2245189182
O  -1.8576173918  1.6207806648 -0.3546837100
H  -2.4986845372  1.0418307464 -0.7955536069
H  -0.1054898953 -0.0114159538 -1.3041256971
H  -0.6102278242 -0.9509674202  1.3868555703
H   1.1912802025  1.2976928093  0.2461112532
H  -2.4257179937 -1.8645934586  0.3959569577
H  -1.5669335319 -1.7348869527 -0.9721485160
H  -0.7084393265  1.5404292337  1.3110317835
H  -2.2990485110  0.8103778443  1.4985844892
H   2.9589750386  0.2074893391  1.4563542315
H   1.8975368532  0.6112969932 -2.1014142824
H   2.4394839547 -1.4037631533  0.9322595559
H   1.4534235593 -0.4650204310  2.0654410365
H   3.2372754673  0.9008469349 -0.9863580960
H   2.7423746825 -0.7658056573 -1.3706406188
22
Image 34  Energy = -383.6525270969
C  -0.9100336777 -0.4584114930  0.4590470094
C   1.4260619159  0.2585774207 -0.0216658914
C  -1.4699145107  0.9213153296  0.8120131578
C   2.0891901453 -0.3973941539  1.1838765526
C   2.3906356885  0.2524625540 -1.1992244280
N   0.2199649221 -0.4458198043 -0.4507921515
N  -1.9725583114 -1.2026821621 -0.2285034179
O  -1.8649702888  1.6241839882 -0.3491459919
H  -2.4864506829  1.0391609196 -0.8069667816
H  -0.1107392023  0.0139509299 -1.2981983071
H  -0.6038790727 -0.9472855758  1.3871445581
H   1.1932715227  1.3021454970  0.2423038927
H  -2.4399377677 -1.8484587755  0.4004493375
H  -1.5378574921 -1.7548922160 -0.9524915747
H  -0.7214497277  1.5353555201  1.3196429932
H  -2.3061045484  0.8019868179  1.5049897938
H   2.9637269514  0.1989937913  1.4501652568
H   1.9046198864  0.6209336328 -2.1048107884
H   2.4268756594 -1.4062642159  0.9319963749
H   1.4439278493 -0.4573460065  2.0612892014
H   3.2517767456  0.8852656698 -0.9840415792
H   2.7337527934 -0.7721382452 -1.3786174339
22
Image 35  Energy = -383.6526715558
C  -0.9088810370 -0.4573126013  0.4621913957
C   1.4297401938  0.2665002424 -0.0299650335
C  -1.4891357494  0.9150426676  0.8191192836
C   2.0805016433 -0.3954576960  1.1768836584
C   2.3984107387  0.2479075321 -1.2065667917
N   0.2147007251 -0.4239128566 -0.4626827165
N  -1.9487666238 -1.2123458688 -0.2351050514
O  -1.8783645086  1.6329889736 -0.3312989698
H  -2.4615917798  1.0292677695 -0.8346711564
H  -0.1239301731  0.0710608893 -1.2858270828
H  -0.5876937500 -0.9373809882  1.3866493532
H   1.2013461621  1.3106248389  0.2325545136
H  -2.4699421703 -1.8128002074  0.4075207440
H  -1.4692742570 -1.8106206888 -0.9097376175
H  -0.7512504464  1.5258865465  1.3399868445
H  -2.3266017382  0.7795804671  1.5171400935
H   2.9708743543  0.1798140466  1.4366619763
H   1.9238444258  0.6424344345 -2.1110864478
H   2.3964707341 -1.4128732511  0.9318947963
H   1.4260286266 -0.4383894384  2.0519436578
H   3.2822198514  0.8478316357 -0.9794582558
H   2.7112036373 -0.7842070459 -1.3976874911
22
Image 36  Energy = -383.6531256890
C  -0.9097222054 -0.4568642674  0.4623142395
C   1.4283143508  0.2659797334 -0.0296231873
C  -1.4877717440  0.9155733742  0.8209758974
C   2.0805751784 -0.3946882516  1.1768390810
C   2.3976604146  0.2505230896 -1.2044762026
N   0.2132474761 -0.4243940779 -0.4614531485
N  -1.9516847065 -1.2163424729 -0.2369028108
O  -1.8803083307  1.6286101952 -0.3358972382
H  -2.4594779225  1.0310952459 -0.8296331525
H  -0.1211129113  0.0664078239 -1.2886274871
H  -0.5871825339 -0.9410831968  1.3885333279
H   1.2034994509  1.3108936955  0.2320606331
H  -2.4691451952 -1.8102362021  0.4047302113
H  -1.4774334595 -1.8090071131 -0.9066692912
H  -0.7462751889  1.5265012743  1.3362248000
H  -2.3265798508  0.7793672546  1.5165204710
H   2.9714327034  0.1778768068  1.4416843894
H   1.9253227183  0.6418959576 -2.1093499665
H   2.3954258467 -1.4117510316  0.9319767829
H   1.4272036720 -0.4371147235  2.0500664590
H   3.2816444952  0.8491706487 -0.9821850757
H   2.7122765987 -0.7787743600 -1.3986490253
22
Image 37  Energy = -383.6533449379
C  -0.9102016874 -0.4562453110  0.4627048990
C   1.4281174739  0.2682950032 -0.0311235287
C  -1.4913366018  0.9141337542  0.8243900130
C   2.0784762083 -0.3936830512  1.1744914265
C   2.3983818513  0.2513660226 -1.2042307739
N   0.2108331872 -0.4173279696 -0.4633547180
N  -1.9490709865 -1.2205252228 -0.2378624985
O  -1.8843249504  1.6270437184 -0.3334005686
H  -2.4522096711  1.0284255299 -0.8329241380
H  -0.1220013025  0.0761494468 -1.2883983921
H  -0.5823074639 -0.9423931060  1.3896834166
H   1.2084934558  1.3136084771  0.2288830622
H  -2.4764127513 -1.7977945967  0.4025589144
H  -1.4674941503 -1.8252856985 -0.8927245424
H  -0.7486945464  1.5250690964  1.3378969390
H  -2.3321036074  0.7730911672  1.5180091011
H   2.9733346615  0.1705946964  1.4438022112
H   1.9325799801  0.6474016261 -2.1088457116
H   2.3856289311 -1.4126603408  0.9319429535
H   1.4242012662 -0.4302433142  2.0458014449
H   3.2890212303  0.8408265926 -0.9838608336
H   2.7069983429 -0.7762071223 -1.4049789869
22
Image 38  Energy = -383.6536245595
C  -0.9096607712 -0.4551537203  0.4641447599
C   1.4291806156  0.2741910821 -0.0343039639
C  -1.4985879139  0.9102806543  0.8308908918
C   2.0740077338 -0.3921519743  1.1698552730
C   2.4006509940  0.2525032071 -1.2046345075
N   0.2070322094 -0.4014005766 -0.4670849420
N  -1.9387781892 -1.2264445293 -0.2429014002
O  -1.8919371853  1.6251476881 -0.3254766750
H  -2.4384029676  1.0209555042 -0.8417488981
H  -0.1256130296  0.0975521486 -1.2877603654
H  -0.5725578549 -0.9434849508  1.3895867032
H   1.2188339751  1.3204160111  0.2227964408
H  -2.4941206543 -1.7741196020  0.4002932634
H  -1.4468816739 -1.8604951605 -0.8618847882
H  -0.7553976349  1.5220326462  1.3431637633
H  -2.3433158232  0.7601845786  1.5199616188
H   2.9763524943  0.1560145249  1.4468176963
H   1.9473870842  0.6600793617 -2.1084549969
H   2.3647138382 -1.4159184273  0.9314986793
H   1.4179971700 -0.4157746639  2.0381565024
H   3.3037577644  0.8232221764 -0.9862325196
H   2.6952487158 -0.7739965979 -1.4182228829
22
Image 39  Energy = -383.6538779265
C  -0.8990381292 -0.4548471729  0.4610406320
C   1.4384479327  0.2911128072 -0.0406820716
C  -1.5124614090  0.8965560693  0.8407680371
C   2.0656449460 -0.3907433273  1.1658935674
C   2.4094435210  0.2578539701 -1.2113766980
N   0.2089757493 -0.3712204763 -0.4678965824
N  -1.9248142123 -1.2360336985 -0.2404382694
O  -1.9062189890  1.6186217786 -0.3094468235
H  -2.4146307558  1.0010445037 -0.8536978990
H  -0.1342607705  0.1286182980 -1.2914546704
H  -0.5573621387 -0.9466885773  1.3791466572
H   1.2416368123  1.3425788173  0.2154237467
H  -2.5300468398 -1.7225501290  0.3877171099
H  -1.4228051618 -1.9335507632 -0.7992920880
H  -0.7650087702  1.5159726066  1.3524007976
H  -2.3583269167  0.7398573048  1.5181790615
H   2.9801058032  0.1275982489  1.4562077804
H   1.9725604968  0.6911989430 -2.1092787839
H   2.3211340401 -1.4263365536  0.9282746773
H   1.4055327734 -0.3863904942  2.0298261508
H   3.3277054541  0.7965755586 -0.9886493385
H   2.6736955067 -0.7755883714 -1.4442054267
22
Image 40  Energy = -383.6543120786
C  -0.8984894600 -0.4545026740  0.4615171618
C   1.4413171247  0.2964532278 -0.0412490661
C  -1.5119842454  0.8948103369  0.8425754220
C   2.0635385728 -0.3907863190  1.1645836436
C   2.4114005578  0.2573280181 -1.2136064962
N   0.2092423755 -0.3626675841 -0.4724255202
N  -1.9146337734 -1.2385864015 -0.2465533013
O  -1.9104197749  1.6162450536 -0.3060997586
H  -2.4087932771  0.9959307032 -0.8562013476
H  -0.1355054863  0.1343146594 -1.2902032283
H  -0.5529325786 -0.9476875225  1.3766578168
H   1.2479983569  1.3480938381  0.2138731397
H  -2.5425047414 -1.7112991889  0.3884454844
H  -1.4199571662 -1.9496320293 -0.7813418233
H  -0.7691682752  1.5131627731  1.3545670499
H  -2.3626707603  0.7343793800  1.5185104776
H   2.9811288144  0.1205463992  1.4582942209
H   1.9784864311  0.6998807470 -2.1098273851
H   2.3095611938 -1.4285623156  0.9276154843
H   1.4022270064 -0.3790820860  2.0284809473
H   3.3342278698  0.7908118281 -0.9886605356
H   2.6678401863 -0.7755115126 -1.4504928408
22
Image 41  Energy = -383.6544678970
C  -0.8963456849 -0.4550389106  0.4596838270
C   1.4444739865  0.2993692719 -0.0405903145
C  -1.5079550529  0.8940130829  0.8402979888
C   2.0635267168 -0.3915376689  1.1667492355
C   2.4130388333  0.2577311363 -1.2160859265
N   0.2135576927 -0.3635020566 -0.4726404110
N  -1.9130303176 -1.2385399187 -0.2471729941
O  -1.9103309574  1.6140565115 -0.3075459950
H  -2.4110325233  0.9932463980 -0.8524680005
H  -0.1347226551  0.1263727829 -1.2914779162
H  -0.5536401798 -0.9490830038  1.3729158612
H   1.2503104730  1.3517432699  0.2164139774
H  -2.5451379981 -1.7096639904  0.3877895677
H  -1.4321138138 -1.9484697215 -0.7787668973
H  -0.7684892892  1.5118864325  1.3535094707
H  -2.3592901471  0.7363298648  1.5168745777
H   2.9804183688  0.1205721823  1.4600347552
H   1.9761685863  0.7033555574 -2.1105420406
H   2.3077492301 -1.4293335209  0.9268982256
H   1.4022884412 -0.3789860520  2.0320860707
H   3.3321161992  0.7958777801 -0.9874363889
H   2.6683490354 -0.7767600982 -1.4500671293
22
Image 42  Energy = -383.6545849273
C  -0.8927022411 -0.4550629110  0.4575637410
C   1.4488904569  0.3065662450 -0.0424093784
C  -1.5091312073  0.8902374909  0.8414586888
C   2.0598391085 -0.3908825591  1.1664157880
C   2.4166337466  0.2595394307 -1.2194866906
N   0.2167806157 -0.3549795163 -0.4752224516
N  -1.9070464816 -1.2400374188 -0.2492724480
O  -1.9153101119  1.6108779834 -0.3045055805
H  -2.4047072584  0.9841155914 -0.8542788555
H  -0.1362418215  0.1319270180 -1.2929123194
H  -0.5469872468 -0.9513973560  1.3687313609
H   1.2605939459  1.3608650884  0.2157124023
H  -2.5606516147 -1.6897127847  0.3861269453
H  -1.4297248871 -1.9742721214 -0.7571116376
H  -0.7730247366  1.5079188815  1.3568421380
H  -2.3617773381  0.7296632446  1.5167891076
H   2.9821750985  0.1107043055  1.4631044459
H   1.9829335942  0.7167954809 -2.1113578507
H   2.2907970265 -1.4323760819  0.9258755446
H   1.3976727423 -0.3693963185  2.0317586872
H   3.3402432367  0.7901458044 -0.9869586063
H   2.6606543282 -0.7776001838 -1.4584035169
22
Image 43  Energy = -383.6547494549
C  -0.8887945252 -0.4559051419  0.4554269224
C   1.4516383372  0.3110022131 -0.0433143327
C  -1.5090199867  0.8882458788  0.8392688167
C   2.0567894048 -0.3891930286  1.1672327011
C   2.4192193944  0.2624016760 -1.2218970785
N   0.2206976979 -0.3534548615 -0.4780005108
N  -1.9070592950 -1.2420492940 -0.2523209323
O  -1.9177382249  1.6081925399 -0.3061287527
H  -2.4038922395  0.9752758975 -0.8533286338
H  -0.1347369718  0.1303921445 -1.2954839402
H  -0.5403268920 -0.9536631076  1.3658673523
H   1.2700948481  1.3665702345  0.2170693674
H  -2.5700422529 -1.6703678681  0.3859451658
H  -1.4340711275 -1.9904690075 -0.7440694522
H  -0.7762683834  1.5043432307  1.3604356755
H  -2.3584299543  0.7252447029  1.5174763227
H   2.9837714152  0.1039565182  1.4634564712
H   1.9854494166  0.7274011877 -2.1109832101
H   2.2775301129 -1.4323938763  0.9260287729
H   1.3947518292 -0.3645392156  2.0338164808
H   3.3450956135  0.7897588954 -0.9855053238
H   2.6552507438 -0.7771104185 -1.4625323823
22
Image 44  Energy = -383.6548439983
C  -0.8853614588 -0.4616684095  0.4462479804
C   1.4540452554  0.3127863501 -0.0450351616
C  -1.5057147077  0.8848390232  0.8340261375
C   2.0519220206 -0.3854432318  1.1706011612
C   2.4229429336  0.2705062164 -1.2213325022
N   0.2272303675 -0.3599523447 -0.4771255239
N  -1.9056947917 -1.2373456284 -0.2553632981
O  -1.9197694658  1.6002966223 -0.3152470554
H  -2.4088313146  0.9629753605 -0.8481436667
H  -0.1284316893  0.1209230414 -1.3046862305
H  -0.5301761194 -0.9559060504  1.3609344817
H   1.2823770892  1.3702784313  0.2208085488
H  -2.5812085218 -1.6397961746  0.3900223107
H  -1.4492449929 -2.0066947795 -0.7334479213
H  -0.7792824955  1.5003398587  1.3655650231
H  -2.3466264893  0.7196286829  1.5191894525
H   2.9866869131  0.0965791270  1.4595033049
H   1.9852354708  0.7406839459 -2.1072493356
H   2.2599897884 -1.4293952972  0.9280939740
H   1.3929676205 -0.3613539985  2.0384795095
H   3.3475837380  0.7935426855 -0.9828876380
H   2.6492698121 -0.7721841383 -1.4644940603
22
Image 45  Energy = -383.6549887682
C  -0.8842633587 -0.4613953152  0.4485276464
C   1.4525705370  0.3109752897 -0.0429674351
C  -1.5042213831  0.8848913045  0.8322106627
C   2.0528092562 -0.3851326037  1.1704182423
C   2.4209816099  0.2704425865 -1.2199672270
N   0.2266443920 -0.3620767434 -0.4807054995
N  -1.9095056517 -1.2373884009 -0.2547245084
O  -1.9170603783  1.6004776584 -0.3155974918
H  -2.4134270437  0.9618569784 -0.8483175093
H  -0.1251107893  0.1157782297 -1.3041841190
H  -0.5308250247 -0.9551299623  1.3603641434
H   1.2803520442  1.3669319213  0.2211719867
H  -2.5775877830 -1.6381618082  0.3906469253
H  -1.4525434441 -2.0017399734 -0.7385982403
H  -0.7781188073  1.5010945636  1.3646836609
H  -2.3441548736  0.7199228514  1.5196472518
H   2.9869445912  0.0982541930  1.4572595374
H   1.9834442806  0.7388491530 -2.1054158808
H   2.2618746672 -1.4282460702  0.9291396095
H   1.3939496051 -0.3632059754  2.0394686895
H   3.3464262002  0.7962291332 -0.9822896932
H   2.6507303152 -0.7695877125 -1.4623112526
22
Image 46  Energy = -383.6550346709
C  -0.8835897257 -0.4606213272  0.4488772176
C   1.4517020845  0.3102755060 -0.0424193850
C  -1.5036744291  0.8843251966  0.8328234340
C   2.0530200760 -0.3853555082  1.1700513033
C   2.4201719897  0.2707283509 -1.2185937711
N   0.2264156111 -0.3619719146 -0.4812418282
N  -1.9092856991 -1.2369689884 -0.2545867166
O  -1.9168759982  1.5990361959 -0.3152319205
H  -2.4141617846  0.9617783394 -0.8487251621
H  -0.1239622097  0.1153708989 -1.3049691302
H  -0.5308109011 -0.9548357266  1.3599296728
H   1.2787127254  1.3655405178  0.2206224435
H  -2.5780338345 -1.6360499197  0.3913989925
H  -1.4525774370 -2.0016466918 -0.7389817416
H  -0.7775673914  1.5015865829  1.3637335066
H  -2.3443173768  0.7188608267  1.5196535695
H   2.9874209867  0.0982120186  1.4562813825
H   1.9837250273  0.7386812379 -2.1041979744
H   2.2616882714 -1.4287032054  0.9296222795
H   1.3942167418 -0.3625506868  2.0390772496
H   3.3466892367  0.7959360935 -0.9822510336
H   2.6510029992 -0.7679884974 -1.4624128885
22
Image 47  Energy = -383.6551765757
C  -0.8789192850 -0.4598373635  0.4462989910
C   1.4503830930  0.3088302658 -0.0410159743
C  -1.5011073944  0.8805899063  0.8335933613
C   2.0523805953 -0.3862069846  1.1701638148
C   2.4198469614  0.2753559111 -1.2130162437
N   0.2286339961 -0.3619735339 -0.4841061105
N  -1.9068586585 -1.2348613018 -0.2547602970
O  -1.9169814284  1.5903121556 -0.3142816176
H  -2.4187280568  0.9549239212 -0.8493784362
H  -0.1166573937  0.1107525103 -1.3123190046
H  -0.5262846878 -0.9553234295  1.3561132949
H   1.2733336964  1.3626653795  0.2196411484
H  -2.5860673783 -1.6125779403  0.3950697210
H  -1.4588011328 -2.0083486576 -0.7323693900
H  -0.7754441161  1.5027976572  1.3599061741
H  -2.3419570168  0.7102876243  1.5198442266
H   2.9906070249  0.0941236196  1.4505304930
H   1.9853506733  0.7450620236 -2.0973308320
H   2.2531761386 -1.4320620364  0.9324072456
H   1.3947590379 -0.3557730622  2.0389021210
H   3.3491533479  0.7950183829 -0.9802680460
H   2.6500909606 -0.7601157539 -1.4651651548
22
Image 48  Energy = -383.6551660529
C  -0.8721951421 -0.4615423876  0.4434536301
C   1.4508245925  0.3097666885 -0.0389465036
C  -1.4966529544  0.8752530973  0.8343502450
C   2.0518309535 -0.3884122501  1.1699648420
C   2.4205343446  0.2800903020 -1.2101910622
N   0.2329273243 -0.3634885601 -0.4892995861
N  -1.9070110663 -1.2307577977 -0.2526210162
O  -1.9232750805  1.5777018430 -0.3193851805
H  -2.4207232012  0.9478168818 -0.8448068475
H  -0.1067892124  0.1031078803 -1.3225309082
H  -0.5189429914 -0.9571841668  1.3501282822
H   1.2647739953  1.3606590804  0.2201273055
H  -2.5967577452 -1.5781002855  0.3967663732
H  -1.4696765329 -2.0198910300 -0.7202662953
H  -0.7727336842  1.5035882319  1.3537031196
H  -2.3375219185  0.6979684459  1.5201115043
H   2.9946390743  0.0871103513  1.4430034341
H   1.9869901993  0.7569358947 -2.0882280935
H   2.2404421855 -1.4372791629  0.9366274784
H   1.3956990734 -0.3449153944  2.0408396301
H   3.3541853075  0.7962961039 -0.9748862570
H   2.6493414634 -0.7510844851 -1.4694546161
22
Image 49  Energy = -383.6552990032
C  -0.8725454936 -0.4617893993  0.4420224918
C   1.4512754202  0.3096529446 -0.0399709719
C  -1.4972732507  0.8755153779  0.8329038247
C   2.0511502911 -0.3878443203  1.1707133843
C   2.4218448726  0.2812679580 -1.2100289679
N   0.2336378388 -0.3640782895 -0.4883271089
N  -1.9055488993 -1.2308723030 -0.2541680734
O  -1.9213623708  1.5799643445 -0.3171587503
H  -2.4224032269  0.9447014043 -0.8462005706
H  -0.1071889533  0.1029303428 -1.3228969918
H  -0.5180995249 -0.9578007604  1.3504108267
H   1.2661792489  1.3618157487  0.2207153904
H  -2.5983187931 -1.5777457496  0.3974987160
H  -1.4710065314 -2.0204571096 -0.7188482357
H  -0.7730979957  1.5032985419  1.3543326595
H  -2.3366526627  0.6981568956  1.5201384794
H   2.9946811241  0.0865709374  1.4432936688
H   1.9867694105  0.7580788942 -2.0889361853
H   2.2394582120 -1.4371213808  0.9364715914
H   1.3957309683 -0.3449233855  2.0410963008
H   3.3537395431  0.7963497681 -0.9748660330
H   2.6489397572 -0.7520311819 -1.4697359692
22
Image 50  Energy = -383.6553383828
C  -0.8716190346 -0.4627400447  0.4405946245
C   1.4520907466  0.3101111235 -0.0404804716
C  -1.4968337720  0.8750710985  0.8316165893
C   2.0506393965 -0.3879643727  1.1712143561
C   2.4234013876  0.2827562455 -1.2103529209
N   0.2351462922 -0.3652109843 -0.4889980588
N  -1.9054728431 -1.2300602459 -0.2545092486
O  -1.9221850072  1.5797645802 -0.3172108141
H  -2.4232489582  0.9414646553 -0.8454354913
H  -0.1058630421  0.1009568100 -1.3245839924
H  -0.5160345762 -0.9589749197  1.3495700432
H   1.2651318998  1.3626533376  0.2217567967
H  -2.6011160438 -1.5715688522  0.3974576796
H  -1.4745822974 -2.0229550509 -0.7150861018
H  -0.7728663117  1.5030882092  1.3532808087
H  -2.3348392794  0.6962181681  1.5201367403
H   2.9953369683  0.0846732814  1.4423363142
H   1.9866743915  0.7616603638 -2.0881635795
H   2.2366238794 -1.4380691335  0.9372212227
H   1.3962507173 -0.3427394757  2.0421077952
H   3.3543833517  0.7972760869 -0.9732411804
H   2.6488911187 -0.7517716070 -1.4707716374
22
Image 51  Energy = -383.6553939277
C  -0.8683570808 -0.4644749920  0.4378005220
C   1.4533556453  0.3109497174 -0.0411015136
C  -1.4948921832  0.8734411624  0.8291068991
C   2.0497273506 -0.3886572517  1.1716898150
C   2.4263733844  0.2864023394 -1.2106350157
N   0.2387516647 -0.3681860856 -0.4918206950
N  -1.9058954728 -1.2272416168 -0.2549283086
O  -1.9257283108  1.5775473650 -0.3176803648
H  -2.4249420350  0.9337893298 -0.8430747839
H  -0.1015434251  0.0953542472 -1.3292464777
H  -0.5108045173 -0.9618385010  1.3466072674
H   1.2602414779  1.3631108419  0.2240174638
H  -2.6089797916 -1.5536556914  0.3973200272
H  -1.4838823533 -2.0301011714 -0.7050424230
H  -0.7716265252  1.5030357238  1.3491253731
H  -2.3301565615  0.6901853390  1.5200138991
H   2.9976222691  0.0792587084  1.4391157018
H   1.9871801194  0.7712280101 -2.0850299265
H   2.2290874462 -1.4409965139  0.9398775824
H   1.3982111942 -0.3359088891  2.0445846508
H   3.3567806172  0.7997699467 -0.9684532035
H   2.6493860759 -0.7493727525 -1.4737870219
22
Image 52  Energy = -383.6554458365
C  -0.8660007238 -0.4646453552  0.4352953001
C   1.4529480454  0.3098971500 -0.0423943163
C  -1.4925218918  0.8729942853  0.8274680165
C   2.0494538052 -0.3887951287  1.1714801040
C   2.4284899898  0.2902766578 -1.2099604721
N   0.2411418135 -0.3723645379 -0.4933111804
N  -1.9081110440 -1.2256743751 -0.2555931088
O  -1.9311859160  1.5757421438 -0.3167988062
H  -2.4247398064  0.9285657538 -0.8413421151
H  -0.0994506599  0.0906314759 -1.3321710770
H  -0.5075831230 -0.9644264218  1.3436600019
H   1.2543765932  1.3606596733  0.2257356452
H  -2.6156677941 -1.5410943422  0.3953901965
H  -1.4923274244 -2.0357789692 -0.6954702505
H  -0.7695681095  1.5039806217  1.3440734091
H  -2.3250887791  0.6863559112  1.5196319642
H   3.0003721536  0.0736487267  1.4369036842
H   1.9897054620  0.7793902590 -2.0830548470
H   2.2238070283 -1.4427778294  0.9430743117
H   1.4022357026 -0.3293762890  2.0463945053
H   3.3579618074  0.8022635284 -0.9637589540
H   2.6516618658 -0.7458336855 -1.4767925468
22
Image 53  Energy = -383.6554949547
C  -0.8635735451 -0.4668344182  0.4324544794
C   1.4526899934  0.3079436578 -0.0429480100
C  -1.4883858422  0.8717677670  0.8245002777
C   2.0500280622 -0.3893837631  1.1704305031
C   2.4306123866  0.2959023994 -1.2095447659
N   0.2434621832 -0.3792339467 -0.4991863157
N  -1.9109090016 -1.2204047113 -0.2566839284
O  -1.9406148772  1.5735892906 -0.3145631582
H  -2.4246872573  0.9190841990 -0.8396416944
H  -0.0955657975  0.0813797491 -1.3357720743
H  -0.5033380928 -0.9680520228  1.3377013870
H   1.2432795131  1.3548233830  0.2280601285
H  -2.6286801847 -1.5202112831  0.3929154579
H  -1.5059746873 -2.0471905495 -0.6797307723
H  -0.7647255292  1.5068541861  1.3350642835
H  -2.3161688779  0.6800701395  1.5199601774
H   3.0058453101  0.0638825271  1.4325724652
H   1.9955897890  0.7932089989 -2.0791786656
H   2.2149208317 -1.4458071773  0.9491070655
H   1.4094256456 -0.3176027567  2.0498772487
H   3.3603284103  0.8071667159 -0.9549064703
H   2.6563505725 -0.7373131493 -1.4820281582
22
Image 54  Energy = -383.6555327134
C  -0.8650123312 -0.4669104907  0.4321752769
C   1.4517681272  0.3062523602 -0.0432669221
C  -1.4877152753  0.8724402804  0.8252928918
C   2.0510280190 -0.3895833697  1.1704453965
C   2.4300977174  0.2964692801 -1.2088792506
N   0.2424314473 -0.3811139475 -0.4980268734
N  -1.9123868579 -1.2217436279 -0.2568558222
O  -1.9424265247  1.5739446388 -0.3142289509
H  -2.4233782378  0.9203622967 -0.8406395552
H  -0.0974483725  0.0817220972 -1.3358728998
H  -0.5054344508 -0.9676998078  1.3376060238
H   1.2416434915  1.3523333947  0.2274353848
H  -2.6289348875 -1.5225083504  0.3917592024
H  -1.5056823855 -2.0467198338 -0.6796115259
H  -0.7631223068  1.5082089130  1.3339242641
H  -2.3154251289  0.6816631588  1.5214104041
H   3.0071951947  0.0636132693  1.4321970790
H   1.9979540801  0.7930032006 -2.0798102402
H   2.2160764189 -1.4457090959  0.9499456796
H   1.4110506852 -0.3170259377  2.0498946672
H   3.3592643563  0.8077533224 -0.9539403378
H   2.6583662279 -0.7351125137 -1.4824944296
