22
Image 0  Energy = -383.6555327134
C  -0.8650123312 -0.4669104907  0.4321752769
C   1.4517681272  0.3062523602 -0.0432669221
C  -1.4877152753  0.8724402804  0.8252928918
C   2.0510280190 -0.3895833697  1.1704453965
C   2.4300977174  0.2964692801 -1.2088792506
N   0.2424314473 -0.3811139475 -0.4980268734
N  -1.9123868579 -1.2217436279 -0.2568558222
O  -1.9424265247  1.5739446388 -0.3142289509
H  -2.4233782378  0.9203622967 -0.8406395552
H  -0.0974483725  0.0817220972 -1.3358728998
H  -0.5054344508 -0.9676998078  1.3376060238
H   1.2416434915  1.3523333947  0.2274353848
H  -2.6289348875 -1.5225083504  0.3917592024
H  -1.5056823855 -2.0467198338 -0.6796115259
H  -0.7631223068  1.5082089130  1.3339242641
H  -2.3154251289  0.6816631588  1.5214104041
H   3.0071951947  0.0636132693  1.4321970790
H   1.9979540801  0.7930032006 -2.0798102402
H   2.2160764189 -1.4457090959  0.9499456796
H   1.4110506852 -0.3170259377  2.0498946672
H   3.3592643563  0.8077533224 -0.9539403378
H   2.6583662279 -0.7351125137 -1.4824944296
