22
Image 0  Energy = -383.7224432850
C  -0.8712799934 -0.4510274941  0.4360336304
C   1.4519165485  0.3007916478 -0.0425325996
C  -1.4934556008  0.8892721801  0.8201074678
C   2.0461025884 -0.4043099507  1.1677991457
C   2.4355569232  0.2879607367 -1.2038937784
N   0.2323232529 -0.3651311832 -0.4983049698
N  -1.9121181700 -1.2141611422 -0.2521626352
O  -1.9844020426  1.5527172620 -0.3258204254
H  -2.4554168441  0.8727994830 -0.8326936490
H  -0.1011691168  0.1061830602 -1.3356006469
H  -0.5133661257 -0.9423526275  1.3484832559
H   1.2634191392  1.3508594688  0.2327528094
H  -2.6111624945 -1.5514321316  0.4011691149
H  -1.4852629059 -2.0171206341 -0.7027468435
H  -0.7509392631  1.5371783283  1.2896517083
H  -2.2913814482  0.7110077598  1.5562448383
H   2.9912315152  0.0673039072  1.4378270276
H   2.0039755607  0.7704265896 -2.0830719077
H   2.2332733366 -1.4555508709  0.9381046191
H   1.3952393218 -0.3538887977  2.0409744867
H   3.3552858746  0.8144917062 -0.9453446817
H   2.6815328400 -0.7423772562 -1.4685167071
