22
Image 0  Energy = -383.5281735435
C  -0.7781260000 -1.0675610000  0.3210590000
C   1.3025530000  0.0521200000 -0.0282990000
C  -0.9719930000  1.4562490000  0.8236570000
C   1.9812290000 -0.4184330000  1.2501750000
C   2.2640330000  0.4351680000 -1.1331070000
N   0.2911640000 -0.8768210000 -0.5003990000
N  -2.0191630000 -1.3720060000 -0.2331120000
O  -1.6647340000  1.6302230000 -0.4018370000
H  -2.2586320000  0.8701390000 -0.4758990000
H   0.0278490000 -0.6783120000 -1.4584950000
H  -0.6097590000 -1.3678560000  1.3411780000
H   0.6812640000  0.9183000000  0.2869410000
H  -2.5732630000 -2.0573610000  0.2574120000
H  -2.0524280000 -1.5045420000 -1.2338230000
H  -0.3689930000  2.3513920000  0.9917470000
H  -1.6396090000  1.2942150000  1.6746530000
H   2.7644490000  0.2914620000  1.5228460000
H   1.7251140000  0.7306950000 -2.0377940000
H   2.4355930000 -1.4060980000  1.1342150000
H   1.2730050000 -0.4472240000  2.0805790000
H   2.8503450000  1.2986970000 -0.8143220000
H   2.9600090000 -0.3688060000 -1.3889100000
22
Image 1  Energy = -383.5280898340
C  -0.7780744980 -1.0682551053  0.3209896721
C   1.3024043695  0.0521704949 -0.0282825088
C  -0.9714503189  1.4567389493  0.8235666043
C   1.9811930370 -0.4183931102  1.2502647639
C   2.2639656269  0.4352408539 -1.1330758553
N   0.2910920215 -0.8766922716 -0.5003651199
N  -2.0193158568 -1.3720730893 -0.2331814947
O  -1.6647301810  1.6302406418 -0.4018664214
H  -2.2586520095  0.8700950307 -0.4758765811
H   0.0278703423 -0.6783378641 -1.4585273206
H  -0.6097656269 -1.3678242153  1.3411921731
H   0.6811726399  0.9182952209  0.2870137692
H  -2.5732930453 -2.0574089499  0.2574021489
H  -2.0524759832 -1.5045479599 -1.2338480980
H  -0.3690257883  2.3514927413  0.9917593106
H  -1.6395583027  1.2941162853  1.6746785335
H   2.7644586572  0.2914803352  1.5228519741
H   1.7251078847  0.7307047644 -2.0378139433
H   2.4356013710 -1.4061070678  1.1342160556
H   1.2730118511 -0.4472106573  2.0805978443
H   2.8503441982  1.2987218566 -0.8143194664
H   2.9600266111 -0.3688068836 -1.3889110400
22
Image 2  Energy = -383.5363548970
C  -0.7865034562 -0.9511615869  0.3411755394
C   1.3211234355  0.0462379338 -0.0326745814
C  -1.0343132740  1.3900523787  0.8305387203
C   1.9861559130 -0.4237002202  1.2401664220
C   2.2740137202  0.4266295836 -1.1378624817
N   0.3054668485 -0.8952232793 -0.5044233925
N  -1.9985062585 -1.3616444995 -0.2255154047
O  -1.6696374701  1.6274901687 -0.3974385376
H  -2.2589501933  0.8754920427 -0.4828468782
H   0.0245072594 -0.6735212803 -1.4539168333
H  -0.6089804298 -1.3709915971  1.3349608842
H   0.6995571431  0.9164751200  0.2734162463
H  -2.5654062024 -2.0467231782  0.2594009762
H  -2.0431422497 -1.5022902921 -1.2268039205
H  -0.3732358502  2.3150266010  0.9882840271
H  -1.6610262864  1.3082274093  1.6810684569
H   2.7631333405  0.2881544719  1.5216812598
H   1.7263800407  0.7286494042 -2.0343504215
H   2.4354012492 -1.4067452404  1.1336529014
H   1.2733678626 -0.4495128071  2.0749832861
H   2.8508455912  1.2940137747 -0.8150892338
H   2.9596563288 -0.3712949491 -1.3899418661
22
Image 3  Energy = -383.5426293977
C  -0.7963679411 -0.8323836115  0.3692040238
C   1.3334419227  0.0428359088 -0.0397088729
C  -1.0830232476  1.3253014391  0.8262600893
C   1.9911552838 -0.4277399879  1.2341630375
C   2.2830647730  0.4218027967 -1.1417374889
N   0.3197901473 -0.9093739407 -0.5041729745
N  -1.9825118867 -1.3454626785 -0.2174144992
O  -1.6771006622  1.6269273735 -0.3900038142
H  -2.2665919935  0.8762851908 -0.4957105822
H   0.0221814380 -0.6677860962 -1.4484812199
H  -0.6088093484 -1.3683247698  1.3248716870
H   0.7263596736  0.9129937957  0.2561620316
H  -2.5528380425 -2.0321273157  0.2628440998
H  -2.0301043716 -1.4986497133 -1.2185583881
H  -0.3815025460  2.2592554215  0.9848505845
H  -1.6955058821  1.3201552989  1.6963369606
H   2.7629654981  0.2847225440  1.5206049237
H   1.7279632691  0.7259453808 -2.0313442863
H   2.4366238605 -1.4101028361  1.1324613958
H   1.2748622794 -0.4524176928  2.0669564953
H   2.8531987334  1.2892608342 -0.8163463360
H   2.9626561337 -0.3774774092 -1.3927716580
22
Image 4  Energy = -383.5530195636
C  -0.8130584542 -0.6323836085  0.4259157125
C   1.3575265764  0.0342102645 -0.0545633078
C  -1.1630745133  1.1908520912  0.8265089412
C   2.0011647793 -0.4339305277  1.2247730578
C   2.3003857151  0.4138008312 -1.1493736979
N   0.3278795966 -0.9174208853 -0.4893605525
N  -1.9620501411 -1.2936093048 -0.2012548083
O  -1.7103008144  1.6184092597 -0.3805183794
H  -2.2891398495  0.8805606972 -0.5332337140
H   0.0219525477 -0.6566289272 -1.4326621304
H  -0.6120416082 -1.3374930379  1.2996552994
H   0.7883334540  0.9143589621  0.2194519816
H  -2.5216854197 -1.9982281984  0.2747502738
H  -1.9966549230 -1.4869994956 -1.1981501377
H  -0.3980527162  2.1198967669  0.9800835600
H  -1.7634996348  1.3365654132  1.7150615139
H   2.7666680881  0.2793257095  1.5197090377
H   1.7317550039  0.7201994991 -2.0282467580
H   2.4407377251 -1.4194322157  1.1289946719
H   1.2783200808 -0.4592566226  2.0504978107
H   2.8634358079  1.2827059424 -0.8191848876
H   2.9713058079 -0.3918627369 -1.4003883125
22
Image 5  Energy = -383.5674307835
C  -0.8404488113 -0.5009391096  0.4712397028
C   1.3847356442  0.0254218670 -0.0644169735
C  -1.2234514890  1.0613927250  0.8152788487
C   2.0161746454 -0.4413366828  1.2169185933
C   2.3221040570  0.4039115741 -1.1611138534
N   0.3198177266 -0.8886484250 -0.4608087989
N  -1.9635420073 -1.2223972366 -0.1757669812
O  -1.7330544517  1.6149405970 -0.3562315728
H  -2.3393708965  0.8671802787 -0.5897003866
H   0.0232815768 -0.6458898848 -1.4106636113
H  -0.6197242809 -1.2654874233  1.2788458874
H   0.8524620168  0.9310361685  0.1842266014
H  -2.4812147563 -1.9531395981  0.2899157806
H  -1.9532955092 -1.4679160628 -1.1744755658
H  -0.4168938692  1.9507596616  0.9801902401
H  -1.8274099030  1.3337262901  1.7189279892
H   2.7737503819  0.2738271237  1.5198312631
H   1.7373697805  0.7138575123 -2.0277769187
H   2.4460277938 -1.4287767245  1.1251323973
H   1.2817095152 -0.4668052384  2.0338866705
H   2.8778584388  1.2754142775 -0.8236405941
H   2.9830214604 -0.4064917843 -1.4113337370
22
Image 6  Energy = -383.6046239416
C  -0.8736992289 -0.4949239835  0.4900944345
C   1.4024550620  0.0300702619 -0.0664968746
C  -1.2393297659  0.9954605629  0.8156370007
C   2.0323435043 -0.4463114895  1.2179196092
C   2.3422680587  0.3953064152 -1.1740918195
N   0.2898857306 -0.8174459755 -0.4174169640
N  -2.0011652116 -1.1313747973 -0.1654369011
O  -1.7834708356  1.5746187403 -0.3449558940
H  -2.3892336538  0.8734800999 -0.6550715274
H   0.0257552445 -0.6344958255 -1.3846447608
H  -0.6327560393 -1.1476822627  1.2749146472
H   0.9191573717  0.9644869955  0.1556337988
H  -2.4363790807 -1.9046013640  0.3154041759
H  -1.8994062495 -1.4373318392 -1.1366668719
H  -0.4376238972  1.7507596735  0.9895312407
H  -1.8760384717  1.2916562961  1.6969672539
H   2.7872708126  0.2689146435  1.5221431969
H   1.7459123722  0.7067359936 -2.0320444501
H   2.4554119137 -1.4417810182  1.1206179303
H   1.2869329627 -0.4747878976  2.0162672916
H   2.8985166226  1.2671890228 -0.8309832740
H   3.0030996985 -0.4243022501 -1.4288567873
22
Image 7  Energy = -383.6172558727
C  -0.8889742928 -0.5409278690  0.4171928651
C   1.3953529818  0.0620173941 -0.0455319112
C  -1.2277781352  1.0222253599  0.8055901191
C   2.0441838655 -0.4469065995  1.2219331131
C   2.3517902453  0.3805484104 -1.1825145016
N   0.2462937470 -0.7537059307 -0.3972244954
N  -2.0902720917 -1.0811524936 -0.1724572400
O  -1.8179677054  1.5508893656 -0.3492534438
H  -2.4422923340  0.8655883452 -0.7034467428
H   0.0244679991 -0.6221619602 -1.3614848974
H  -0.6372244500 -1.0861457494  1.3621429454
H   0.9700791471  1.0196588131  0.1537069385
H  -2.4016481099 -1.8659035885  0.3382675192
H  -1.8508295854 -1.4054358068 -1.1002876799
H  -0.4264663538  1.6008170817  1.0061544639
H  -1.8994972170  1.2057155328  1.6659426004
H   2.8088381759  0.2663097608  1.5298585013
H   1.7578029345  0.7008109827 -2.0439922338
H   2.4666285057 -1.4511677393  1.1160744419
H   1.2912437894 -0.4809725370  2.0090138007
H   2.9228397172  1.2581664554 -0.8425731029
H   3.0233359131 -0.4346271175 -1.4486471089
22
Image 8  Energy = -383.6269777603
C  -0.9053728028 -0.4766450941  0.4591790810
C   1.4046809523  0.0678876069 -0.0462802729
C  -1.2861178651  0.9466347792  0.7958953929
C   2.0518153187 -0.4482720999  1.2203949250
C   2.3597135885  0.3732165930 -1.1861070917
N   0.2450418285 -0.7396546311 -0.3949238274
N  -2.1028919121 -1.0354582840 -0.1810391848
O  -1.8570955396  1.5326838086 -0.3634384151
H  -2.4548802165  0.8801735636 -0.7246493555
H   0.0221827528 -0.6111463457 -1.3565221206
H  -0.6484690730 -1.0421984178  1.3698269345
H   1.0102757000  1.0482486093  0.1444095471
H  -2.3852941432 -1.8518763777  0.3571496598
H  -1.8257063114 -1.3926644602 -1.0805321152
H  -0.3985503936  1.5180859316  1.0167598410
H  -1.9286591285  1.1741737680  1.6575862220
H   2.8184239663  0.2615792116  1.5329279496
H   1.7655322757  0.6956201101 -2.0473851893
H   2.4718306613 -1.4556465389  1.1121160742
H   1.2952914407 -0.4860959851  2.0020548188
H   2.9353322920  1.2484225181 -0.8504510078
H   3.0328233222 -0.4434281317 -1.4585080510
22
Image 9  Energy = -383.6299806212
C  -0.8989608713 -0.5420409336  0.4733238630
C   1.3925647045  0.0689131295 -0.0462880130
C  -1.2671145148  0.9985278011  0.7819655639
C   2.0448812179 -0.4435109572  1.2241772947
C   2.3478170649  0.3795983054 -1.1781406804
N   0.2612929510 -0.7584490578 -0.4116603031
N  -2.0918709565 -1.0791208097 -0.1866008602
O  -1.8330827113  1.5552169627 -0.3728072138
H  -2.4362097135  0.8765381343 -0.6941015448
H   0.0182091636 -0.6123655181 -1.3803324923
H  -0.6537239591 -1.0731673186  1.3677190523
H   0.9776745074  1.0479616927  0.1681138524
H  -2.4103695658 -1.8769564215  0.3465754810
H  -1.8521029511 -1.4085293074 -1.1009258240
H  -0.3742887607  1.6202613238  1.0185790720
H  -1.9006511722  1.1687747495  1.6605235689
H   2.8152003776  0.2618049634  1.5338365424
H   1.7653554323  0.6974951660 -2.0478952710
H   2.4680081244 -1.4465250660  1.1124366795
H   1.2947686309 -0.4827736790  2.0137831428
H   2.9284179423  1.2470196869 -0.8518744848
H   3.0240918024 -0.4350327225 -1.4519434683
22
Image 10  Energy = -383.6342911339
C  -0.9125581856 -0.5145565558  0.4715470600
C   1.3951081797  0.0801653157 -0.0459379387
C  -1.2590832052  0.9854432377  0.7762214149
C   2.0481282401 -0.4424162315  1.2233407824
C   2.3516853053  0.3745450357 -1.1805200475
N   0.2561926170 -0.7508342427 -0.4034547990
N  -2.1000260510 -1.0709335194 -0.1705748066
O  -1.8401983394  1.5580789182 -0.3771816583
H  -2.4524411665  0.8746979229 -0.7062364413
H   0.0129717346 -0.6013874536 -1.3836180396
H  -0.6651401280 -1.0547831749  1.3873968236
H   0.9980047595  1.0688832322  0.1720932364
H  -2.4082769878 -1.8688247339  0.3483781278
H  -1.8401385368 -1.4092631759 -1.1013871638
H  -0.3750049616  1.5772728484  1.0203127877
H  -1.9158598720  1.1359005714  1.6543330981
H   2.8222041175  0.2574068968  1.5374542312
H   1.7725079283  0.6935570043 -2.0511916878
H   2.4701385450 -1.4444497738  1.1084441960
H   1.2985357296 -0.4855110742  2.0150133802
H   2.9374938754  1.2383582575 -0.8598582066
H   3.0256631232 -0.4377091643 -1.4561104770
22
Image 11  Energy = -383.6367813246
C  -0.9202335236 -0.4940087746  0.4726809735
C   1.3948985017  0.0960734993 -0.0418301570
C  -1.2578248681  0.9765807805  0.7676425510
C   2.0508272334 -0.4384731091  1.2230015462
C   2.3545159031  0.3691046618 -1.1838812582
N   0.2458696830 -0.7385669595 -0.4034295609
N  -2.1065442123 -1.0649893233 -0.1728196677
O  -1.8488404029  1.5582120056 -0.3849491214
H  -2.4669251166  0.8778126930 -0.7147550850
H   0.0073477202 -0.5869390149 -1.3802002636
H  -0.6833983811 -1.0302571376  1.4114675727
H   1.0228428346  1.0960242538  0.1804066603
H  -2.4112640706 -1.8684763702  0.3549396907
H  -1.8321135695 -1.4068787776 -1.0891591601
H  -0.3696949654  1.5350348737  1.0235456558
H  -1.9288174095  1.0878998594  1.6412652891
H   2.8320784409  0.2514659645  1.5430292567
H   1.7823921944  0.6883409403 -2.0567280359
H   2.4726447450 -1.4407583792  1.1020009167
H   1.3045133319 -0.4887423587  2.0181289578
H   2.9509208805  1.2273865512 -0.8711815962
H   3.0267117406 -0.4422057172 -1.4607113996
22
Image 12  Energy = -383.6389687627
C  -0.9204911928 -0.4872158368  0.4671146987
C   1.3910815046  0.1121222082 -0.0392264299
C  -1.2644143087  0.9713849095  0.7567959930
C   2.0507497385 -0.4312580236  1.2234023175
C   2.3547028706  0.3662017498 -1.1855774715
N   0.2410323777 -0.7213763467 -0.3983834377
N  -2.1072940101 -1.0752125974 -0.1618411338
O  -1.8487039649  1.5600976807 -0.3936957007
H  -2.4734835349  0.8875113504 -0.7108769547
H  -0.0025900104 -0.5649171959 -1.3770754408
H  -0.7114446333 -1.0055774656  1.4313965831
H   1.0463444952  1.1235816995  0.1964027365
H  -2.4245753245 -1.8734408680  0.3544223192
H  -1.8313764677 -1.4143866382 -1.0851068163
H  -0.3615198690  1.5195048556  1.0265936176
H  -1.9346932806  1.0287943216  1.6210222479
H   2.8435617060  0.2438706424  1.5507900533
H   1.7940756743  0.6822796960 -2.0661368814
H   2.4729899138 -1.4313112945  1.0908189401
H   1.3142316494 -0.4914784000  2.0264033314
H   2.9694432847  1.2147257367 -0.8869938051
H   3.0222800445 -0.4502600026 -1.4617850791
22
Image 13  Energy = -383.6407759991
C  -0.9229306156 -0.4931575933  0.4707710697
C   1.3924997006  0.1336134079 -0.0327003443
C  -1.2546281210  0.9668421755  0.7410698290
C   2.0519286054 -0.4212960237  1.2239001576
C   2.3546387445  0.3635802975 -1.1882326447
N   0.2439916070 -0.6982342473 -0.3999796850
N  -2.0911239350 -1.0926800459 -0.1628334992
O  -1.8337854783  1.5701252178 -0.3977098309
H  -2.4802031004  0.8997127192 -0.6997750578
H  -0.0155914533 -0.5326345641 -1.3644756261
H  -0.7469633913 -0.9763979131  1.4386593057
H   1.0701085151  1.1476675509  0.2171337516
H  -2.4510664021 -1.8956272423  0.3563482134
H  -1.8441708170 -1.4311780639 -1.0790715652
H  -0.3715840676  1.5238441505  1.0268069437
H  -1.9452872183  0.9630099865  1.6011966646
H   2.8555707269  0.2347495597  1.5597937326
H   1.8071369631  0.6752511433 -2.0805655687
H   2.4697732351 -1.4157948196  1.0719049167
H   1.3279742481 -0.4932810439  2.0404723289
H   2.9956475913  1.2010877004 -0.9079160319
H   3.0079712976 -0.4655621549 -1.4563334157
22
Image 14  Energy = -383.6418204445
C  -0.9161921857 -0.4987475167  0.4671891093
C   1.3976040980  0.1355841133 -0.0314342790
C  -1.2620920517  0.9655263574  0.7469358723
C   2.0532187703 -0.4194689150  1.2254344731
C   2.3567723412  0.3659532671 -1.1897349930
N   0.2485817709 -0.6951627997 -0.3958793083
N  -2.0920523560 -1.1070667045 -0.1632058146
O  -1.8300233528  1.5663793241 -0.3963446066
H  -2.4756088498  0.9091596074 -0.6945653450
H  -0.0177396669 -0.5228823297 -1.3594846842
H  -0.7485130107 -0.9746099797  1.4327836609
H   1.0712757787  1.1464652793  0.2181995079
H  -2.4530354129 -1.8945504272  0.3528626381
H  -1.8497553527 -1.4378846439 -1.0799682733
H  -0.3821066492  1.5346904450  1.0272485384
H  -1.9465833155  0.9622846978  1.5966157850
H   2.8566652315  0.2347513441  1.5604103637
H   1.8080209973  0.6740511141 -2.0827846690
H   2.4678524045 -1.4143419783  1.0653892894
H   1.3314936048 -0.4924278884  2.0422286384
H   3.0013514652  1.1996112158 -0.9121280956
H   3.0007723753 -0.4736733860 -1.4513041499
22
Image 15  Energy = -383.6424513147
C  -0.9146219405 -0.5026894587  0.4636399174
C   1.4029528540  0.1379907765 -0.0301296197
C  -1.2694667644  0.9606380469  0.7491879551
C   2.0562070077 -0.4186180119  1.2265148437
C   2.3596524940  0.3667558703 -1.1910988438
N   0.2544654893 -0.6926118282 -0.3930372503
N  -2.0904093743 -1.1131205815 -0.1630071940
O  -1.8242144788  1.5655589613 -0.3933299859
H  -2.4754075037  0.9165254609 -0.6924153394
H  -0.0191035833 -0.5110607775 -1.3537128894
H  -0.7471869892 -0.9744297224  1.4289571098
H   1.0725886918  1.1469512085  0.2186338846
H  -2.4550760292 -1.8967248609  0.3528209073
H  -1.8541494644 -1.4471629535 -1.0848631357
H  -0.3936633612  1.5446425971  1.0296861274
H  -1.9526858034  0.9631146749  1.5952270028
H   2.8589482261  0.2355966555  1.5612357178
H   1.8089196055  0.6725939459 -2.0846582340
H   2.4659764867 -1.4136754701  1.0580141767
H   1.3350454640 -0.4913667509  2.0435116300
H   3.0086292590  1.1982144174 -0.9170662748
H   2.9925063454 -0.4834820027 -1.4456468361
22
Image 16  Energy = -383.6435109091
C  -0.9136866630 -0.5075320282  0.4601163192
C   1.4123602318  0.1480266108 -0.0263041818
C  -1.2795730393  0.9519210995  0.7522969841
C   2.0651251087 -0.4161029855  1.2275222033
C   2.3663739729  0.3651415268 -1.1932096911
N   0.2639936252 -0.6853413580 -0.3880518917
N  -2.0895127074 -1.1259633112 -0.1674034109
O  -1.8173432968  1.5647808592 -0.3919517014
H  -2.4809695358  0.9344835339 -0.6929211621
H  -0.0211815060 -0.4786549950 -1.3417657018
H  -0.7438936291 -0.9723113848  1.4277312476
H   1.0802004792  1.1565419944  0.2210490916
H  -2.4571776198 -1.8991905817  0.3550834812
H  -1.8614312041 -1.4680638735 -1.0923613586
H  -0.4208430904  1.5540490352  1.0392678376
H  -1.9756076636  0.9562991734  1.5933390972
H   2.8684734404  0.2369868122  1.5646113281
H   1.8134173179  0.6676056258 -2.0886283327
H   2.4632029273 -1.4130425072  1.0398507899
H   1.3444517493 -0.4894980510  2.0458372268
H   3.0297165087  1.1918882295 -0.9317795892
H   2.9738112089 -0.5083832270 -1.4338649145
22
Image 17  Energy = -383.6443263362
C  -0.9114269064 -0.5144863136  0.4596805716
C   1.4256747052  0.1724830634 -0.0147764879
C  -1.3234852488  0.9383755062  0.7678445186
C   2.0850617485 -0.4088125356  1.2264198183
C   2.3795186579  0.3573555407 -1.1947459996
N   0.2715756587 -0.6710961021 -0.3897351408
N  -2.0808056069 -1.1389172846 -0.1863394508
O  -1.8078077941  1.5676443029 -0.3937285988
H  -2.5034669364  0.9678274935 -0.7047824259
H  -0.0178474822 -0.4086251402 -1.3184968960
H  -0.7281248496 -0.9787311128  1.4299316155
H   1.0946091272  1.1821125807  0.2249780887
H  -2.4570726130 -1.9065271596  0.3668731114
H  -1.8703542169 -1.5102976833 -1.1019680906
H  -0.4666403006  1.5657388584  1.0713504363
H  -2.0231347831  0.9457779189  1.5812275982
H   2.8922850862  0.2378125510  1.5703809521
H   1.8251451520  0.6546595658 -2.0904583624
H   2.4608493445 -1.4134609963  1.0050198025
H   1.3659745861 -0.4860985357  2.0451445250
H   3.0737010038  1.1704949416 -0.9646560248
H   2.9356782507 -0.5595892532 -1.4106999139
22
Image 18  Energy = -383.6457739127
C  -0.9155707172 -0.5141983728  0.4620737874
C   1.4267139826  0.1820235598 -0.0128189161
C  -1.3213931938  0.9385916306  0.7625776966
C   2.0917519219 -0.4064558888  1.2241490781
C   2.3823298190  0.3507313445 -1.1929174380
N   0.2744665815 -0.6596761455 -0.3858698548
N  -2.0796844568 -1.1458017021 -0.1837751598
O  -1.8108611531  1.5680107085 -0.3969690274
H  -2.5130053345  0.9808221088 -0.7110076216
H  -0.0182271326 -0.3799795782 -1.3164930153
H  -0.7254711011 -0.9798805788  1.4333977143
H   1.1021171145  1.1973781070  0.2292784269
H  -2.4557454792 -1.9050366759  0.3682561948
H  -1.8689301540 -1.5260098290 -1.1054080605
H  -0.4842830165  1.5595450687  1.0852429938
H  -2.0495505521  0.9326757013  1.5805163802
H   2.9035701444  0.2357091122  1.5728549297
H   1.8313075263  0.6487396376 -2.0914808985
H   2.4609611674 -1.4101410923  0.9935125940
H   1.3750209823 -0.4858112046  2.0455143357
H   3.0917015078  1.1584754927 -0.9783231147
H   2.9226881095 -0.5760711929 -1.4038474007
22
Image 19  Energy = -383.6466008965
C  -0.9182860145 -0.5103595137  0.4665897436
C   1.4246502270  0.1902727588 -0.0107677890
C  -1.3243256645  0.9406148416  0.7610551541
C   2.0961313718 -0.4037899290  1.2208280475
C   2.3826724520  0.3433511770 -1.1898143543
N   0.2709395654 -0.6477208182 -0.3876391607
N  -2.0768783379 -1.1487983319 -0.1849478898
O  -1.8180230284  1.5692702236 -0.4018744380
H  -2.5226783740  0.9890474017 -0.7195136710
H  -0.0159734710 -0.3587087927 -1.3171294979
H  -0.7208608760 -0.9852576726  1.4363430301
H   1.1068864971  1.2104945980  0.2324824518
H  -2.4522618829 -1.9028949642  0.3705811974
H  -1.8630180531 -1.5345546066 -1.1012096411
H  -0.4933168967  1.5493313574  1.1006954299
H  -2.0695902391  0.9235514483  1.5759823415
H   2.9132990120  0.2317895252  1.5729500691
H   1.8367738366  0.6429900586 -2.0895891782
H   2.4630036831 -1.4065338588  0.9877640762
H   1.3825275308 -0.4862995056  2.0439519264
H   3.1040016601  1.1438259562 -0.9883139633
H   2.9142335575 -0.5859811375 -1.3999602880
22
Image 20  Energy = -383.6474648548
C  -0.9196707236 -0.5059308560  0.4706470537
C   1.4242057912  0.2059671535 -0.0064121684
C  -1.3416626180  0.9395616753  0.7626844987
C   2.1036045021 -0.3976147179  1.2161209797
C   2.3829418856  0.3327093870 -1.1854242752
N   0.2664800059 -0.6238144829 -0.3880004895
N  -2.0709719492 -1.1545677327 -0.1861317575
O  -1.8264705516  1.5722789389 -0.4069445320
H  -2.5399684446  1.0044317415 -0.7342237537
H  -0.0133832736 -0.3165927728 -1.3181323900
H  -0.7109489365 -0.9948906186  1.4357487160
H   1.1151155199  1.2314488605  0.2373814837
H  -2.4463783056 -1.9003285798  0.3757361782
H  -1.8503797152 -1.5519555251 -1.0935859821
H  -0.5126618506  1.5364822621  1.1301634671
H  -2.1047498195  0.9113008172  1.5638250922
H   2.9306017058  0.2243053075  1.5710643240
H   1.8457271593  0.6318776508 -2.0867357269
H   2.4669643926 -1.4003500953  0.9755907048
H   1.3969942216 -0.4870381342  2.0417857390
H   3.1273842456  1.1151541626 -1.0056460291
H   2.8971332923 -0.6087942192 -1.3910475766
22
Image 21  Energy = -383.6478769273
C  -0.9248439979 -0.5004281804  0.4708650570
C   1.4293215005  0.2321784451  0.0028851662
C  -1.3703993620  0.9340208554  0.7681595877
C   2.1139469836 -0.3910055076  1.2095830878
C   2.3878998717  0.3085475211 -1.1831828986
N   0.2603814617 -0.5682781048 -0.4053411701
N  -2.0561679641 -1.1601019486 -0.1834706103
O  -1.8429331943  1.5705877111 -0.4077098077
H  -2.5538442197  1.0334288889 -0.7504677517
H  -0.0128954989 -0.2506235292 -1.3089398171
H  -0.6958277299 -1.0041148910  1.4176301389
H   1.1287785474  1.2597978950  0.2455070637
H  -2.4402892078 -1.9024481542  0.3889726301
H  -1.8145263143 -1.5785678497 -1.0748223394
H  -0.5565817715  1.5167589958  1.1762801210
H  -2.1636415741  0.8948299063  1.5377550767
H   2.9567029075  0.2099371087  1.5594985577
H   1.8538137075  0.6138938324 -2.0887925616
H   2.4738678249 -1.3834908489  0.9571123224
H   1.4189862289 -0.4891002277  2.0450347079
H   3.1641825403  1.0607949836 -1.0246971134
H   2.8639757648 -0.6429766746 -1.3733959367
22
Image 22  Energy = -383.6489018647
C  -0.9217762482 -0.4977230830  0.4682845630
C   1.4315937458  0.2380784918  0.0027789501
C  -1.3839653513  0.9297445053  0.7714339549
C   2.1156236385 -0.3877177040  1.2099119468
C   2.3873391082  0.3080639991 -1.1834246456
N   0.2608445665 -0.5600968197 -0.3977429534
N  -2.0551588196 -1.1669725164 -0.1856531599
O  -1.8385866462  1.5753826571 -0.4047108584
H  -2.5620770404  1.0374755297 -0.7557336600
H  -0.0156163082 -0.2282848408 -1.3135751320
H  -0.6904171630 -1.0065369879  1.4135011249
H   1.1331155951  1.2670252254  0.2474707748
H  -2.4379844806 -1.9014643885  0.3911935806
H  -1.8068729546 -1.5867330770 -1.0701879581
H  -0.5689059557  1.5164697491  1.1878480433
H  -2.1782677148  0.8915767159  1.5311072351
H   2.9633240420  0.2075637112  1.5567022370
H   1.8566531044  0.6087561951 -2.0884725132
H   2.4755247656 -1.3821933354  0.9501334092
H   1.4253975517 -0.4891836882  2.0458658819
H   3.1749263883  1.0477707578 -1.0299771727
H   2.8551926684 -0.6573608671 -1.3682901451
22
Image 23  Energy = -383.6492177905
C  -0.9199620002 -0.4961886425  0.4649826245
C   1.4338457620  0.2397656998  0.0021984176
C  -1.3910510029  0.9264030384  0.7744643227
C   2.1147319095 -0.3868533048  1.2109718897
C   2.3870504619  0.3080799500 -1.1853964844
N   0.2604426096 -0.5548292201 -0.3977123879
N  -2.0543129994 -1.1696154946 -0.1856285842
O  -1.8360134282  1.5770377719 -0.4009903779
H  -2.5601941538  1.0386600060 -0.7545447574
H  -0.0190528000 -0.2198319932 -1.3145783950
H  -0.6877531569 -1.0050780871  1.4068296562
H   1.1355922975  1.2675243446  0.2481656431
H  -2.4375018484 -1.9022025157  0.3929804941
H  -1.7978427289 -1.5896739084 -1.0667360240
H  -0.5770190409  1.5186330711  1.1911053824
H  -2.1837136892  0.8914680936  1.5269722323
H   2.9645191839  0.2067377982  1.5523687320
H   1.8558088497  0.6068076768 -2.0900045649
H   2.4763759740 -1.3813510074  0.9478895425
H   1.4270669555 -0.4893510976  2.0487684079
H   3.1782506127  1.0407103040 -1.0278335762
H   2.8506387203 -0.6632122532 -1.3658086857
22
Image 24  Energy = -383.6495509768
C  -0.9197723323 -0.4926209350  0.4616568350
C   1.4353278479  0.2446876339  0.0019884685
C  -1.4020399741  0.9228481909  0.7779823044
C   2.1144691484 -0.3857446651  1.2107728992
C   2.3865103358  0.3036224898 -1.1875711091
N   0.2579012827 -0.5422012664 -0.4016457799
N  -2.0511266848 -1.1729440161 -0.1859215196
O  -1.8343442166  1.5806169435 -0.3962623852
H  -2.5579332218  1.0427342624 -0.7541998809
H  -0.0249607174 -0.1987705709 -1.3159984413
H  -0.6807600382 -1.0033930657  1.3970377362
H   1.1423464574  1.2726787736  0.2504129543
H  -2.4353395451 -1.9033553747  0.3973203032
H  -1.7777735749 -1.5986700235 -1.0603894271
H  -0.5939012966  1.5197060005  1.2014319951
H  -2.2012320717  0.8870760979  1.5199801479
H   2.9692414276  0.2049654701  1.5442228577
H   1.8556791695  0.6021301129 -2.0928114966
H   2.4780575574 -1.3789767765  0.9428228697
H   1.4318504373 -0.4895584673  2.0541125491
H   3.1881643701  1.0244772286 -1.0257039598
H   2.8395421189 -0.6756678125 -1.3607744140
22
Image 25  Energy = -383.6500717078
C  -0.9200014577 -0.4857238595  0.4578072902
C   1.4333782497  0.2486890488 -0.0004673353
C  -1.4173856295  0.9225603785  0.7863009363
C   2.1125961531 -0.3856460105  1.2100586467
C   2.3868357925  0.2965357024 -1.1897151433
N   0.2493097407 -0.5253593053 -0.4120671100
N  -2.0462508898 -1.1822227661 -0.1934703980
O  -1.8328787721  1.5887017818 -0.3908024801
H  -2.5477088739  1.0478341374 -0.7509039441
H  -0.0381297695 -0.1619470933 -1.3194762098
H  -0.6652669032 -0.9979671883  1.3861771190
H   1.1567297604  1.2818328522  0.2539930619
H  -2.4286429888 -1.9021568164  0.4020225974
H  -1.7392003247 -1.6164245969 -1.0469722372
H  -0.6221413235  1.5252248561  1.2184962834
H  -2.2317235449  0.8752560955  1.5111068007
H   2.9738661343  0.2051303871  1.5283543205
H   1.8563665841  0.5956570471 -2.0977638780
H   2.4787513918 -1.3784053781  0.9354695602
H   1.4403166363 -0.4885378392  2.0632517563
H   3.2022115989  0.9970552587 -1.0186206374
H   2.8188749013 -0.6964464611 -1.3543154815
22
Image 26  Energy = -383.6503743464
C  -0.9263468336 -0.4768623866  0.4537056455
C   1.4276772726  0.2568811791 -0.0026098240
C  -1.4445794049  0.9236430486  0.7943665977
C   2.1108084753 -0.3877656506  1.2034160760
C   2.3837224340  0.2768172938 -1.1916935200
N   0.2341127886 -0.4930704858 -0.4328461311
N  -2.0326921463 -1.1840989865 -0.1976654679
O  -1.8285721554  1.6055247420 -0.3791113615
H  -2.5372445288  1.0525250685 -0.7523236546
H  -0.0600417166 -0.0983718777 -1.3232678030
H  -0.6380957850 -0.9890395096  1.3745060089
H   1.1811464660  1.2969319594  0.2587791859
H  -2.4174057224 -1.9011696610  0.4088503020
H  -1.6712954351 -1.6560977726 -1.0322004507
H  -0.6641758080  1.5349522317  1.2534256781
H  -2.2830100448  0.8510653176  1.4967098175
H   2.9800257523  0.2058631542  1.5020788031
H   1.8628806849  0.5855705786 -2.1023901111
H   2.4773105420 -1.3772806412  0.9251051972
H   1.4561342152 -0.4857857002  2.0758298833
H   3.2269181637  0.9519261793 -1.0086520558
H   2.7826292311 -0.7285178429 -1.3455492886
22
Image 27  Energy = -383.6508584008
C  -0.9249203233 -0.4773045150  0.4571503572
C   1.4260850352  0.2533915812 -0.0035203246
C  -1.4373165570  0.9267485321  0.7941899190
C   2.1096722865 -0.3887179599  1.2025094043
C   2.3837450278  0.2785641979 -1.1894336872
N   0.2338249271 -0.4981027676 -0.4306909070
N  -2.0315477713 -1.1850195501 -0.2032337105
O  -1.8326206244  1.6030550573 -0.3819436515
H  -2.5342841069  1.0510335954 -0.7526069351
H  -0.0596982607 -0.1063738124 -1.3228612539
H  -0.6402003682 -0.9874327961  1.3801609847
H   1.1787028607  1.2930007565  0.2568157577
H  -2.4176293405 -1.8993500656  0.4052782571
H  -1.6787905343 -1.6529925936 -1.0303048550
H  -0.6571196253  1.5354257323  1.2501229358
H  -2.2741806570  0.8512192319  1.5000079331
H   2.9751646857  0.2075939109  1.5039546791
H   1.8647417929  0.5888014447 -2.1004536829
H   2.4749105962 -1.3803104373  0.9285444958
H   1.4544970319 -0.4848244870  2.0724837717
H   3.2202433907  0.9582562350 -1.0082443970
H   2.7866269849 -0.7230210508 -1.3494615633
22
Image 28  Energy = -383.6511434678
C  -0.9240152039 -0.4752205308  0.4596183338
C   1.4227495980  0.2505362060 -0.0051878168
C  -1.4349041948  0.9307501770  0.7958402391
C   2.1076271757 -0.3906499539  1.1991435934
C   2.3831293027  0.2758776606 -1.1866981138
N   0.2299752831 -0.4952680394 -0.4328160787
N  -2.0272438396 -1.1862986117 -0.2081271452
O  -1.8363230468  1.6047217377 -0.3815670903
H  -2.5293768714  1.0492937746 -0.7555207708
H  -0.0649708005 -0.1002458826 -1.3222215675
H  -0.6362142611 -0.9830943807  1.3855715525
H   1.1809778917  1.2917267956  0.2551379086
H  -2.4148749493 -1.8951649595  0.4006690756
H  -1.6702876738 -1.6611054191 -1.0252445478
H  -0.6583900257  1.5382240479  1.2558006582
H  -2.2747760435  0.8451749446  1.5005614186
H   2.9699490413  0.2099406981  1.4995686778
H   1.8696833286  0.5910243694 -2.0986844293
H   2.4707459623 -1.3842725210  0.9306948382
H   1.4564152339 -0.4825730196  2.0704495597
H   3.2173933773  0.9547567801 -1.0056128317
H   2.7826371678 -0.7244936320 -1.3529119346
22
Image 29  Energy = -383.6514283552
C  -0.9214001177 -0.4708101336  0.4614830677
C   1.4193549344  0.2490793276 -0.0076590682
C  -1.4385664196  0.9333498282  0.7995865966
C   2.1043130536 -0.3931466963  1.1939856323
C   2.3816819641  0.2698389645 -1.1845232151
N   0.2242464940 -0.4851594763 -0.4363191427
N  -2.0178427035 -1.1867851757 -0.2148936536
O  -1.8404693424  1.6095966666 -0.3774603000
H  -2.5231028753  1.0471345684 -0.7626919374
H  -0.0756331467 -0.0811059334 -1.3210130686
H  -0.6280577100 -0.9754071692  1.3896869031
H   1.1859159610  1.2919849219  0.2531781891
H  -2.4116882587 -1.8900121640  0.3964701412
H  -1.6483644931 -1.6788020754 -1.0150635678
H  -0.6667133459  1.5425042136  1.2701541757
H  -2.2809237918  0.8346499285  1.4980597304
H   2.9640349954  0.2122806768  1.4893040856
H   1.8779152097  0.5933546186 -2.0967690241
H   2.4644437300 -1.3897219618  0.9319137181
H   1.4605761420 -0.4789452218  2.0687928500
H   3.2178486141  0.9428099427 -1.0010932155
H   2.7723375616 -0.7330474089 -1.3566653690
22
Image 30  Energy = -383.6514935292
C  -0.9148814720 -0.4605229148  0.4612848256
C   1.4190953548  0.2522757648 -0.0125818349
C  -1.4447329127  0.9339238425  0.8071121571
C   2.0979540697 -0.3985800886  1.1841420743
C   2.3822198723  0.2530180458 -1.1866547352
N   0.2189224753 -0.4578445600 -0.4474101561
N  -1.9993845923 -1.1920184779 -0.2167092837
O  -1.8554889007  1.6143988340 -0.3645672174
H  -2.5042957268  1.0469167934 -0.7813846171
H  -0.0986921795 -0.0352972829 -1.3096074898
H  -0.6135693399 -0.9569397150  1.3903889965
H   1.1923788689  1.2933489619  0.2486500373
H  -2.4106370918 -1.8724545020  0.3877820359
H  -1.5915563046 -1.7207701379 -0.9914014943
H  -0.6956378037  1.5446403736  1.3012105705
H  -2.2962712978  0.8153343561  1.4947844032
H   2.9553010914  0.2136579625  1.4644240508
H   1.8928338583  0.6025150739 -2.0975866916
H   2.4491760337 -1.4004895716  0.9329718945
H   1.4621966261 -0.4705496924  2.0679399589
H   3.2258299918  0.9144375115 -0.9897307606
H   2.7491458171 -0.7553603108 -1.3645932059
22
Image 31  Energy = -383.6519246760
C  -0.9142367806 -0.4605415958  0.4613484715
C   1.4193065279  0.2516958330 -0.0136740528
C  -1.4490318958  0.9320854407  0.8068268797
C   2.0968736860 -0.3984896587  1.1845833928
C   2.3823765206  0.2543201355 -1.1870905291
N   0.2187237745 -0.4580981874 -0.4453516843
N  -1.9944930594 -1.1905256394 -0.2222357034
O  -1.8527687196  1.6176952675 -0.3619234434
H  -2.5063187017  1.0439911704 -0.7843449016
H  -0.0999174841 -0.0320168320 -1.3105681691
H  -0.6129068740 -0.9562437413  1.3905602943
H   1.1923866498  1.2941041777  0.2484131461
H  -2.4132446078 -1.8741721977  0.3906786694
H  -1.5902511730 -1.7212745510 -0.9875622979
H  -0.6955244689  1.5454097047  1.3030342547
H  -2.2954765697  0.8146414933  1.4945586167
H   2.9554561491  0.2132447757  1.4635521733
H   1.8938619865  0.6031877432 -2.0973691977
H   2.4481462031 -1.4011421642  0.9329604301
H   1.4619582256 -0.4699102791  2.0670513452
H   3.2264363495  0.9127138527 -0.9895536857
H   2.7485507001 -0.7570344791 -1.3654304909
22
Image 32  Energy = -383.6520416800
C  -0.9135131695 -0.4607644452  0.4604135518
C   1.4211130497  0.2527659559 -0.0144041208
C  -1.4518029719  0.9296026225  0.8068387062
C   2.0962725590 -0.3981784070  1.1854824399
C   2.3835117487  0.2549433000 -1.1892887689
N   0.2201698818 -0.4578208178 -0.4447099561
N  -1.9922201012 -1.1912406543 -0.2224079944
O  -1.8531777556  1.6180976076 -0.3602349311
H  -2.5054983851  1.0435151085 -0.7865678552
H  -0.1002528805 -0.0289928705 -1.3091976823
H  -0.6133594232 -0.9556566880  1.3889008004
H   1.1913218732  1.2949645989  0.2480959118
H  -2.4169166630 -1.8728760603  0.3927159538
H  -1.5872179212 -1.7222984897 -0.9845720064
H  -0.6976706124  1.5438460156  1.3035993653
H  -2.2951106617  0.8150617150  1.4955133930
H   2.9569551464  0.2116251981  1.4627879289
H   1.8938270843  0.6049175914 -2.0984998875
H   2.4468141426 -1.4012471459  0.9326153465
H   1.4593923820 -0.4691750292  2.0668376481
H   3.2289572406  0.9111566044 -0.9892076555
H   2.7483118728 -0.7586054353 -1.3662466729
22
Image 33  Energy = -383.6522392131
C  -0.9112740193 -0.4594783413  0.4596127094
C   1.4239254483  0.2553016006 -0.0172766009
C  -1.4586040914  0.9256651764  0.8085843948
C   2.0934588635 -0.3983043813  1.1849540599
C   2.3865832727  0.2531439717 -1.1937963664
N   0.2208454366 -0.4522791640 -0.4467966574
N  -1.9833468080 -1.1947229993 -0.2245136772
O  -1.8575740009  1.6208403400 -0.3545966321
H  -2.4986425010  1.0417620398 -0.7955077854
H  -0.1055159069 -0.0114769988 -1.3041657334
H  -0.6102027775 -0.9509677052  1.3868276335
H   1.1913136496  1.2976613922  0.2460893694
H  -2.4256219940 -1.8646837604  0.3958698784
H  -1.5669161210 -1.7349711888 -0.9721865542
H  -0.7084792805  1.5405533805  1.3110371728
H  -2.2990578973  0.8104332709  1.4985789297
H   2.9589135497  0.2075626438  1.4563177372
H   1.8975414362  0.6112779486 -2.1013916853
H   2.4395111194 -1.4037477801  0.9322833281
H   1.4534676622 -0.4650026393  2.0654739872
H   3.2372091255  0.9008552444 -0.9863016683
H   2.7423722555 -0.7657817596 -1.3706323268
22
Image 34  Energy = -383.6525260411
C  -0.9100915772 -0.4584319536  0.4590609091
C   1.4260317435  0.2585521431 -0.0216653239
C  -1.4697932877  0.9213759652  0.8119645972
C   2.0891680383 -0.3974027056  1.1838809533
C   2.3906147558  0.2524392750 -1.1992144096
N   0.2199602838 -0.4458515914 -0.4508289657
N  -1.9725067460 -1.2026253273 -0.2285723437
O  -1.8649076018  1.6242593188 -0.3490571254
H  -2.4864389137  1.0390555759 -0.8069689353
H  -0.1107441241  0.0138476904 -1.2982190153
H  -0.6038975337 -0.9473066170  1.3871065063
H   1.1932539550  1.3021297177  0.2422993634
H  -2.4399384076 -1.8486156390  0.4004279611
H  -1.5378819777 -1.7549201016 -0.9524669107
H  -0.7214918853  1.5354551103  1.3196184871
H  -2.3060682683  0.8020249526  1.5050518414
H   2.9636873974  0.1990469571  1.4501453903
H   1.9046030346  0.6209462252 -2.1048406072
H   2.4268996771 -1.4062344854  0.9320445614
H   1.4439117040 -0.4573343304  2.0613167643
H   3.2517283346  0.8853032480 -0.9839871229
H   2.7338077992 -0.7720731122 -1.3786330723
22
Image 35  Energy = -383.6526757746
C  -0.9088802951 -0.4574280580  0.4620127791
C   1.4296796335  0.2663181538 -0.0298550068
C  -1.4889303442  0.9150818558  0.8189546691
C   2.0806057966 -0.3953960738  1.1770841328
C   2.3982956375  0.2482319866 -1.2065047370
N   0.2148607874 -0.4245234905 -0.4623524630
N  -1.9495800392 -1.2121301391 -0.2344205177
O  -1.8779900251  1.6329143090 -0.3315751110
H  -2.4620504906  1.0292166242 -0.8342580055
H  -0.1235756211  0.0698166977 -1.2860786872
H  -0.5881127821 -0.9377286731  1.3866864558
H   1.2010750948  1.3104912929  0.2327061243
H  -2.4695532845 -1.8132473939  0.4071978673
H  -1.4704344867 -1.8098364611 -0.9106395934
H  -0.7505309329  1.5261439204  1.3394534600
H  -2.3258956267  0.7800453524  1.5170912514
H   2.9708033524  0.1800319168  1.4370597549
H   1.9235144577  0.6421745927 -2.1110395168
H   2.3969407938 -1.4127120644  0.9319880441
H   1.4261080089 -0.4386587237  2.0520302685
H   3.2817121606  0.8486039195 -0.9795777794
H   2.7118445772 -0.7837691734 -1.3974999279
22
Image 36  Energy = -383.6531260350
C  -0.9097613630 -0.4569957887  0.4623284088
C   1.4283715008  0.2659967020 -0.0296100166
C  -1.4877047688  0.9155524740  0.8208955586
C   2.0805635668 -0.3946181148  1.1769247084
C   2.3976919577  0.2506951395 -1.2045826347
N   0.2133475297 -0.4246618595 -0.4614303931
N  -1.9518108755 -1.2162533738 -0.2366815510
O  -1.8801968193  1.6286128299 -0.3358999831
H  -2.4595376188  1.0309281924 -0.8296879395
H  -0.1209390811  0.0660494404 -1.2885964617
H  -0.5873830007 -0.9412358644  1.3885020110
H   1.2032957716  1.3108725006  0.2320492885
H  -2.4694467721 -1.8102399936  0.4048040046
H  -1.4775724125 -1.8089538524 -0.9068030266
H  -0.7461005625  1.5264898002  1.3359710796
H  -2.3262557473  0.7795001765  1.5167442539
H   2.9715108580  0.1777820347  1.4418597779
H   1.9252480041  0.6420262537 -2.1094498188
H   2.3954062435 -1.4116819700  0.9320665056
H   1.4269209108 -0.4370859496  2.0500269573
H   3.2816886601  0.8494010613 -0.9822099086
H   2.7125703966 -0.7785394693 -1.3987573624
22
Image 37  Energy = -383.6533489508
C  -0.9102630252 -0.4563738085  0.4628160159
C   1.4281642075  0.2683296616 -0.0311169473
C  -1.4911420825  0.9141407762  0.8243526988
C   2.0784577245 -0.3935924815  1.1745452244
C   2.3984427753  0.2515842844 -1.2042785400
N   0.2109039293 -0.4175751299 -0.4633175687
N  -1.9491265463 -1.2205334627 -0.2378447355
O  -1.8843067193  1.6268866881 -0.3334929594
H  -2.4521828597  1.0282868179 -0.8329295118
H  -0.1217855434  0.0757587399 -1.2884147669
H  -0.5824858216 -0.9426031311  1.3896995360
H   1.2083174126  1.3135820211  0.2288249694
H  -2.4768568280 -1.7976702104  0.4026857852
H  -1.4677423447 -1.8252710281 -0.8926795002
H  -0.7484261598  1.5250044087  1.3375548003
H  -2.3318297916  0.7731722466  1.5182847916
H   2.9734264613  0.1704028391  1.4441019990
H   1.9325748599  0.6476079186 -2.1089305514
H   2.3854934807 -1.4125907453  0.9320483566
H   1.4238765020 -0.4301293150  2.0456814551
H   3.2891053718  0.8410619077 -0.9839527019
H   2.7072913758 -0.7758386124 -1.4051744064
22
Image 38  Energy = -383.6536287519
C  -0.9096637642 -0.4552932098  0.4642772432
C   1.4292635738  0.2741950571 -0.0343027513
C  -1.4983228934  0.9102484460  0.8308150479
C   2.0739941636 -0.3920733038  1.1699501845
C   2.4007385001  0.2527644171 -1.2047070058
N   0.2071828658 -0.4017878637 -0.4669634365
N  -1.9388675364 -1.2264134423 -0.2429352851
O  -1.8918716681  1.6249463545 -0.3255956057
H  -2.4384916383  1.0207921657 -0.8417786809
H  -0.1253944538  0.0970054545 -1.2877872913
H  -0.5728219818 -0.9436875790  1.3896456974
H   1.2185213469  1.3203394909  0.2227473785
H  -2.4946086186 -1.7740109345  0.4005167187
H  -1.4472636341 -1.8603149121 -0.8619838718
H  -0.7549770576  1.5219369085  1.3427574974
H  -2.3429016627  0.7603614222  1.5202669449
H   2.9764142484  0.1558720248  1.4471555673
H   1.9473123654  0.6603173807 -2.1085397174
H   2.3646150037 -1.4158738203  0.9316253784
H   1.4176291394 -0.4156948572  2.0380289474
H   3.3037725642  0.8236462500 -0.9863197348
H   2.6956475134 -0.7736350291 -1.4184098161
22
Image 39  Energy = -383.6538655594
C  -0.8987722987 -0.4550079985  0.4608178681
C   1.4387499408  0.2915083456 -0.0409588117
C  -1.5126811829  0.8961148828  0.8411628678
C   2.0653379589 -0.3906774600  1.1659265371
C   2.4098737595  0.2583135052 -1.2117873177
N   0.2091759494 -0.3708458372 -0.4679855865
N  -1.9246919314 -1.2366801971 -0.2403425483
O  -1.9071050284  1.6178144609 -0.3095646682
H  -2.4134989134  1.0006444510 -0.8538643124
H  -0.1343204319  0.1290386222 -1.2913493166
H  -0.5570949275 -0.9470129617  1.3792395087
H   1.2418471347  1.3431381074  0.2150936276
H  -2.5314022827 -1.7203252880  0.3873651401
H  -1.4222607020 -1.9355079895 -0.7972667355
H  -0.7647822750  1.5155336379  1.3522672294
H  -2.3582354949  0.7394514627  1.5185837806
H   2.9802906093  0.1265884435  1.4567967639
H   1.9732592042  0.6925096295 -2.1093335532
H   2.3195968709 -1.4266246794  0.9283548215
H   1.4046165011 -0.3853679804  2.0293245077
H   3.3285385400  0.7962918904 -0.9887675313
H   2.6734653655 -0.7752565727 -1.4452489308
22
Image 40  Energy = -383.6543118157
C  -0.8984243052 -0.4546873748  0.4615597294
C   1.4414588559  0.2966355209 -0.0415981766
C  -1.5123769077  0.8944713700  0.8428423490
C   2.0632021757 -0.3906657718  1.1644845197
C   2.4118085596  0.2576769298 -1.2138926969
N   0.2092262911 -0.3624380805 -0.4725961049
N  -1.9141633995 -1.2391659894 -0.2468210819
O  -1.9110701710  1.6159738064 -0.3058106930
H  -2.4077765346  0.9954063673 -0.8569573220
H  -0.1356765034  0.1353713559 -1.2899114204
H  -0.5526144775 -0.9477637787  1.3769560452
H   1.2479540739  1.3483337218  0.2134140357
H  -2.5438590732 -1.7093135758  0.3885073081
H  -1.4185159291 -1.9514250001 -0.7795001238
H  -0.7692210417  1.5126958305  1.3546075408
H  -2.3627520844  0.7338707213  1.5192057021
H   2.9813585208  0.1196192170  1.4585255875
H   1.9791951115  0.7010273903 -2.1099339400
H   2.3081786075 -1.4287816748  0.9277771514
H   1.4012090966 -0.3781701985  2.0278345758
H   3.3352003761  0.7902224845 -0.9887320616
H   2.6675651240 -0.7752527842 -1.4514976024
22
Image 41  Energy = -383.6544648918
C  -0.8966381107 -0.4553013424  0.4598147237
C   1.4442652628  0.2987763786 -0.0406758855
C  -1.5079319812  0.8941507507  0.8400313642
C   2.0635843709 -0.3915022664  1.1668721067
C   2.4130934021  0.2578336503 -1.2161558946
N   0.2135025504 -0.3646919496 -0.4726561332
N  -1.9132505922 -1.2386502692 -0.2471941551
O  -1.9102516090  1.6142962923 -0.3077611215
H  -2.4111178336  0.9935506891 -0.8528083116
H  -0.1346200355  0.1261675671 -1.2910110054
H  -0.5541210754 -0.9488727841  1.3734915287
H   1.2491406510  1.3509942003  0.2163106074
H  -2.5446264129 -1.7100700868  0.3882001332
H  -1.4316404379 -1.9469143240 -0.7797697846
H  -0.7681809977  1.5117306834  1.3531967006
H  -2.3586562767  0.7368321126  1.5176111938
H   2.9804215983  0.1210053765  1.4597048639
H   1.9756759299  0.7030470345 -2.1106360379
H   2.3084443419 -1.4291266575  0.9271786667
H   1.4018279259 -0.3794562599  2.0318888367
H   3.3319268159  0.7964400079 -0.9873277551
H   2.6690588773 -0.7765983276 -1.4498413153
22
Image 42  Energy = -383.6545857246
C  -0.8929861383 -0.4552612261  0.4577068839
C   1.4486532795  0.3058751852 -0.0424891211
C  -1.5090916293  0.8903489317  0.8412254299
C   2.0599321224 -0.3909133304  1.1665017959
C   2.4166338831  0.2595242071 -1.2195300157
N   0.2166943740 -0.3561927314 -0.4751648806
N  -1.9072175623 -1.2400839163 -0.2490756968
O  -1.9152821623  1.6111587364 -0.3046355352
H  -2.4047146160  0.9846280433 -0.8546888046
H  -0.1362718745  0.1318384759 -1.2923335176
H  -0.5476473446 -0.9510240783  1.3692748475
H   1.2591589681  1.3599320192  0.2155674653
H  -2.5597903393 -1.6904680376  0.3863816775
H  -1.4290945969 -1.9724222025 -0.7582975894
H  -0.7727346710  1.5077968998  1.3565133093
H  -2.3611692828  0.7302892949  1.5174955397
H   2.9820602172  0.1113289368  1.4626422187
H   1.9823893952  0.7162850706 -2.1114381692
H   2.2917659956 -1.4322016372  0.9261671460
H   1.3972791467 -0.3699799260  2.0315420895
H   3.3398868802  0.7906973682 -0.9868188677
H   2.6614523156 -0.7775155926 -1.4580828998
22
Image 43  Energy = -383.6547458758
C  -0.8887480115 -0.4558509155  0.4556351771
C   1.4515271167  0.3106362058 -0.0435765655
C  -1.5094477638  0.8880129142  0.8394023573
C   2.0566178783 -0.3892045537  1.1670654711
C   2.4192884353  0.2624342034 -1.2219433964
N   0.2205104804 -0.3536558637 -0.4779326106
N  -1.9065449081 -1.2421267202 -0.2522037460
O  -1.9180318750  1.6084888713 -0.3055200215
H  -2.4031913438  0.9752918186 -0.8542978378
H  -0.1351624591  0.1314552720 -1.2949419714
H  -0.5406205563 -0.9532357747  1.3661341020
H   1.2691613586  1.3660607415  0.2166294448
H  -2.5700910324 -1.6702398901  0.3859119192
H  -1.4324374146 -1.9906528848 -0.7436178455
H  -0.7762928392  1.5041730408  1.3604108980
H  -2.3583792445  0.7252817821  1.5180322379
H   2.9836415904  0.1039445709  1.4631304451
H   1.9856947077  0.7275031425 -2.1110385592
H   2.2775071806 -1.4325570632  0.9262392300
H   1.3941777741 -0.3643668327  2.0332883345
H   3.3452760654  0.7893702752 -0.9854422941
H   2.6554512175 -0.7771218383 -1.4629014804
22
Image 44  Energy = -383.6548314296
C  -0.8854184492 -0.4613325866  0.4460342229
C   1.4540593044  0.3130265393 -0.0450777871
C  -1.5049228754  0.8852245821  0.8343967769
C   2.0515489964 -0.3856284783  1.1702682861
C   2.4227932378  0.2699608530 -1.2215422779
N   0.2272872388 -0.3592677327 -0.4780684992
N  -1.9056129239 -1.2372013993 -0.2549469906
O  -1.9209997683  1.5995356707 -0.3157007873
H  -2.4074368131  0.9632733755 -0.8481290677
H  -0.1287162196  0.1213153838 -1.3039287416
H  -0.5297867183 -0.9558092481  1.3612026992
H   1.2824070995  1.3701718681  0.2205705025
H  -2.5813843552 -1.6388983448  0.3894477456
H  -1.4481504525 -2.0084173432 -0.7324306442
H  -0.7798631398  1.4998399559  1.3657371910
H  -2.3466975630  0.7192181773  1.5195697806
H   2.9864223550  0.0963938112  1.4592444690
H   1.9856500324  0.7413651908 -2.1072729505
H   2.2592089626 -1.4295133434  0.9282787750
H   1.3926164957 -0.3609384730  2.0383621459
H   3.3479063590  0.7933480400 -0.9825749498
H   2.6489955548 -0.7720260035 -1.4649766308
22
Image 45  Energy = -383.6549835856
C  -0.8842847682 -0.4610696821  0.4485061449
C   1.4524425230  0.3108414884 -0.0431766461
C  -1.5041941266  0.8851903459  0.8322365358
C   2.0526255919 -0.3853125946  1.1702909238
C   2.4208922207  0.2701577749 -1.2200577795
N   0.2266541501 -0.3620698798 -0.4805596498
N  -1.9093725141 -1.2374394803 -0.2546701697
O  -1.9172573401  1.6008927504 -0.3153252894
H  -2.4128341297  0.9619202598 -0.8486428568
H  -0.1257123164  0.1161807431 -1.3038846445
H  -0.5309163832 -0.9549692591  1.3607367744
H   1.2799694017  1.3667512215  0.2210890343
H  -2.5771814501 -1.6391169808  0.3902808323
H  -1.4519125648 -2.0016530268 -0.7385771445
H  -0.7780572682  1.5011655401  1.3647814820
H  -2.3440020685  0.7201039646  1.5197390865
H   2.9864722164  0.0986609143  1.4571294881
H   1.9834465116  0.7387165553 -2.1055753049
H   2.2622046641 -1.4283798079  0.9292092928
H   1.3939420028 -0.3633478131  2.0394061319
H   3.3460304719  0.7963082430 -0.9820858561
H   2.6509515339 -0.7698907888 -1.4623871109
22
Image 46  Energy = -383.6550270613
C  -0.8837459362 -0.4604451921  0.4490795922
C   1.4515431949  0.3101004373 -0.0426736345
C  -1.5039566492  0.8846634041  0.8328924959
C   2.0528768699 -0.3854652122  1.1698939471
C   2.4201235467  0.2704620419 -1.2187343216
N   0.2261547409 -0.3619180329 -0.4810377242
N  -1.9090669795 -1.2371738203 -0.2547448850
O  -1.9170278406  1.5997336224 -0.3148996858
H  -2.4134242708  0.9619625143 -0.8491372845
H  -0.1247001952  0.1161148630 -1.3045916325
H  -0.5309385347 -0.9546165910  1.3604114969
H   1.2784019385  1.3654160643  0.2204961045
H  -2.5775801493 -1.6374621257  0.3911037301
H  -1.4515586215 -2.0014097361 -0.7390044990
H  -0.7774692556  1.5017631154  1.3639389882
H  -2.3443307326  0.7190890050  1.5197537456
H   2.9869245338  0.0986367749  1.4562527993
H   1.9837918349  0.7383634641 -2.1044561561
H   2.2621741039 -1.4288121550  0.9296354134
H   1.3941934848 -0.3627585245  2.0389083815
H   3.3463175290  0.7958359551 -0.9821280603
H   2.6512037456 -0.7684393864 -1.4624955350
22
Image 47  Energy = -383.6551613347
C  -0.8798502318 -0.4595793196  0.4465707233
C   1.4499377021  0.3087366396 -0.0414994457
C  -1.5016782647  0.8812112240  0.8341135089
C   2.0522977503 -0.3862842434  1.1697919117
C   2.4196751017  0.2745140151 -1.2133474545
N   0.2277496639 -0.3615319382 -0.4833430973
N  -1.9069004738 -1.2357401066 -0.2546580493
O  -1.9171165775  1.5916684620 -0.3138304351
H  -2.4172182871  0.9559207863 -0.8500050552
H  -0.1182095227  0.1129412968 -1.3115883517
H  -0.5265426618 -0.9549361285  1.3571041748
H   1.2737313446  1.3626986359  0.2193252647
H  -2.5847838289 -1.6158968579  0.3943364633
H  -1.4561011459 -2.0078509875 -0.7327838715
H  -0.7757864546  1.5030610797  1.3605174997
H  -2.3429557233  0.7108574322  1.5199989271
H   2.9900351339  0.0947753280  1.4509614044
H   1.9856704436  0.7439614607 -2.0981477253
H   2.2542723105 -1.4318170701  0.9321462875
H   1.3946712153 -0.3563814873  2.0384187672
H   3.3489856480  0.7942737738 -0.9804699696
H   2.6500232130 -0.7609615162 -1.4651482092
22
Image 48  Energy = -383.6551486652
C  -0.8717491670 -0.4624915466  0.4454279126
C   1.4515919662  0.3104536669 -0.0389495802
C  -1.4990050241  0.8746182452  0.8337764152
C   2.0511502087 -0.3873221805  1.1699454200
C   2.4210806274  0.2809149541 -1.2111880774
N   0.2316264224 -0.3616963689 -0.4917885828
N  -1.9041640811 -1.2325051008 -0.2557381132
O  -1.9233130848  1.5787886023 -0.3187707921
H  -2.4193322794  0.9461855997 -0.8454403113
H  -0.1072993386  0.1044674479 -1.3214027016
H  -0.5177852978 -0.9564747212  1.3491135892
H   1.2678828269  1.3623325935  0.2201389260
H  -2.5990532507 -1.5773617584  0.3975518691
H  -1.4686837544 -2.0221148875 -0.7165126398
H  -0.7736572330  1.5035831227  1.3558195259
H  -2.3374535147  0.6972697813  1.5201079292
H   2.9943146929  0.0859156759  1.4430731655
H   1.9881215449  0.7581959430 -2.0886904146
H   2.2381235943 -1.4372398872  0.9362467266
H   1.3949374763 -0.3443713358  2.0409054823
H   3.3549571901  0.7947522022 -0.9747115509
H   2.6476158347 -0.7522595724 -1.4704509355
22
Image 49  Energy = -383.6552874071
C  -0.8728132734 -0.4617945795  0.4427996719
C   1.4513927093  0.3101819176 -0.0403360827
C  -1.4986289107  0.8755592220  0.8331894163
C   2.0507320005 -0.3874524286  1.1704313553
C   2.4219573381  0.2809048958 -1.2107407829
N   0.2326653087 -0.3625417585 -0.4887660666
N  -1.9045994455 -1.2322783396 -0.2548825462
O  -1.9215457771  1.5810256047 -0.3164669995
H  -2.4205498606  0.9446880488 -0.8469063508
H  -0.1086389108  0.1053730783 -1.3219974757
H  -0.5176500421 -0.9572148915  1.3504290834
H   1.2683589256  1.3628651299  0.2204594533
H  -2.5983842324 -1.5794011360  0.3969219827
H  -1.4684780104 -2.0218537084 -0.7170974873
H  -0.7741557026  1.5032601642  1.3558142772
H  -2.3376654267  0.6981393224  1.5201603572
H   2.9942229949  0.0862955413  1.4437056229
H   1.9876782581  0.7580648393 -2.0897956545
H   2.2388157625 -1.4369075080  0.9359966281
H   1.3952160548 -0.3449445964  2.0408198619
H   3.3542092657  0.7948337495 -0.9749958058
H   2.6477673337 -0.7531620912 -1.4702791974
22
Image 50  Energy = -383.6553269444
C  -0.8717320241 -0.4624565246  0.4408160524
C   1.4521817184  0.3107707126 -0.0408687763
C  -1.4977243101  0.8750245801  0.8320743621
C   2.0501444187 -0.3877405024  1.1709324881
C   2.4234426252  0.2822772825 -1.2109115834
N   0.2345654849 -0.3635795134 -0.4891719322
N  -1.9047760023 -1.2313066190 -0.2546073752
O  -1.9224616162  1.5802876745 -0.3165572495
H  -2.4214757187  0.9413499002 -0.8461063054
H  -0.1072286427  0.1033410913 -1.3240394349
H  -0.5154202743 -0.9584601928  1.3494746260
H   1.2673354202  1.3636815654  0.2214745756
H  -2.6011300207 -1.5724522775  0.3966067153
H  -1.4722651410 -2.0248343937 -0.7131431681
H  -0.7741314852  1.5028751782  1.3546318750
H  -2.3359360977  0.6959834841  1.5201493023
H   2.9949827275  0.0842980497  1.4426028725
H   1.9876303739  0.7618925847 -2.0888685953
H   2.2356396431 -1.4378782260  0.9367867074
H   1.3957199372 -0.3425619172  2.0418840769
H   3.3549711305  0.7957322143 -0.9733292051
H   2.6475742149 -0.7526036738 -1.4713667699
22
Image 51  Energy = -383.6553772016
C  -0.8684395680 -0.4638618469  0.4375864520
C   1.4535219904  0.3118418669 -0.0415068358
C  -1.4956436409  0.8732141553  0.8298545352
C   2.0490725357 -0.3883930003  1.1714683776
C   2.4262576963  0.2857332159 -1.2110411737
N   0.2383956600 -0.3659984170 -0.4915619722
N  -1.9049688485 -1.2286422940 -0.2546164054
O  -1.9258204597  1.5775142934 -0.3170929835
H  -2.4231461837  0.9338785460 -0.8439104696
H  -0.1031036055  0.0981760797 -1.3287936187
H  -0.5101752457 -0.9611597582  1.3464228707
H   1.2634386049  1.3644177357  0.2235678654
H  -2.6086492258 -1.5546189329  0.3963022586
H  -1.4813466910 -2.0323353221 -0.7030695770
H  -0.7734243389  1.5024878180  1.3510031856
H  -2.3316534490  0.6900561681  1.5199904942
H   2.9972152276  0.0789439782  1.4394672787
H   1.9882606489  0.7712709834 -2.0858012399
H   2.2277971797 -1.4405473991  0.9391977786
H   1.3973827351 -0.3359550404  2.0442552757
H   3.3574097456  0.7977799237 -0.9689399219
H   2.6475255970 -0.7501622818 -1.4743189200
22
Image 52  Energy = -383.6554279407
C  -0.8662402444 -0.4642711478  0.4357623638
C   1.4533499207  0.3112461626 -0.0424145782
C  -1.4935445127  0.8727730403  0.8282792437
C   2.0489144592 -0.3885877456  1.1711095654
C   2.4281406420  0.2888824329 -1.2107503239
N   0.2404353610 -0.3693019460 -0.4936216436
N  -1.9071606870 -1.2272721784 -0.2549957255
O  -1.9307957413  1.5760273178 -0.3163055537
H  -2.4231256302  0.9289938629 -0.8424858371
H  -0.1008820591  0.0938541720 -1.3310303868
H  -0.5071065744 -0.9635497834  1.3437894365
H   1.2581232602  1.3624384859  0.2251198374
H  -2.6143333148 -1.5429002397  0.3942882572
H  -1.4890826381 -2.0376133306 -0.6941329390
H  -0.7716823033  1.5031577064  1.3464995513
H  -2.3273675696  0.6863523427  1.5196212516
H   2.9996739620  0.0736925189  1.4375320946
H   1.9905993037  0.7787588486 -2.0838892295
H   2.2228128847 -1.4421479024  0.9420370459
H   1.4009255371 -0.3298787240  2.0458689336
H   3.3588549164  0.7999420489 -0.9647502029
H   2.6493973990 -0.7469554597 -1.4770679081
22
Image 53  Energy = -383.6554696903
C  -0.8636259034 -0.4670162269  0.4318927006
C   1.4532866508  0.3090989986 -0.0436018621
C  -1.4895267219  0.8708674276  0.8249996778
C   2.0493348339 -0.3891676768  1.1700449072
C   2.4312387306  0.2959905205 -1.2099842427
N   0.2434952381 -0.3774589497 -0.4986999914
N  -1.9083000241 -1.2206217376 -0.2573409841
O  -1.9419171876  1.5734315672 -0.3139927556
H  -2.4232224612  0.9179598557 -0.8406776815
H  -0.0964143524  0.0844154561 -1.3362915771
H  -0.5015547715 -0.9680544989  1.3373973780
H   1.2450884936  1.3564548022  0.2278282433
H  -2.6304685324 -1.5184994858  0.3926338494
H  -1.5050983596 -2.0508818237 -0.6751757060
H  -0.7661155992  1.5063294409  1.3363127264
H  -2.3175361411  0.6784644354  1.5198247226
H   3.0061420295  0.0619922287  1.4325655506
H   1.9974557289  0.7950119866 -2.0792491346
H   2.2120624997 -1.4459957951  0.9488036627
H   1.4091677838 -0.3158290357  2.0495144265
H   3.3619430340  0.8048578255 -0.9549174575
H   2.6544714185 -0.7377088123 -1.4834232054
22
Image 54  Energy = -383.6555189443
C  -0.8650770315 -0.4667000967  0.4329121755
C   1.4522511798  0.3074496196 -0.0435996702
C  -1.4894869704  0.8720839750  0.8260301871
C   2.0505545341 -0.3892020921  1.1700260337
C   2.4304514157  0.2957547529 -1.2095107567
N   0.2417332067 -0.3783318486 -0.4981399603
N  -1.9111143326 -1.2230465137 -0.2568615533
O  -1.9428593707  1.5743866850 -0.3136689495
H  -2.4217384007  0.9207947751 -0.8418777588
H  -0.0985971874  0.0854770128 -1.3346898827
H  -0.5045612354 -0.9672344164  1.3380840899
H   1.2440673956  1.3542362656  0.2269148596
H  -2.6281163135 -1.5238748184  0.3909575471
H  -1.5027995696 -2.0485645618 -0.6773489560
H  -0.7649241276  1.5074329578  1.3358655194
H  -2.3178480644  0.6810074047  1.5211541276
H   3.0068210453  0.0629026869  1.4328671055
H   1.9991459575  0.7929221017 -2.0805291091
H   2.2148816673 -1.4455286371  0.9490028400
H   1.4101992153 -0.3166713003  2.0490265150
H   3.3605548239  0.8049855663 -0.9549418463
H   2.6563685517 -0.7366390133 -1.4832093070
22
Image 55  Energy = -383.6555425966
C  -0.8667867757 -0.4664871184  0.4332285057
C   1.4512521001  0.3056713661 -0.0436212365
C  -1.4894812857  0.8730252483  0.8266765392
C   2.0517261798 -0.3893842195  1.1700932232
C   2.4298898475  0.2960162454 -1.2088385516
N   0.2401825698 -0.3795508694 -0.4980333541
N  -1.9124675973 -1.2246256821 -0.2571754463
O  -1.9435324233  1.5752929287 -0.3128068804
H  -2.4208494666  0.9222982697 -0.8435327345
H  -0.1003516158  0.0858097855 -1.3336384257
H  -0.5073139434 -0.9666976728  1.3386919000
H   1.2425628775  1.3519697378  0.2260797032
H  -2.6279315476 -1.5275882940  0.3904040637
H  -1.5013179749 -2.0473306279 -0.6787108889
H  -0.7634569373  1.5085977536  1.3349230809
H  -2.3174465643  0.6831632330  1.5229870637
H   3.0080639956  0.0633590137  1.4324163977
H   2.0011060570  0.7919520162 -2.0815085916
H   2.2168182611 -1.4455752064  0.9495763638
H   1.4113630839 -0.3167595481  2.0489208662
H   3.3593883249  0.8055050308 -0.9542261855
H   2.6584892256 -0.7350208831 -1.4834421612
22
Image 56  Energy = -383.6555749142
C  -0.8700119006 -0.4671407604  0.4320118293
C   1.4493289216  0.3017155921 -0.0441973352
C  -1.4891028629  0.8745132638  0.8271050694
C   2.0538911086 -0.3904272385  1.1704735052
C   2.4299270002  0.2981768634 -1.2076041943
N   0.2381899306 -0.3839711429 -0.4983112173
N  -1.9161785627 -1.2254091399 -0.2567201177
O  -1.9467709418  1.5755121865 -0.3118499047
H  -2.4189477744  0.9232387432 -0.8464648157
H  -0.1029761075  0.0839357115 -1.3336776632
H  -0.5126908346 -0.9664845645  1.3393094671
H   1.2371650651  1.3469721174  0.2249864388
H  -2.6316437882 -1.5287989325  0.3892801202
H  -1.5007261587 -2.0494111513 -0.6789425139
H  -0.7595133664  1.5106628441  1.3305895256
H  -2.3135691571  0.6868592260  1.5287475350
H   3.0124075947  0.0624679262  1.4286001337
H   2.0061540605  0.7942857115 -2.0826078601
H   2.2180742717 -1.4474411345  0.9524035569
H   1.4149687782 -0.3142070434  2.0502257708
H   3.3575999995  0.8086649112 -0.9493383639
H   2.6643311211 -0.7300734699 -1.4855557049
22
Image 57  Energy = -383.6556063644
C  -0.8723370352 -0.4678623994  0.4318802063
C   1.4481576178  0.2989661167 -0.0445469164
C  -1.4887189191  0.8751806073  0.8265528406
C   2.0554239953 -0.3915014538  1.1707986209
C   2.4306835548  0.3003484504 -1.2070942374
N   0.2367128016 -0.3876487208 -0.4997311232
N  -1.9174565167 -1.2279393375 -0.2582545133
O  -1.9488390565  1.5760222188 -0.3109806844
H  -2.4181965690  0.9222144841 -0.8491728864
H  -0.1041877753  0.0808437850 -1.3341145564
H  -0.5171304400 -0.9664742392  1.3396250044
H   1.2325937832  1.3434344937  0.2244476246
H  -2.6364803461 -1.5274155882  0.3892183697
H  -1.5024520047 -2.0501393359 -0.6773820249
H  -0.7563060169  1.5116134427  1.3262821867
H  -2.3092257750  0.6899706087  1.5344827484
H   3.0158888796  0.0613031676  1.4237995719
H   2.0099895109  0.7978456778 -2.0829666841
H   2.2179536484 -1.4496984059  0.9552572671
H   1.4180783017 -0.3115808080  2.0519469122
H   3.3562601219  0.8122615344 -0.9438241244
H   2.6694946440 -0.7261037684 -1.4877603284
22
Image 58  Energy = -383.6556249261
C  -0.8724612319 -0.4685470158  0.4311115682
C   1.4481874597  0.2987177064 -0.0449164639
C  -1.4884755062  0.8746466958  0.8256901812
C   2.0552506421 -0.3920029313  1.1707137863
C   2.4316576337  0.3015025157 -1.2072469806
N   0.2372032403 -0.3889337243 -0.5001651773
N  -1.9176718529 -1.2274184135 -0.2580763787
O  -1.9497104302  1.5754090221 -0.3113687760
H  -2.4183700774  0.9204349028 -0.8493055219
H  -0.1034828260  0.0784923206 -1.3353886214
H  -0.5175851972 -0.9670256151  1.3395850246
H   1.2311335258  1.3431109341  0.2248642758
H  -2.6392332432 -1.5234739396  0.3891337134
H  -1.5046678812 -2.0521412871 -0.6755144529
H  -0.7554238191  1.5110412970  1.3242216203
H  -2.3066812178  0.6904083569  1.5364522221
H   3.0167120195  0.0601250122  1.4209164026
H   2.0106622280  0.8009554966 -2.0822004498
H   2.2162190427 -1.4509392003  0.9566664082
H   1.4193090523 -0.3099577635  2.0530252622
H   3.3562397169  0.8142227624 -0.9408142559
H   2.6710951294 -0.7249865994 -1.4889201080
22
Image 59  Energy = -383.6556517545
C  -0.8726291490 -0.4702166096  0.4303036782
C   1.4477090032  0.2977762340 -0.0457787759
C  -1.4874233520  0.8737775435  0.8238051806
C   2.0544766923 -0.3931137975  1.1698687694
C   2.4335822091  0.3041747553 -1.2070838251
N   0.2379680389 -0.3918701895 -0.5008301744
N  -1.9186780583 -1.2265340482 -0.2578770820
O  -1.9522132486  1.5732350379 -0.3127011196
H  -2.4183936802  0.9170168310 -0.8494316200
H  -0.1018865166  0.0721987960 -1.3380792058
H  -0.5193739172 -0.9680961777  1.3398029609
H   1.2282217094  1.3418844540  0.2257250508
H  -2.6450329092 -1.5152847913  0.3883250451
H  -1.5101909421 -2.0561746095 -0.6714539675
H  -0.7526509994  1.5091748325  1.3187474571
H  -2.3005381922  0.6927040226  1.5411837817
H   3.0181116767  0.0574628886  1.4133187964
H   2.0123452722  0.8081019073 -2.0799584308
H   2.2123538859 -1.4535195713  0.9601844427
H   1.4230756079 -0.3065476589  2.0551560212
H   3.3554569685  0.8193174121 -0.9332713305
H   2.6756163121 -0.7218267223 -1.4914923679
22
Image 60  Energy = -383.6556536865
C  -0.8728466031 -0.4710274782  0.4294173076
C   1.4466150187  0.2965655753 -0.0465184580
C  -1.4866733686  0.8726044541  0.8221326275
C   2.0540090458 -0.3939770679  1.1686525046
C   2.4346957187  0.3067668205 -1.2060725791
N   0.2384208467 -0.3947016211 -0.5001815395
N  -1.9210905879 -1.2265061589 -0.2571900280
O  -1.9529969318  1.5724831853 -0.3123983918
H  -2.4196408262  0.9125311470 -0.8508033013
H  -0.1008218803  0.0659520355 -1.3406304275
H  -0.5210153246 -0.9691764481  1.3409091504
H   1.2267986950  1.3405077441  0.2263073188
H  -2.6483858768 -1.5088808781  0.3862761995
H  -1.5153494331 -2.0589212523 -0.6683361988
H  -0.7484477073  1.5077793071  1.3136664955
H  -2.2952879613  0.6960407151  1.5447479011
H   3.0186010675  0.0553043273  1.4059609043
H   2.0138027094  0.8138735903 -2.0771761151
H   2.2089112688 -1.4554033503  0.9629394087
H   1.4268447528 -0.3039983568  2.0566688903
H   3.3536383325  0.8239569962 -0.9266135410
H   2.6801254594 -0.7181327342 -1.4932948355
22
Image 61  Energy = -383.6556718627
C  -0.8730179427 -0.4711686302  0.4299141167
C   1.4465475878  0.2965055758 -0.0463217500
C  -1.4862222844  0.8730750704  0.8225881924
C   2.0539054827 -0.3939066691  1.1685977868
C   2.4343226385  0.3065361731 -1.2058541643
N   0.2381001164 -0.3943976775 -0.5003590408
N  -1.9205308252 -1.2263693837 -0.2577002527
O  -1.9535134742  1.5716803713 -0.3131594543
H  -2.4190657793  0.9137016750 -0.8501916683
H  -0.1009237365  0.0660513939 -1.3401917016
H  -0.5211052388 -0.9689488631  1.3408683092
H   1.2272214665  1.3404465380  0.2261797739
H  -2.6481974719 -1.5100199582  0.3866029291
H  -1.5150320064 -2.0584594396 -0.6687949753
H  -0.7484190036  1.5077119629  1.3138609884
H  -2.2958481747  0.6961987286  1.5443905345
H   3.0185011903  0.0555981767  1.4063607067
H   2.0137058941  0.8132529288 -2.0772160951
H   2.2092375399 -1.4551222003  0.9626228938
H   1.4267855758 -0.3043564093  2.0563602123
H   3.3534604893  0.8237075164 -0.9270886543
H   2.6799943702 -0.7180763280 -1.4930053972
