22
Frame 1: 1
C   -0.7781   -1.0676   0.3211
C   1.3026   0.0521   -0.0283
C   -0.9720   1.4562   0.8237
C   1.9812   -0.4184   1.2502
C   2.2640   0.4352   -1.1331
N   0.2912   -0.8768   -0.5004
N   -2.0192   -1.3720   -0.2331
O   -1.6647   1.6302   -0.4018
H   -2.2586   0.8701   -0.4759
H   0.0278   -0.6783   -1.4585
H   -0.6098   -1.3679   1.3412
H   0.6813   0.9183   0.2869
H   -2.5733   -2.0574   0.2574
H   -2.0524   -1.5045   -1.2338
H   -0.3690   2.3514   0.9917
H   -1.6396   1.2942   1.6747
H   2.7644   0.2915   1.5228
H   1.7251   0.7307   -2.0378
H   2.4356   -1.4061   1.1342
H   1.2730   -0.4472   2.0806
H   2.8503   1.2987   -0.8143
H   2.9600   -0.3688   -1.3889
22
Frame 2: 2
C   -0.7821   -1.1043   0.2946
C   1.3395   0.0568   -0.0266
C   -0.9643   1.4442   0.8033
C   1.9803   -0.4096   1.2573
C   2.2507   0.4470   -1.1185
N   0.3024   -0.9104   -0.5148
N   -1.9951   -1.4097   -0.2375
O   -1.6271   1.6099   -0.4181
H   -2.2505   0.8704   -0.4722
H   -0.0134   -0.6347   -1.4494
H   -0.5990   -1.3454   1.3357
H   0.6396   0.9244   0.3081
H   -2.6054   -2.0359   0.2801
H   -2.0832   -1.5025   -1.2472
H   -0.3687   2.3936   0.9822
H   -1.5767   1.2399   1.6611
H   2.7632   0.3003   1.5306
H   1.7179   0.7396   -2.0285
H   2.4342   -1.3959   1.1272
H   1.2724   -0.4508   2.0869
H   2.8487   1.3051   -0.8059
H   2.9364   -0.3683   -1.3698
22
Frame 3: 3
C   -0.7877   -1.0690   0.2799
C   1.2993   0.0655   -0.0173
C   -0.9594   1.4271   0.8133
C   1.9899   -0.4137   1.2518
C   2.2604   0.4437   -1.1261
N   0.2940   -0.8962   -0.5108
N   -2.0177   -1.3658   -0.2377
O   -1.6313   1.5948   -0.4071
H   -2.2410   0.8481   -0.4770
H   -0.0016   -0.6292   -1.4524
H   -0.6352   -1.2401   1.3434
H   0.6617   0.9269   0.3003
H   -2.5834   -2.0286   0.2895
H   -2.0592   -1.5444   -1.2444
H   -0.3710   2.3204   1.0008
H   -1.6221   1.2194   1.6629
H   2.7738   0.2949   1.5279
H   1.7236   0.7375   -2.0335
H   2.4424   -1.4009   1.1229
H   1.2822   -0.4511   2.0833
H   2.8619   1.3001   -0.8142
H   2.9404   -0.3759   -1.3772
22
Frame 4: 4
C   -0.8134   -1.0738   0.2676
C   1.3276   0.0627   -0.0169
C   -0.9532   1.4628   0.8026
C   1.9887   -0.4202   1.2552
C   2.2482   0.4480   -1.1155
N   0.2859   -0.9014   -0.5159
N   -2.0309   -1.3746   -0.2487
O   -1.6233   1.5977   -0.4076
H   -2.1920   0.8153   -0.4662
H   -0.0066   -0.6310   -1.4594
H   -0.6458   -1.2460   1.3257
H   0.6472   0.9344   0.3217
H   -2.5844   -2.0407   0.2883
H   -2.0708   -1.5685   -1.2544
H   -0.4128   2.4354   0.9975
H   -1.5425   1.1776   1.6628
H   2.7680   0.2930   1.5334
H   1.7137   0.7459   -2.0232
H   2.4499   -1.4017   1.1123
H   1.2870   -0.4745   2.0912
H   2.8571   1.2998   -0.8041
H   2.9221   -0.3765   -1.3681
22
Frame 5: 5
C   -0.8212   -1.0483   0.2626
C   1.2983   0.0757   -0.0039
C   -0.9578   1.4563   0.8056
C   2.0085   -0.4272   1.2490
C   2.2574   0.4468   -1.1228
N   0.2754   -0.8812   -0.5029
N   -2.0400   -1.3545   -0.2619
O   -1.6413   1.5763   -0.3988
H   -2.1790   0.7751   -0.4736
H   0.0024   -0.6261   -1.4552
H   -0.6925   -1.1290   1.3460
H   0.6682   0.9420   0.3259
H   -2.5984   -2.0027   0.2907
H   -2.0391   -1.6045   -1.2567
H   -0.4317   2.3811   1.0064
H   -1.5683   1.1441   1.6694
H   2.7900   0.2826   1.5334
H   1.7163   0.7482   -2.0258
H   2.4672   -1.4086   1.0971
H   1.3088   -0.4871   2.0879
H   2.8787   1.2923   -0.8161
H   2.9180   -0.3877   -1.3776
22
Frame 6: 6
C   -0.8419   -1.0331   0.2499
C   1.3031   0.0790   0.0031
C   -0.9530   1.4813   0.8036
C   2.0090   -0.4384   1.2465
C   2.2420   0.4573   -1.1116
N   0.2674   -0.8828   -0.5066
N   -2.0455   -1.3593   -0.2878
O   -1.6297   1.5595   -0.3928
H   -2.1085   0.7181   -0.4680
H   0.0048   -0.6263   -1.4632
H   -0.7220   -1.0758   1.3317
H   0.6539   0.9484   0.3491
H   -2.6245   -1.9602   0.2993
H   -2.0274   -1.6845   -1.2641
H   -0.4529   2.4416   1.0009
H   -1.5044   1.1275   1.6776
H   2.7866   0.2731   1.5395
H   1.7026   0.7733   -2.0111
H   2.4761   -1.4120   1.0685
H   1.3171   -0.5255   2.0901
H   2.8800   1.2897   -0.8013
H   2.8872   -0.3873   -1.3751
22
Frame 7: 7
C   -0.8428   -1.0229   0.2469
C   1.2966   0.0849   0.0200
C   -0.9667   1.4883   0.7931
C   2.0343   -0.4578   1.2388
C   2.2379   0.4678   -1.1078
N   0.2682   -0.8820   -0.4950
N   -2.0445   -1.3491   -0.2972
O   -1.6421   1.5441   -0.4018
H   -2.1056   0.6965   -0.4835
H   0.0151   -0.6268   -1.4555
H   -0.7542   -0.9765   1.3346
H   0.6578   0.9476   0.3742
H   -2.6522   -1.8970   0.3161
H   -2.0019   -1.7532   -1.2453
H   -0.4869   2.4408   0.9933
H   -1.5084   1.1095   1.6720
H   2.8080   0.2524   1.5475
H   1.6902   0.8100   -1.9933
H   2.5089   -1.4212   1.0251
H   1.3495   -0.5818   2.0843
H   2.9013   1.2796   -0.7938
H   2.8574   -0.3893   -1.3944
22
Frame 8: 8
C   -0.8550   -1.0155   0.2472
C   1.3045   0.0829   0.0327
C   -0.9641   1.5098   0.7781
C   2.0448   -0.4804   1.2325
C   2.2180   0.4876   -1.0935
N   0.2664   -0.8909   -0.4920
N   -2.0461   -1.3606   -0.3049
O   -1.6220   1.5292   -0.4174
H   -2.0694   0.6724   -0.4862
H   0.0156   -0.6274   -1.4527
H   -0.7764   -0.9355   1.3258
H   0.6457   0.9463   0.4039
H   -2.6689   -1.8721   0.3245
H   -1.9983   -1.8099   -1.2312
H   -0.5118   2.4960   0.9727
H   -1.4583   1.1109   1.6631
H   2.8027   0.2372   1.5648
H   1.6641   0.8669   -1.9609
H   2.5426   -1.4224   0.9753
H   1.3681   -0.6596   2.0759
H   2.9049   1.2750   -0.7662
H   2.8127   -0.3762   -1.4129
22
Frame 9: 9
C   -0.8451   -1.0128   0.2576
C   1.2923   0.0868   0.0518
C   -0.9871   1.5059   0.7609
C   2.0778   -0.4991   1.2244
C   2.2159   0.4991   -1.0910
N   0.2696   -0.8871   -0.4728
N   -2.0427   -1.3487   -0.2903
O   -1.6350   1.5240   -0.4479
H   -2.0804   0.6683   -0.5317
H   0.0219   -0.6275   -1.4351
H   -0.7862   -0.8745   1.3392
H   0.6573   0.9370   0.4287
H   -2.6772   -1.8344   0.3476
H   -1.9775   -1.8395   -1.1936
H   -0.5342   2.4618   0.9582
H   -1.5402   1.1229   1.6394
H   2.8336   0.2162   1.5663
H   1.6503   0.8979   -1.9420
H   2.5811   -1.4292   0.9365
H   1.4135   -0.7099   2.0703
H   2.9179   1.2729   -0.7635
H   2.7944   -0.3666   -1.4344
22
Frame 10: 10
C   -0.8657   -1.0097   0.2563
C   1.3099   0.0794   0.0522
C   -0.9633   1.5292   0.7508
C   2.0624   -0.5042   1.2263
C   2.1930   0.5103   -1.0772
N   0.2655   -0.9017   -0.4789
N   -2.0461   -1.3761   -0.3016
O   -1.5846   1.5064   -0.4574
H   -2.0345   0.6498   -0.5057
H   0.0163   -0.6329   -1.4399
H   -0.8003   -0.8845   1.3235
H   0.6368   0.9416   0.4392
H   -2.6844   -1.8446   0.3442
H   -1.9896   -1.8794   -1.1970
H   -0.5317   2.5405   0.9329
H   -1.4455   1.1370   1.6375
H   2.8063   0.2178   1.5805
H   1.6285   0.9294   -1.9190
H   2.5816   -1.4202   0.9226
H   1.4003   -0.7403   2.0663
H   2.9043   1.2712   -0.7397
H   2.7608   -0.3555   -1.4372
22
Frame 11: 11
C   -0.8495   -1.0078   0.2618
C   1.2934   0.0859   0.0665
C   -0.9882   1.5151   0.7451
C   2.0918   -0.5160   1.2213
C   2.2045   0.5132   -1.0802
N   0.2707   -0.8917   -0.4618
N   -2.0424   -1.3531   -0.2895
O   -1.6134   1.5094   -0.4754
H   -2.0613   0.6542   -0.5525
H   0.0278   -0.6339   -1.4265
H   -0.8054   -0.8335   1.3364
H   0.6573   0.9321   0.4519
H   -2.6875   -1.8109   0.3569
H   -1.9673   -1.8820   -1.1680
H   -0.5516   2.4796   0.9366
H   -1.5568   1.1405   1.6203
H   2.8396   0.2000   1.5793
H   1.6313   0.9399   -1.9121
H   2.6057   -1.4299   0.9045
H   1.4346   -0.7615   2.0624
H   2.9241   1.2679   -0.7467
H   2.7623   -0.3538   -1.4518
22
Frame 12: 12
C   -0.8705   -1.0046   0.2630
C   1.3105   0.0760   0.0654
C   -0.9615   1.5382   0.7325
C   2.0734   -0.5203   1.2241
C   2.1813   0.5219   -1.0673
N   0.2653   -0.9065   -0.4678
N   -2.0468   -1.3793   -0.2985
O   -1.5592   1.4936   -0.4866
H   -2.0183   0.6411   -0.5253
H   0.0188   -0.6376   -1.4298
H   -0.8160   -0.8527   1.3248
H   0.6357   0.9349   0.4601
H   -2.6944   -1.8236   0.3542
H   -1.9817   -1.9152   -1.1726
H   -0.5362   2.5542   0.9057
H   -1.4586   1.1594   1.6171
H   2.8099   0.2024   1.5920
H   1.6094   0.9654   -1.8912
H   2.6022   -1.4218   0.8964
H   1.4177   -0.7858   2.0596
H   2.9064   1.2669   -0.7239
H   2.7326   -0.3429   -1.4533
22
Frame 13: 13
C   -0.8527   -1.0034   0.2671
C   1.2937   0.0831   0.0775
C   -0.9876   1.5227   0.7295
C   2.1016   -0.5300   1.2198
C   2.1958   0.5231   -1.0719
N   0.2713   -0.8957   -0.4515
N   -2.0421   -1.3557   -0.2867
O   -1.5958   1.4995   -0.4998
H   -2.0498   0.6467   -0.5706
H   0.0320   -0.6412   -1.4182
H   -0.8192   -0.8025   1.3366
H   0.6575   0.9256   0.4691
H   -2.6956   -1.7924   0.3651
H   -1.9586   -1.9125   -1.1456
H   -0.5569   2.4897   0.9142
H   -1.5694   1.1589   1.6019
H   2.8426   0.1864   1.5906
H   1.6162   0.9723   -1.8871
H   2.6234   -1.4318   0.8835
H   1.4474   -0.7998   2.0552
H   2.9280   1.2631   -0.7331
H   2.7382   -0.3428   -1.4672
22
Frame 14: 14
C   -0.8738   -1.0009   0.2691
C   1.3111   0.0725   0.0750
C   -0.9596   1.5449   0.7164
C   2.0806   -0.5322   1.2233
C   2.1732   0.5296   -1.0597
N   0.2649   -0.9099   -0.4590
N   -2.0473   -1.3817   -0.2939
O   -1.5412   1.4863   -0.5100
H   -2.0078   0.6375   -0.5422
H   0.0200   -0.6414   -1.4217
H   -0.8255   -0.8326   1.3276
H   0.6352   0.9290   0.4749
H   -2.7011   -1.8096   0.3631
H   -1.9767   -1.9386   -1.1534
H   -0.5359   2.5630   0.8817
H   -1.4691   1.1774   1.5983
H   2.8119   0.1907   1.6009
H   1.5962   0.9903   -1.8702
H   2.6155   -1.4239   0.8802
H   1.4284   -0.8168   2.0548
H   2.9073   1.2635   -0.7122
H   2.7134   -0.3333   -1.4645
22
Frame 15: 15
C   -0.8555   -0.9997   0.2716
C   1.2938   0.0803   0.0855
C   -0.9869   1.5292   0.7160
C   2.1074   -0.5408   1.2191
C   2.1900   0.5296   -1.0648
N   0.2710   -0.8984   -0.4444
N   -2.0423   -1.3586   -0.2829
O   -1.5831   1.4940   -0.5193
H   -2.0418   0.6433   -0.5849
H   0.0345   -0.6460   -1.4124
H   -0.8277   -0.7815   1.3374
H   0.6574   0.9203   0.4814
H   -2.7009   -1.7809   0.3731
H   -1.9539   -1.9342   -1.1280
H   -0.5567   2.4974   0.8935
H   -1.5800   1.1768   1.5856
H   2.8435   0.1758   1.5992
H   1.6072   0.9942   -1.8689
H   2.6352   -1.4336   0.8691
H   1.4560   -0.8283   2.0504
H   2.9301   1.2595   -0.7217
H   2.7225   -0.3347   -1.4761
22
Frame 16: 16
C   -0.8758   -0.9981   0.2791
C   1.3103   0.0680   0.0860
C   -0.9573   1.5493   0.6974
C   2.0904   -0.5449   1.2225
C   2.1621   0.5378   -1.0534
N   0.2639   -0.9130   -0.4473
N   -2.0485   -1.3812   -0.2836
O   -1.5123   1.4782   -0.5421
H   -1.9960   0.6383   -0.5679
H   0.0193   -0.6444   -1.4100
H   -0.8314   -0.8151   1.3358
H   0.6369   0.9208   0.4919
H   -2.7071   -1.7964   0.3765
H   -1.9731   -1.9552   -1.1311
H   -0.5316   2.5642   0.8602
H   -1.4913   1.1953   1.5709
H   2.8188   0.1776   1.6062
H   1.5736   1.0130   -1.8472
H   2.6288   -1.4287   0.8654
H   1.4434   -0.8450   2.0524
H   2.9033   1.2638   -0.7046
H   2.6934   -0.3208   -1.4787
22
Frame 17: 17
C   -0.8573   -0.9978   0.2827
C   1.2930   0.0756   0.0966
C   -0.9859   1.5336   0.6964
C   2.1175   -0.5532   1.2183
C   2.1778   0.5384   -1.0577
N   0.2704   -0.9026   -0.4321
N   -2.0431   -1.3589   -0.2723
O   -1.5530   1.4863   -0.5529
H   -2.0278   0.6436   -0.6122
H   0.0344   -0.6510   -1.4005
H   -0.8328   -0.7647   1.3456
H   0.6580   0.9117   0.4990
H   -2.7067   -1.7679   0.3867
H   -1.9505   -1.9507   -1.1054
H   -0.5526   2.4993   0.8727
H   -1.6034   1.1958   1.5552
H   2.8509   0.1632   1.6037
H   1.5835   1.0172   -1.8450
H   2.6489   -1.4379   0.8540
H   1.4722   -0.8564   2.0487
H   2.9245   1.2609   -0.7136
H   2.7020   -0.3210   -1.4896
22
Frame 18: 18
C   -0.8774   -0.9966   0.2877
C   1.3101   0.0640   0.0954
C   -0.9567   1.5532   0.6801
C   2.0978   -0.5549   1.2218
C   2.1518   0.5454   -1.0463
N   0.2633   -0.9167   -0.4383
N   -2.0490   -1.3822   -0.2748
O   -1.4878   1.4714   -0.5697
H   -1.9819   0.6376   -0.5912
H   0.0179   -0.6470   -1.4006
H   -0.8345   -0.8035   1.3423
H   0.6356   0.9136   0.5073
H   -2.7115   -1.7855   0.3885
H   -1.9714   -1.9699   -1.1125
H   -0.5285   2.5683   0.8405
H   -1.5091   1.2109   1.5457
H   2.8241   0.1675   1.6098
H   1.5558   1.0299   -1.8287
H   2.6392   -1.4316   0.8523
H   1.4567   -0.8685   2.0513
H   2.8969   1.2668   -0.6961
H   2.6784   -0.3087   -1.4861
22
Frame 19: 19
C   -0.8595   -0.9959   0.2902
C   1.2924   0.0713   0.1051
C   -0.9845   1.5372   0.6816
C   2.1248   -0.5627   1.2179
C   2.1683   0.5449   -1.0514
N   0.2701   -0.9070   -0.4230
N   -2.0439   -1.3596   -0.2654
O   -1.5308   1.4815   -0.5774
H   -2.0148   0.6440   -0.6326
H   0.0354   -0.6570   -1.3922
H   -0.8378   -0.7514   1.3507
H   0.6565   0.9043   0.5126
H   -2.7118   -1.7577   0.3957
H   -1.9483   -1.9637   -1.0890
H   -0.5487   2.5016   0.8565
H   -1.6202   1.2130   1.5323
H   2.8556   0.1541   1.6074
H   1.5662   1.0319   -1.8276
H   2.6596   -1.4406   0.8425
H   1.4846   -0.8785   2.0475
H   2.9180   1.2639   -0.7062
H   2.6886   -0.3099   -1.4970
22
Frame 20: 20
C   -0.8795   -0.9946   0.2941
C   1.3098   0.0598   0.1034
C   -0.9559   1.5573   0.6662
C   2.1042   -0.5634   1.2215
C   2.1434   0.5511   -1.0402
N   0.2630   -0.9209   -0.4304
N   -2.0498   -1.3830   -0.2686
O   -1.4688   1.4671   -0.5913
H   -1.9699   0.6376   -0.6101
H   0.0187   -0.6523   -1.3934
H   -0.8388   -0.7918   1.3467
H   0.6339   0.9066   0.5201
H   -2.7160   -1.7761   0.3969
H   -1.9701   -1.9818   -1.0980
H   -0.5257   2.5725   0.8241
H   -1.5230   1.2259   1.5261
H   2.8284   0.1592   1.6127
H   1.5415   1.0418   -1.8139
H   2.6483   -1.4340   0.8418
H   1.4682   -0.8882   2.0505
H   2.8906   1.2697   -0.6888
H   2.6673   -0.2990   -1.4910
22
Frame 21: 21
C   -0.8620   -0.9933   0.2964
C   1.2913   0.0674   0.1126
C   -0.9815   1.5397   0.6682
C   2.1306   -0.5709   1.2179
C   2.1603   0.5503   -1.0456
N   0.2692   -0.9105   -0.4150
N   -2.0454   -1.3594   -0.2595
O   -1.5118   1.4774   -0.5983
H   -2.0038   0.6449   -0.6506
H   0.0369   -0.6630   -1.3853
H   -0.8426   -0.7391   1.3548
H   0.6543   0.8974   0.5245
H   -2.7168   -1.7485   0.4032
H   -1.9471   -1.9737   -1.0750
H   -0.5441   2.5026   0.8416
H   -1.6319   1.2268   1.5122
H   2.8592   0.1462   1.6107
H   1.5520   1.0429   -1.8132
H   2.6683   -1.4430   0.8332
H   1.4949   -0.8973   2.0467
H   2.9116   1.2671   -0.6994
H   2.6783   -0.3004   -1.5018
22
Frame 22: 22
C   -0.8816   -0.9925   0.2999
C   1.3090   0.0561   0.1104
C   -0.9539   1.5599   0.6533
C   2.1094   -0.5709   1.2214
C   2.1360   0.5558   -1.0345
N   0.2622   -0.9243   -0.4234
N   -2.0509   -1.3831   -0.2628
O   -1.4514   1.4630   -0.6107
H   -1.9594   0.6381   -0.6271
H   0.0190   -0.6567   -1.3869
H   -0.8426   -0.7807   1.3506
H   0.6321   0.9001   0.5315
H   -2.7204   -1.7674   0.4045
H   -1.9695   -1.9911   -1.0851
H   -0.5210   2.5743   0.8089
H   -1.5343   1.2390   1.5077
H   2.8319   0.1518   1.6152
H   1.5293   1.0512   -1.8014
H   2.6556   -1.4363   0.8332
H   1.4779   -0.9049   2.0501
H   2.8844   1.2727   -0.6821
H   2.6581   -0.2906   -1.4941
22
Frame 23: 23
C   -0.8641   -0.9914   0.3020
C   1.2904   0.0641   0.1192
C   -0.9800   1.5423   0.6563
C   2.1354   -0.5780   1.2181
C   2.1536   0.5546   -1.0403
N   0.2684   -0.9133   -0.4080
N   -2.0466   -1.3591   -0.2543
O   -1.4949   1.4734   -0.6167
H   -1.9937   0.6450   -0.6670
H   0.0373   -0.6671   -1.3790
H   -0.8464   -0.7295   1.3585
H   0.6535   0.8916   0.5348
H   -2.7211   -1.7403   0.4098
H   -1.9465   -1.9819   -1.0629
H   -0.5396   2.5038   0.8281
H   -1.6430   1.2394   1.4939
H   2.8625   0.1392   1.6134
H   1.5403   1.0514   -1.8011
H   2.6752   -1.4453   0.8257
H   1.5034   -0.9128   2.0463
H   2.9060   1.2699   -0.6934
H   2.6699   -0.2925   -1.5048
22
Frame 24: 24
C   -0.8833   -0.9909   0.3054
C   1.3084   0.0531   0.1166
C   -0.9525   1.5622   0.6417
C   2.1136   -0.5771   1.2215
C   2.1299   0.5596   -1.0295
N   0.2614   -0.9268   -0.4171
N   -2.0521   -1.3826   -0.2573
O   -1.4350   1.4586   -0.6283
H   -1.9496   0.6379   -0.6429
H   0.0182   -0.6593   -1.3807
H   -0.8456   -0.7725   1.3547
H   0.6312   0.8950   0.5411
H   -2.7242   -1.7598   0.4112
H   -1.9694   -1.9982   -1.0739
H   -0.5172   2.5759   0.7955
H   -1.5452   1.2500   1.4905
H   2.8350   0.1455   1.6175
H   1.5192   1.0586   -1.7909
H   2.6615   -1.4383   0.8263
H   1.4859   -0.9187   2.0500
H   2.8793   1.2751   -0.6765
H   2.6505   -0.2837   -1.4963
22
Frame 25: 25
C   -0.8658   -0.9899   0.3075
C   1.2897   0.0614   0.1249
C   -0.9786   1.5444   0.6452
C   2.1394   -0.5839   1.2185
C   2.1480   0.5581   -1.0356
N   0.2675   -0.9155   -0.4017
N   -2.0480   -1.3579   -0.2493
O   -1.4789   1.4687   -0.6337
H   -1.9846   0.6445   -0.6821
H   0.0367   -0.6698   -1.3729
H   -0.8493   -0.7222   1.3627
H   0.6528   0.8869   0.5434
H   -2.7250   -1.7328   0.4156
H   -1.9464   -1.9877   -1.0523
H   -0.5358   2.5044   0.8159
H   -1.6532   1.2500   1.4766
H   2.8653   0.1333   1.6160
H   1.5306   1.0582   -1.7910
H   2.6808   -1.4471   0.8197
H   1.5106   -0.9257   2.0463
H   2.9011   1.2723   -0.6882
H   2.6630   -0.2860   -1.5070
22
Frame 26: 26
C   -0.8847   -0.9900   0.3107
C   1.3080   0.0508   0.1220
C   -0.9514   1.5638   0.6307
C   2.1172   -0.5821   1.2219
C   2.1250   0.5626   -1.0252
N   0.2604   -0.9285   -0.4114
N   -2.0532   -1.3817   -0.2519
O   -1.4200   1.4539   -0.6446
H   -1.9406   0.6371   -0.6578
H   0.0164   -0.6598   -1.3746
H   -0.8476   -0.7673   1.3594
H   0.6306   0.8911   0.5490
H   -2.7277   -1.7531   0.4174
H   -1.9700   -2.0030   -1.0640
H   -0.5146   2.5770   0.7833
H   -1.5553   1.2588   1.4740
H   2.8378   0.1404   1.6196
H   1.5110   1.0644   -1.7820
H   2.6662   -1.4398   0.8210
H   1.4926   -0.9297   2.0503
H   2.8753   1.2771   -0.6718
H   2.6444   -0.2782   -1.4977
22
Frame 27: 27
C   -0.8667   -0.9892   0.3117
C   1.2889   0.0604   0.1283
C   -0.9788   1.5458   0.6374
C   2.1409   -0.5874   1.2188
C   2.1462   0.5593   -1.0323
N   0.2662   -0.9158   -0.3983
N   -2.0491   -1.3574   -0.2447
O   -1.4670   1.4652   -0.6464
H   -1.9773   0.6440   -0.6939
H   0.0335   -0.6672   -1.3683
H   -0.8501   -0.7185   1.3661
H   0.6524   0.8851   0.5482
H   -2.7277   -1.7272   0.4214
H   -1.9472   -1.9924   -1.0434
H   -0.5349   2.5051   0.8078
H   -1.6626   1.2571   1.4631
H   2.8661   0.1293   1.6183
H   1.5292   1.0602   -1.7875
H   2.6834   -1.4481   0.8157
H   1.5138   -0.9341   2.0459
H   2.8993   1.2733   -0.6841
H   2.6612   -0.2838   -1.5053
22
Frame 28: 28
C   -0.8846   -0.9895   0.3159
C   1.3071   0.0504   0.1254
C   -0.9512   1.5640   0.6211
C   2.1183   -0.5858   1.2222
C   2.1242   0.5641   -1.0219
N   0.2587   -0.9271   -0.4088
N   -2.0544   -1.3803   -0.2453
O   -1.4074   1.4473   -0.6591
H   -1.9346   0.6347   -0.6705
H   0.0101   -0.6508   -1.3689
H   -0.8462   -0.7654   1.3648
H   0.6312   0.8900   0.5534
H   -2.7295   -1.7475   0.4255
H   -1.9716   -2.0065   -1.0539
H   -0.5150   2.5766   0.7728
H   -1.5653   1.2639   1.4588
H   2.8389   0.1357   1.6217
H   1.5105   1.0672   -1.7780
H   2.6676   -1.4415   0.8173
H   1.4952   -0.9373   2.0501
H   2.8750   1.2776   -0.6677
H   2.6430   -0.2761   -1.4963
22
Frame 29: 29
C   -0.8666   -0.9890   0.3173
C   1.2881   0.0600   0.1318
C   -0.9786   1.5458   0.6270
C   2.1422   -0.5911   1.2193
C   2.1450   0.5611   -1.0289
N   0.2646   -0.9145   -0.3953
N   -2.0501   -1.3562   -0.2379
O   -1.4539   1.4586   -0.6618
H   -1.9709   0.6414   -0.7072
H   0.0274   -0.6583   -1.3625
H   -0.8487   -0.7169   1.3717
H   0.6530   0.8840   0.5527
H   -2.7295   -1.7217   0.4297
H   -1.9485   -1.9960   -1.0328
H   -0.5349   2.5043   0.7974
H   -1.6726   1.2623   1.4464
H   2.8677   0.1245   1.6204
H   1.5272   1.0638   -1.7822
H   2.6847   -1.4499   0.8124
H   1.5166   -0.9414   2.0460
H   2.8989   1.2738   -0.6801
H   2.6589   -0.2811   -1.5047
22
Frame 30: 30
C   -0.8847   -0.9891   0.3201
C   1.3067   0.0500   0.1287
C   -0.9513   1.5645   0.6126
C   2.1195   -0.5885   1.2229
C   2.1228   0.5654   -1.0189
N   0.2577   -0.9266   -0.4058
N   -2.0550   -1.3795   -0.2401
O   -1.3964   1.4426   -0.6717
H   -1.9276   0.6327   -0.6826
H   0.0069   -0.6466   -1.3643
H   -0.8453   -0.7641   1.3692
H   0.6311   0.8889   0.5576
H   -2.7310   -1.7428   0.4318
H   -1.9725   -2.0097   -1.0456
H   -0.5174   2.5781   0.7642
H   -1.5742   1.2679   1.4449
H   2.8404   0.1322   1.6234
H   1.5084   1.0700   -1.7734
H   2.6688   -1.4427   0.8148
H   1.4979   -0.9429   2.0506
H   2.8743   1.2779   -0.6642
H   2.6406   -0.2740   -1.4955
22
Frame 31: 31
C   -0.8667   -0.9887   0.3222
C   1.2877   0.0596   0.1355
C   -0.9783   1.5461   0.6174
C   2.1436   -0.5939   1.2202
C   2.1430   0.5628   -1.0257
N   0.2636   -0.9140   -0.3919
N   -2.0508   -1.3554   -0.2323
O   -1.4419   1.4534   -0.6758
H   -1.9630   0.6388   -0.7205
H   0.0239   -0.6535   -1.3573
H   -0.8479   -0.7157   1.3766
H   0.6531   0.8829   0.5572
H   -2.7311   -1.7171   0.4363
H   -1.9493   -1.9992   -1.0241
H   -0.5365   2.5050   0.7883
H   -1.6815   1.2663   1.4306
H   2.8694   0.1208   1.6224
H   1.5235   1.0675   -1.7762
H   2.6860   -1.4513   0.8101
H   1.5194   -0.9471   2.0467
H   2.8979   1.2745   -0.6766
H   2.6557   -0.2782   -1.5047
22
Frame 32: 32
C   -0.8848   -0.9882   0.3290
C   1.3058   0.0476   0.1371
C   -0.9487   1.5638   0.5949
C   2.1267   -0.5954   1.2240
C   2.1156   0.5707   -1.0140
N   0.2565   -0.9270   -0.3965
N   -2.0562   -1.3763   -0.2308
O   -1.3793   1.4338   -0.6956
H   -1.9195   0.6296   -0.7050
H   0.0043   -0.6442   -1.3537
H   -0.8465   -0.7584   1.3788
H   0.6342   0.8835   0.5686
H   -2.7343   -1.7359   0.4410
H   -1.9714   -2.0112   -1.0323
H   -0.5132   2.5730   0.7456
H   -1.5899   1.2769   1.4188
H   2.8483   0.1243   1.6251
H   1.4901   1.0834   -1.7537
H   2.6751   -1.4472   0.8100
H   1.5083   -0.9542   2.0522
H   2.8715   1.2793   -0.6605
H   2.6274   -0.2644   -1.5046
22
Frame 33: 33
C   -0.8661   -0.9894   0.3339
C   1.2869   0.0581   0.1451
C   -0.9785   1.5452   0.5960
C   2.1513   -0.6005   1.2214
C   2.1339   0.5703   -1.0191
N   0.2626   -0.9140   -0.3816
N   -2.0510   -1.3535   -0.2210
O   -1.4211   1.4418   -0.7044
H   -1.9510   0.6326   -0.7481
H   0.0192   -0.6480   -1.3445
H   -0.8470   -0.7128   1.3881
H   0.6559   0.8784   0.5706
H   -2.7342   -1.7089   0.4481
H   -1.9481   -2.0036   -1.0075
H   -0.5338   2.5007   0.7667
H   -1.6990   1.2742   1.3982
H   2.8788   0.1125   1.6233
H   1.5035   1.0843   -1.7541
H   2.6921   -1.4551   0.8033
H   1.5319   -0.9590   2.0493
H   2.8943   1.2769   -0.6715
H   2.6394   -0.2664   -1.5136
22
Frame 34: 34
C   -0.8847   -0.9895   0.3371
C   1.3056   0.0471   0.1446
C   -0.9496   1.5630   0.5792
C   2.1320   -0.5988   1.2248
C   2.1081   0.5770   -1.0082
N   0.2562   -0.9280   -0.3892
N   -2.0558   -1.3768   -0.2225
O   -1.3618   1.4242   -0.7170
H   -1.9072   0.6235   -0.7265
H   0.0008   -0.6410   -1.3442
H   -0.8454   -0.7580   1.3867
H   0.6335   0.8805   0.5790
H   -2.7359   -1.7307   0.4500
H   -1.9710   -2.0162   -1.0204
H   -0.5136   2.5727   0.7296
H   -1.6041   1.2827   1.3941
H   2.8551   0.1198   1.6251
H   1.4770   1.0960   -1.7386
H   2.6792   -1.4481   0.8041
H   1.5186   -0.9623   2.0548
H   2.8679   1.2817   -0.6553
H   2.6151   -0.2552   -1.5089
22
Frame 35: 35
C   -0.8659   -0.9903   0.3427
C   1.2865   0.0574   0.1525
C   -0.9788   1.5442   0.5796
C   2.1564   -0.6044   1.2225
C   2.1266   0.5768   -1.0133
N   0.2618   -0.9143   -0.3742
N   -2.0510   -1.3536   -0.2126
O   -1.4024   1.4312   -0.7268
H   -1.9378   0.6255   -0.7700
H   0.0148   -0.6426   -1.3345
H   -0.8464   -0.7129   1.3968
H   0.6559   0.8754   0.5808
H   -2.7362   -1.7035   0.4570
H   -1.9475   -2.0089   -0.9949
H   -0.5340   2.4995   0.7501
H   -1.7126   1.2800   1.3719
H   2.8853   0.1075   1.6239
H   1.4899   1.0972   -1.7381
H   2.6962   -1.4565   0.7982
H   1.5413   -0.9672   2.0517
H   2.8906   1.2797   -0.6663
H   2.6271   -0.2565   -1.5185
22
Frame 36: 36
C   -0.8849   -0.9902   0.3434
C   1.3055   0.0463   0.1511
C   -0.9504   1.5628   0.5658
C   2.1361   -0.6013   1.2259
C   2.1015   0.5826   -1.0029
N   0.2563   -0.9298   -0.3827
N   -2.0556   -1.3775   -0.2163
O   -1.3465   1.4159   -0.7350
H   -1.8957   0.6178   -0.7447
H   -0.0006   -0.6409   -1.3366
H   -0.8453   -0.7573   1.3928
H   0.6318   0.8774   0.5877
H   -2.7373   -1.7264   0.4571
H   -1.9704   -2.0218   -1.0103
H   -0.5143   2.5736   0.7148
H   -1.6155   1.2884   1.3731
H   2.8601   0.1167   1.6257
H   1.4661   1.1067   -1.7257
H   2.6829   -1.4482   0.7998
H   1.5269   -0.9690   2.0572
H   2.8641   1.2843   -0.6500
H   2.6049   -0.2467   -1.5119
22
Frame 37: 37
C   -0.8661   -0.9908   0.3494
C   1.2863   0.0563   0.1588
C   -0.9788   1.5437   0.5654
C   2.1603   -0.6074   1.2239
C   2.1201   0.5825   -1.0079
N   0.2616   -0.9156   -0.3678
N   -2.0510   -1.3540   -0.2064
O   -1.3868   1.4219   -0.7455
H   -1.9263   0.6190   -0.7882
H   0.0127   -0.6405   -1.3266
H   -0.8464   -0.7120   1.4032
H   0.6551   0.8723   0.5893
H   -2.7378   -1.6990   0.4640
H   -1.9468   -2.0143   -0.9844
H   -0.5336   2.4993   0.7343
H   -1.7230   1.2861   1.3498
H   2.8896   0.1041   1.6253
H   1.4785   1.1085   -1.7240
H   2.6999   -1.4572   0.7947
H   1.5486   -0.9742   2.0539
H   2.8870   1.2824   -0.6607
H   2.6168   -0.2475   -1.5223
22
Frame 38: 38
C   -0.8856   -0.9899   0.3499
C   1.3048   0.0443   0.1587
C   -0.9503   1.5627   0.5503
C   2.1413   -0.6052   1.2274
C   2.0932   0.5897   -0.9967
N   0.2565   -0.9328   -0.3747
N   -2.0554   -1.3778   -0.2110
O   -1.3341   1.4070   -0.7537
H   -1.8868   0.6113   -0.7624
H   0.0003   -0.6448   -1.3288
H   -0.8474   -0.7531   1.3988
H   0.6305   0.8720   0.5981
H   -2.7397   -1.7211   0.4626
H   -1.9682   -2.0280   -0.9998
H   -0.5046   2.5695   0.6933
H   -1.6264   1.3007   1.3526
H   2.8654   0.1128   1.6271
H   1.4511   1.1218   -1.7075
H   2.6882   -1.4492   0.7957
H   1.5361   -0.9777   2.0595
H   2.8596   1.2870   -0.6431
H   2.5915   -0.2353   -1.5179
22
Frame 39: 39
C   -0.8669   -0.9909   0.3569
C   1.2858   0.0540   0.1672
C   -0.9787   1.5436   0.5476
C   2.1660   -0.6122   1.2255
C   2.1105   0.5907   -1.0006
N   0.2617   -0.9185   -0.3593
N   -2.0506   -1.3555   -0.2005
O   -1.3735   1.4116   -0.7667
H   -1.9165   0.6110   -0.8069
H   0.0130   -0.6433   -1.3179
H   -0.8488   -0.7073   1.4094
H   0.6549   0.8665   0.6016
H   -2.7402   -1.6939   0.4702
H   -1.9445   -2.0222   -0.9727
H   -0.5224   2.4953   0.7098
H   -1.7335   1.3012   1.3264
H   2.8954   0.0992   1.6269
H   1.4611   1.1256   -1.7029
H   2.7057   -1.4586   0.7898
H   1.5587   -0.9845   2.0564
H   2.8814   1.2859   -0.6528
H   2.6014   -0.2340   -1.5289
22
Frame 40: 40
C   -0.8872   -0.9895   0.3563
C   1.3042   0.0417   0.1673
C   -0.9496   1.5628   0.5342
C   2.1475   -0.6090   1.2289
C   2.0829   0.5975   -0.9899
N   0.2571   -0.9373   -0.3652
N   -2.0553   -1.3788   -0.2064
O   -1.3202   1.3981   -0.7729
H   -1.8764   0.6050   -0.7805
H   0.0034   -0.6531   -1.3209
H   -0.8512   -0.7476   1.4043
H   0.6289   0.8654   0.6101
H   -2.7427   -1.7154   0.4672
H   -1.9659   -2.0355   -0.9896
H   -0.4938   2.5661   0.6714
H   -1.6372   1.3148   1.3308
H   2.8714   0.1092   1.6282
H   1.4329   1.1371   -1.6876
H   2.6947   -1.4494   0.7907
H   1.5473   -0.9872   2.0621
H   2.8526   1.2911   -0.6360
H   2.5763   -0.2222   -1.5239
22
Frame 41: 41
C   -0.8690   -0.9903   0.3639
C   1.2851   0.0511   0.1761
C   -0.9773   1.5437   0.5313
C   2.1729   -0.6164   1.2270
C   2.0990   0.5989   -0.9934
N   0.2622   -0.9234   -0.3487
N   -2.0508   -1.3560   -0.1964
O   -1.3572   1.4022   -0.7866
H   -1.9041   0.6043   -0.8261
H   0.0169   -0.6534   -1.3095
H   -0.8539   -0.7011   1.4149
H   0.6531   0.8597   0.6142
H   -2.7444   -1.6870   0.4738
H   -1.9422   -2.0296   -0.9622
H   -0.5120   2.4916   0.6887
H   -1.7433   1.3153   1.3031
H   2.9020   0.0957   1.6279
H   1.4405   1.1410   -1.6816
H   2.7132   -1.4588   0.7845
H   1.5711   -0.9948   2.0590
H   2.8731   1.2907   -0.6459
H   2.5850   -0.2199   -1.5354
22
Frame 42: 42
C   -0.8894   -0.9889   0.3616
C   1.3035   0.0389   0.1756
C   -0.9485   1.5633   0.5203
C   2.1539   -0.6117   1.2303
C   2.0722   0.6047   -0.9834
N   0.2582   -0.9432   -0.3553
N   -2.0554   -1.3794   -0.2040
O   -1.3060   1.3900   -0.7894
H   -1.8654   0.5992   -0.7967
H   0.0091   -0.6665   -1.3142
H   -0.8568   -0.7410   1.4082
H   0.6255   0.8586   0.6214
H   -2.7468   -1.7087   0.4691
H   -1.9636   -2.0428   -0.9811
H   -0.4842   2.5639   0.6524
H   -1.6462   1.3280   1.3114
H   2.8773   0.1075   1.6289
H   1.4149   1.1503   -1.6693
H   2.7020   -1.4483   0.7859
H   1.5594   -0.9959   2.0650
H   2.8444   1.2955   -0.6295
H   2.5618   -0.2098   -1.5288
22
Frame 43: 43
C   -0.8721   -0.9896   0.3702
C   1.2845   0.0473   0.1851
C   -0.9749   1.5442   0.5171
C   2.1803   -0.6197   1.2286
C   2.0858   0.6067   -0.9866
N   0.2630   -0.9303   -0.3372
N   -2.0515   -1.3558   -0.1941
O   -1.3362   1.3929   -0.8049
H   -1.8890   0.5991   -0.8449
H   0.0229   -0.6687   -1.3015
H   -0.8607   -0.6949   1.4194
H   0.6502   0.8519   0.6272
H   -2.7498   -1.6793   0.4748
H   -1.9405   -2.0358   -0.9538
H   -0.5026   2.4899   0.6711
H   -1.7529   1.3287   1.2801
H   2.9082   0.0941   1.6284
H   1.4182   1.1543   -1.6613
H   2.7222   -1.4577   0.7796
H   1.5846   -1.0045   2.0621
H   2.8620   1.2965   -0.6397
H   2.5682   -0.2058   -1.5413
22
Frame 44: 44
C   -0.8928   -0.9879   0.3667
C   1.3031   0.0351   0.1841
C   -0.9467   1.5646   0.5077
C   2.1610   -0.6139   1.2321
C   2.0604   0.6111   -0.9771
N   0.2593   -0.9507   -0.3442
N   -2.0562   -1.3793   -0.2031
O   -1.2884   1.3829   -0.8050
H   -1.8509   0.5944   -0.8133
H   0.0162   -0.6838   -1.3073
H   -0.8642   -0.7349   1.4119
H   0.6217   0.8513   0.6332
H   -2.7526   -1.7011   0.4684
H   -1.9620   -2.0487   -0.9746
H   -0.4767   2.5642   0.6361
H   -1.6544   1.3399   1.2921
H   2.8829   0.1074   1.6294
H   1.3954   1.1608   -1.6519
H   2.7109   -1.4461   0.7817
H   1.5727   -1.0042   2.0683
H   2.8339   1.3006   -0.6236
H   2.5475   -0.1980   -1.5329
22
Frame 45: 45
C   -0.8752   -0.9886   0.3746
C   1.2839   0.0439   0.1924
C   -0.9737   1.5457   0.5062
C   2.1867   -0.6218   1.2305
C   2.0759   0.6117   -0.9811
N   0.2638   -0.9367   -0.3272
N   -2.0524   -1.3552   -0.1939
O   -1.3209   1.3871   -0.8187
H   -1.8757   0.5948   -0.8600
H   0.0294   -0.6844   -1.2952
H   -0.8676   -0.6892   1.4225
H   0.6476   0.8455   0.6373
H   -2.7553   -1.6722   0.4731
H   -1.9389   -2.0407   -0.9482
H   -0.4974   2.4900   0.6578
H   -1.7605   1.3395   1.2620
H   2.9128   0.0943   1.6295
H   1.4013   1.1628   -1.6456
H   2.7307   -1.4557   0.7767
H   1.5961   -1.0121   2.0653
H   2.8532   1.3007   -0.6347
H   2.5561   -0.1958   -1.5449
22
Frame 46: 46
C   -0.8947   -0.9875   0.3683
C   1.3029   0.0333   0.1891
C   -0.9476   1.5662   0.4993
C   2.1638   -0.6138   1.2347
C   2.0562   0.6136   -0.9724
N   0.2605   -0.9552   -0.3383
N   -2.0558   -1.3808   -0.2044
O   -1.2859   1.3807   -0.8131
H   -1.8440   0.5893   -0.8217
H   0.0220   -0.6958   -1.3044
H   -0.8696   -0.7306   1.4124
H   0.6186   0.8481   0.6385
H   -2.7559   -1.6969   0.4659
H   -1.9600   -2.0548   -0.9718
H   -0.4719   2.5650   0.6226
H   -1.6585   1.3494   1.2826
H   2.8840   0.1095   1.6317
H   1.3885   1.1659   -1.6424
H   2.7160   -1.4429   0.7815
H   1.5790   -1.0081   2.0715
H   2.8302   1.3022   -0.6182
H   2.5418   -0.1931   -1.5328
22
Frame 47: 47
C   -0.8772   -0.9879   0.3758
C   1.2835   0.0423   0.1969
C   -0.9740   1.5470   0.4991
C   2.1892   -0.6218   1.2334
C   2.0724   0.6137   -0.9769
N   0.2648   -0.9405   -0.3216
N   -2.0523   -1.3559   -0.1959
O   -1.3180   1.3848   -0.8260
H   -1.8697   0.5905   -0.8678
H   0.0350   -0.6955   -1.2925
H   -0.8731   -0.6849   1.4225
H   0.6454   0.8427   0.6419
H   -2.7586   -1.6683   0.4697
H   -1.9369   -2.0454   -0.9462
H   -0.4933   2.4900   0.6464
H   -1.7638   1.3480   1.2536
H   2.9134   0.0962   1.6324
H   1.3952   1.1667   -1.6372
H   2.7357   -1.4530   0.7775
H   1.6013   -1.0156   2.0683
H   2.8498   1.3022   -0.6301
H   2.5514   -0.1916   -1.5447
22
Frame 48: 48
C   -0.8964   -0.9869   0.3690
C   1.3024   0.0320   0.1931
C   -0.9479   1.5673   0.4930
C   2.1656   -0.6131   1.2376
C   2.0535   0.6148   -0.9688
N   0.2615   -0.9586   -0.3335
N   -2.0556   -1.3816   -0.2065
O   -1.2833   1.3785   -0.8195
H   -1.8391   0.5855   -0.8283
H   0.0272   -0.7054   -1.3022
H   -0.8746   -0.7265   1.4122
H   0.6163   0.8459   0.6419
H   -2.7588   -1.6936   0.4626
H   -1.9580   -2.0592   -0.9704
H   -0.4684   2.5650   0.6126
H   -1.6616   1.3564   1.2754
H   2.8839   0.1120   1.6347
H   1.3841   1.1685   -1.6360
H   2.7201   -1.4400   0.7831
H   1.5828   -1.0102   2.0745
H   2.8276   1.3032   -0.6141
H   2.5386   -0.1902   -1.5319
22
Frame 49: 49
C   -0.8789   -0.9874   0.3763
C   1.2831   0.0410   0.2004
C   -0.9742   1.5481   0.4934
C   2.1908   -0.6211   1.2364
C   2.0701   0.6146   -0.9735
N   0.2657   -0.9436   -0.3171
N   -2.0522   -1.3562   -0.1984
O   -1.3154   1.3825   -0.8318
H   -1.8651   0.5869   -0.8739
H   0.0401   -0.7048   -1.2903
H   -0.8781   -0.6810   1.4221
H   0.6435   0.8407   0.6448
H   -2.7616   -1.6648   0.4658
H   -1.9349   -2.0491   -0.9452
H   -0.4911   2.4902   0.6379
H   -1.7665   1.3541   1.2467
H   2.9131   0.0988   1.6355
H   1.3911   1.1684   -1.6314
H   2.7397   -1.4503   0.7797
H   1.6046   -1.0174   2.0713
H   2.8474   1.3032   -0.6265
H   2.5488   -0.1892   -1.5437
22
Frame 50: 50
C   -0.8977   -0.9865   0.3694
C   1.3020   0.0311   0.1963
C   -0.9483   1.5681   0.4877
C   2.1666   -0.6120   1.2406
C   2.0518   0.6154   -0.9658
N   0.2626   -0.9614   -0.3295
N   -2.0553   -1.3821   -0.2088
O   -1.2810   1.3764   -0.8249
H   -1.8351   0.5822   -0.8337
H   0.0317   -0.7134   -1.3003
H   -0.8790   -0.7228   1.4117
H   0.6145   0.8443   0.6443
H   -2.7612   -1.6906   0.4591
H   -1.9559   -2.0629   -0.9696
H   -0.4669   2.5654   0.6049
H   -1.6643   1.3615   1.2691
H   2.8832   0.1148   1.6377
H   1.3813   1.1694   -1.6315
H   2.7233   -1.4372   0.7856
H   1.5853   -1.0111   2.0775
H   2.8256   1.3039   -0.6109
H   2.5368   -0.1887   -1.5303
22
Frame 51: 51
C   -0.8802   -0.9869   0.3765
C   1.2827   0.0402   0.2036
C   -0.9747   1.5491   0.4882
C   2.1919   -0.6201   1.2395
C   2.0685   0.6150   -0.9706
N   0.2666   -0.9462   -0.3131
N   -2.0520   -1.3569   -0.2009
O   -1.3134   1.3805   -0.8371
H   -1.8616   0.5839   -0.8790
H   0.0446   -0.7126   -1.2885
H   -0.8828   -0.6771   1.4212
H   0.6422   0.8395   0.6472
H   -2.7639   -1.6622   0.4620
H   -1.9327   -2.0527   -0.9446
H   -0.4901   2.4909   0.6308
H   -1.7690   1.3590   1.2405
H   2.9125   0.1015   1.6387
H   1.3885   1.1689   -1.6272
H   2.7429   -1.4477   0.7824
H   1.6069   -1.0182   2.0744
H   2.8455   1.3038   -0.6236
H   2.5474   -0.1879   -1.5420
22
Frame 52: 52
C   -0.8989   -0.9861   0.3695
C   1.3017   0.0305   0.1991
C   -0.9486   1.5687   0.4828
C   2.1671   -0.6106   1.2438
C   2.0509   0.6154   -0.9632
N   0.2635   -0.9636   -0.3261
N   -2.0550   -1.3830   -0.2107
O   -1.2787   1.3745   -0.8298
H   -1.8322   0.5800   -0.8388
H   0.0355   -0.7195   -1.2986
H   -0.8830   -0.7196   1.4111
H   0.6130   0.8436   0.6458
H   -2.7630   -1.6888   0.4561
H   -1.9538   -2.0662   -0.9691
H   -0.4664   2.5659   0.5986
H   -1.6668   1.3650   1.2630
H   2.8821   0.1177   1.6409
H   1.3799   1.1693   -1.6286
H   2.7257   -1.4346   0.7888
H   1.5865   -1.0110   2.0805
H   2.8243   1.3042   -0.6083
H   2.5363   -0.1883   -1.5281
22
Frame 53: 53
C   -0.8813   -0.9865   0.3766
C   1.2824   0.0397   0.2061
C   -0.9752   1.5496   0.4836
C   2.1923   -0.6186   1.2427
C   2.0678   0.6149   -0.9682
N   0.2675   -0.9482   -0.3100
N   -2.0517   -1.3576   -0.2029
O   -1.3112   1.3789   -0.8420
H   -1.8586   0.5817   -0.8841
H   0.0484   -0.7185   -1.2869
H   -0.8865   -0.6741   1.4206
H   0.6409   0.8389   0.6486
H   -2.7656   -1.6605   0.4590
H   -1.9308   -2.0557   -0.9443
H   -0.4901   2.4914   0.6251
H   -1.7713   1.3619   1.2344
H   2.9113   0.1044   1.6420
H   1.3873   1.1685   -1.6245
H   2.7451   -1.4451   0.7859
H   1.6078   -1.0178   2.0775
H   2.8444   1.3042   -0.6211
H   2.5471   -0.1877   -1.5397
22
Frame 54: 54
C   -0.9003   -0.9854   0.3703
C   1.3013   0.0296   0.2024
C   -0.9479   1.5690   0.4766
C   2.1682   -0.6097   1.2468
C   2.0488   0.6159   -0.9603
N   0.2641   -0.9658   -0.3220
N   -2.0550   -1.3832   -0.2122
O   -1.2754   1.3720   -0.8362
H   -1.8291   0.5775   -0.8449
H   0.0392   -0.7256   -1.2962
H   -0.8872   -0.7164   1.4113
H   0.6120   0.8422   0.6484
H   -2.7652   -1.6865   0.4533
H   -1.9519   -2.0687   -0.9683
H   -0.4649   2.5659   0.5910
H   -1.6688   1.3685   1.2553
H   2.8818   0.1201   1.6438
H   1.3765   1.1693   -1.6247
H   2.7284   -1.4325   0.7918
H   1.5887   -1.0113   2.0837
H   2.8216   1.3056   -0.6056
H   2.5349   -0.1867   -1.5260
22
Frame 55: 55
C   -0.8826   -0.9860   0.3774
C   1.2820   0.0390   0.2093
C   -0.9748   1.5500   0.4778
C   2.1933   -0.6175   1.2459
C   2.0658   0.6154   -0.9654
N   0.2682   -0.9504   -0.3059
N   -2.0516   -1.3578   -0.2046
O   -1.3076   1.3763   -0.8482
H   -1.8552   0.5792   -0.8902
H   0.0522   -0.7251   -1.2845
H   -0.8905   -0.6712   1.4206
H   0.6397   0.8378   0.6510
H   -2.7678   -1.6581   0.4560
H   -1.9290   -2.0581   -0.9435
H   -0.4892   2.4916   0.6184
H   -1.7733   1.3649   1.2268
H   2.9109   0.1070   1.6450
H   1.3840   1.1683   -1.6208
H   2.7478   -1.4429   0.7891
H   1.6099   -1.0179   2.0808
H   2.8418   1.3055   -0.6186
H   2.5459   -0.1863   -1.5375
22
Frame 56: 56
C   -0.9013   -0.9851   0.3705
C   1.3010   0.0291   0.2052
C   -0.9482   1.5695   0.4720
C   2.1688   -0.6082   1.2499
C   2.0476   0.6159   -0.9578
N   0.2651   -0.9679   -0.3186
N   -2.0546   -1.3837   -0.2142
O   -1.2727   1.3700   -0.8413
H   -1.8259   0.5752   -0.8502
H   0.0432   -0.7320   -1.2945
H   -0.8910   -0.7133   1.4108
H   0.6106   0.8414   0.6500
H   -2.7670   -1.6846   0.4502
H   -1.9500   -2.0713   -0.9680
H   -0.4651   2.5666   0.5853
H   -1.6713   1.3713   1.2492
H   2.8810   0.1230   1.6466
H   1.3746   1.1684   -1.6222
H   2.7306   -1.4301   0.7952
H   1.5901   -1.0107   2.0870
H   2.8197   1.3064   -0.6033
H   2.5346   -0.1863   -1.5234
22
Frame 57: 57
C   -0.8836   -0.9857   0.3776
C   1.2817   0.0385   0.2119
C   -0.9752   1.5505   0.4733
C   2.1938   -0.6160   1.2490
C   2.0648   0.6152   -0.9630
N   0.2691   -0.9524   -0.3026
N   -2.0512   -1.3582   -0.2067
O   -1.3050   1.3744   -0.8532
H   -1.8520   0.5769   -0.8955
H   0.0561   -0.7315   -1.2828
H   -0.8941   -0.6683   1.4200
H   0.6384   0.8371   0.6525
H   -2.7694   -1.6563   0.4528
H   -1.9271   -2.0606   -0.9433
H   -0.4898   2.4923   0.6130
H   -1.7757   1.3674   1.2206
H   2.9101   0.1100   1.6479
H   1.3823   1.1672   -1.6185
H   2.7500   -1.4405   0.7927
H   1.6111   -1.0171   2.0841
H   2.8400   1.3064   -0.6164
H   2.5457   -0.1860   -1.5349
22
Frame 58: 58
C   -0.9021   -0.9849   0.3706
C   1.3007   0.0289   0.2076
C   -0.9489   1.5699   0.4677
C   2.1688   -0.6065   1.2531
C   2.0472   0.6156   -0.9557
N   0.2659   -0.9696   -0.3158
N   -2.0541   -1.3844   -0.2161
O   -1.2707   1.3683   -0.8459
H   -1.8233   0.5731   -0.8548
H   0.0465   -0.7370   -1.2931
H   -0.8941   -0.7107   1.4101
H   0.6093   0.8411   0.6510
H   -2.7682   -1.6833   0.4473
H   -1.9480   -2.0739   -0.9680
H   -0.4649   2.5667   0.5803
H   -1.6738   1.3739   1.2437
H   2.8798   0.1260   1.6496
H   1.3739   1.1671   -1.6205
H   2.7321   -1.4277   0.7990
H   1.5904   -1.0094   2.0902
H   2.8185   1.3070   -0.6013
H   2.5350   -0.1865   -1.5206
22
Frame 59: 59
C   -0.8844   -0.9855   0.3775
C   1.2813   0.0383   0.2141
C   -0.9759   1.5509   0.4691
C   2.1937   -0.6143   1.2522
C   2.0644   0.6148   -0.9608
N   0.2699   -0.9540   -0.2999
N   -2.0507   -1.3589   -0.2086
O   -1.3031   1.3729   -0.8577
H   -1.8494   0.5749   -0.9000
H   0.0595   -0.7365   -1.2814
H   -0.8972   -0.6657   1.4192
H   0.6372   0.8368   0.6534
H   -2.7707   -1.6551   0.4497
H   -1.9252   -2.0630   -0.9434
H   -0.4898   2.4925   0.6083
H   -1.7782   1.3701   1.2150
H   2.9088   0.1130   1.6509
H   1.3817   1.1658   -1.6169
H   2.7514   -1.4382   0.7967
H   1.6113   -1.0158   2.0873
H   2.8388   1.3069   -0.6143
H   2.5464   -0.1864   -1.5321
22
Frame 60: 60
C   -0.9027   -0.9847   0.3705
C   1.3003   0.0289   0.2097
C   -0.9494   1.5701   0.4641
C   2.1686   -0.6044   1.2563
C   2.0473   0.6148   -0.9538
N   0.2669   -0.9711   -0.3132
N   -2.0536   -1.3848   -0.2182
O   -1.2692   1.3668   -0.8498
H   -1.8210   0.5710   -0.8592
H   0.0500   -0.7420   -1.2918
H   -0.8971   -0.7087   1.4096
H   0.6077   0.8411   0.6513
H   -2.7695   -1.6820   0.4441
H   -1.9459   -2.0760   -0.9683
H   -0.4662   2.5673   0.5759
H   -1.6763   1.3755   1.2388
H   2.8784   0.1293   1.6527
H   1.3740   1.1651   -1.6197
H   2.7333   -1.4253   0.8033
H   1.5903   -1.0074   2.0935
H   2.8178   1.3074   -0.5996
H   2.5362   -0.1874   -1.5176
22
Frame 61: 61
C   -0.8850   -0.9853   0.3774
C   1.2810   0.0385   0.2161
C   -0.9767   1.5511   0.4656
C   2.1935   -0.6121   1.2556
C   2.0647   0.6141   -0.9590
N   0.2709   -0.9555   -0.2974
N   -2.0501   -1.3594   -0.2108
O   -1.3017   1.3714   -0.8616
H   -1.8471   0.5728   -0.9043
H   0.0629   -0.7415   -1.2802
H   -0.9002   -0.6637   1.4185
H   0.6357   0.8371   0.6536
H   -2.7718   -1.6539   0.4465
H   -1.9231   -2.0652   -0.9437
H   -0.4913   2.4931   0.6041
H   -1.7806   1.3713   1.2102
H   2.9074   0.1165   1.6540
H   1.3820   1.1639   -1.6162
H   2.7525   -1.4357   0.8011
H   1.6111   -1.0136   2.0907
H   2.8383   1.3072   -0.6127
H   2.5476   -0.1874   -1.5290
22
Frame 62: 62
C   -0.9032   -0.9847   0.3704
C   1.3000   0.0289   0.2116
C   -0.9505   1.5704   0.4601
C   2.1681   -0.6024   1.2595
C   2.0475   0.6143   -0.9519
N   0.2678   -0.9724   -0.3110
N   -2.0528   -1.3858   -0.2199
O   -1.2677   1.3652   -0.8540
H   -1.8188   0.5690   -0.8633
H   0.0529   -0.7458   -1.2907
H   -0.8997   -0.7065   1.4088
H   0.6067   0.8412   0.6517
H   -2.7702   -1.6813   0.4414
H   -1.9438   -2.0784   -0.9685
H   -0.4671   2.5676   0.5716
H   -1.6789   1.3772   1.2338
H   2.8769   0.1325   1.6556
H   1.3743   1.1635   -1.6188
H   2.7341   -1.4231   0.8077
H   1.5898   -1.0052   2.0968
H   2.8173   1.3076   -0.5978
H   2.5373   -0.1883   -1.5145
22
Frame 63: 63
C   -0.8854   -0.9853   0.3773
C   1.2806   0.0385   0.2179
C   -0.9777   1.5514   0.4617
C   2.1929   -0.6101   1.2588
C   2.0649   0.6134   -0.9571
N   0.2717   -0.9566   -0.2953
N   -2.0494   -1.3603   -0.2126
O   -1.3003   1.3698   -0.8658
H   -1.8450   0.5708   -0.9084
H   0.0658   -0.7452   -1.2790
H   -0.9027   -0.6614   1.4176
H   0.6347   0.8372   0.6539
H   -2.7725   -1.6533   0.4438
H   -1.9210   -2.0675   -0.9439
H   -0.4923   2.4934   0.5999
H   -1.7831   1.3730   1.2051
H   2.9058   0.1196   1.6570
H   1.3825   1.1621   -1.6153
H   2.7532   -1.4336   0.8056
H   1.6105   -1.0114   2.0939
H   2.8378   1.3073   -0.6109
H   2.5488   -0.1883   -1.5259
22
Frame 64: 64
C   -0.9036   -0.9846   0.3702
C   1.2997   0.0292   0.2134
C   -0.9513   1.5704   0.4564
C   2.1675   -0.6003   1.2628
C   2.0480   0.6135   -0.9502
N   0.2687   -0.9734   -0.3090
N   -2.0521   -1.3865   -0.2216
O   -1.2665   1.3636   -0.8580
H   -1.8171   0.5670   -0.8673
H   0.0556   -0.7492   -1.2895
H   -0.9020   -0.7047   1.4083
H   0.6054   0.8417   0.6516
H   -2.7709   -1.6808   0.4388
H   -1.9417   -2.0805   -0.9688
H   -0.4682   2.5678   0.5673
H   -1.6813   1.3785   1.2290
H   2.8753   0.1357   1.6586
H   1.3752   1.1615   -1.6183
H   2.7345   -1.4209   0.8123
H   1.5889   -1.0027   2.1000
H   2.8171   1.3077   -0.5962
H   2.5389   -0.1894   -1.5114
22
Frame 65: 65
C   -0.8858   -0.9853   0.3772
C   1.2803   0.0389   0.2196
C   -0.9787   1.5514   0.4580
C   2.1923   -0.6079   1.2621
C   2.0655   0.6127   -0.9554
N   0.2726   -0.9576   -0.2933
N   -2.0487   -1.3611   -0.2143
O   -1.2992   1.3682   -0.8698
H   -1.8433   0.5688   -0.9126
H   0.0685   -0.7486   -1.2779
H   -0.9049   -0.6597   1.4170
H   0.6334   0.8377   0.6538
H   -2.7731   -1.6529   0.4411
H   -1.9189   -2.0696   -0.9441
H   -0.4936   2.4936   0.5959
H   -1.7853   1.3739   1.2002
H   2.9042   0.1229   1.6602
H   1.3834   1.1602   -1.6149
H   2.7537   -1.4314   0.8103
H   1.6095   -1.0087   2.0972
H   2.8377   1.3075   -0.6093
H   2.5504   -0.1895   -1.5227
22
Frame 66: 66
C   -0.9038   -0.9847   0.3701
C   1.2994   0.0296   0.2151
C   -0.9523   1.5704   0.4528
C   2.1667   -0.5980   1.2661
C   2.0487   0.6128   -0.9486
N   0.2696   -0.9743   -0.3070
N   -2.0514   -1.3874   -0.2233
O   -1.2654   1.3621   -0.8619
H   -1.8155   0.5650   -0.8713
H   0.0583   -0.7523   -1.2885
H   -0.9042   -0.7031   1.4077
H   0.6042   0.8422   0.6514
H   -2.7714   -1.6806   0.4363
H   -1.9396   -2.0827   -0.9690
H   -0.4696   2.5679   0.5632
H   -1.6837   1.3794   1.2243
H   2.8736   0.1389   1.6617
H   1.3762   1.1597   -1.6180
H   2.7348   -1.4187   0.8171
H   1.5877   -0.9999   2.1032
H   2.8170   1.3079   -0.5946
H   2.5405   -0.1906   -1.5082
22
Frame 67: 67
C   -0.8860   -0.9853   0.3770
C   1.2800   0.0393   0.2212
C   -0.9797   1.5514   0.4544
C   2.1915   -0.6056   1.2655
C   2.0662   0.6120   -0.9537
N   0.2735   -0.9585   -0.2914
N   -2.0479   -1.3621   -0.2159
O   -1.2981   1.3666   -0.8737
H   -1.8416   0.5668   -0.9166
H   0.0711   -0.7518   -1.2769
H   -0.9071   -0.6581   1.4163
H   0.6322   0.8383   0.6536
H   -2.7735   -1.6527   0.4386
H   -1.9168   -2.0717   -0.9443
H   -0.4951   2.4938   0.5919
H   -1.7877   1.3748   1.1954
H   2.9025   0.1262   1.6632
H   1.3844   1.1583   -1.6146
H   2.7540   -1.4292   0.8152
H   1.6083   -1.0059   2.1005
H   2.8377   1.3076   -0.6077
H   2.5521   -0.1906   -1.5196
22
Frame 68: 68
C   -0.9040   -0.9847   0.3699
C   1.2991   0.0301   0.2167
C   -0.9534   1.5705   0.4493
C   2.1659   -0.5957   1.2693
C   2.0495   0.6120   -0.9470
N   0.2705   -0.9752   -0.3052
N   -2.0505   -1.3884   -0.2248
O   -1.2645   1.3605   -0.8657
H   -1.8138   0.5630   -0.8752
H   0.0610   -0.7554   -1.2875
H   -0.9062   -0.7015   1.4071
H   0.6031   0.8429   0.6510
H   -2.7717   -1.6805   0.4339
H   -1.9374   -2.0848   -0.9693
H   -0.4715   2.5683   0.5592
H   -1.6862   1.3802   1.2197
H   2.8719   0.1423   1.6647
H   1.3774   1.1577   -1.6179
H   2.7350   -1.4165   0.8219
H   1.5864   -0.9970   2.1065
H   2.8171   1.3080   -0.5931
H   2.5423   -0.1919   -1.5051
22
Frame 69: 69
C   -0.8862   -0.9854   0.3769
C   1.2797   0.0397   0.2228
C   -0.9808   1.5514   0.4509
C   2.1906   -0.6032   1.2688
C   2.0670   0.6113   -0.9521
N   0.2744   -0.9593   -0.2896
N   -2.0470   -1.3630   -0.2175
O   -1.2972   1.3650   -0.8776
H   -1.8400   0.5647   -0.9205
H   0.0738   -0.7549   -1.2759
H   -0.9090   -0.6565   1.4157
H   0.6311   0.8390   0.6533
H   -2.7738   -1.6526   0.4362
H   -1.9147   -2.0739   -0.9445
H   -0.4970   2.4941   0.5880
H   -1.7900   1.3754   1.1907
H   2.9007   0.1295   1.6663
H   1.3856   1.1564   -1.6145
H   2.7541   -1.4270   0.8201
H   1.6069   -1.0029   2.1038
H   2.8377   1.3077   -0.6062
H   2.5539   -0.1919   -1.5164
22
Frame 70: 70
C   -0.9041   -0.9848   0.3698
C   1.2988   0.0305   0.2183
C   -0.9546   1.5704   0.4456
C   2.1649   -0.5933   1.2726
C   2.0502   0.6114   -0.9454
N   0.2715   -0.9760   -0.3035
N   -2.0496   -1.3894   -0.2263
O   -1.2636   1.3588   -0.8696
H   -1.8124   0.5608   -0.8791
H   0.0635   -0.7583   -1.2866
H   -0.9080   -0.7001   1.4065
H   0.6019   0.8435   0.6507
H   -2.7719   -1.6806   0.4316
H   -1.9352   -2.0870   -0.9695
H   -0.4727   2.5682   0.5551
H   -1.6886   1.3812   1.2152
H   2.8701   0.1456   1.6676
H   1.3786   1.1558   -1.6177
H   2.7351   -1.4144   0.8267
H   1.5850   -0.9939   2.1097
H   2.8171   1.3081   -0.5916
H   2.5440   -0.1930   -1.5019
22
Frame 71: 71
C   -0.8863   -0.9855   0.3767
C   1.2794   0.0402   0.2243
C   -0.9820   1.5514   0.4472
C   2.1897   -0.6009   1.2721
C   2.0677   0.6106   -0.9505
N   0.2753   -0.9601   -0.2879
N   -2.0461   -1.3641   -0.2190
O   -1.2963   1.3633   -0.8815
H   -1.8385   0.5626   -0.9244
H   0.0763   -0.7577   -1.2749
H   -0.9109   -0.6550   1.4150
H   0.6299   0.8396   0.6530
H   -2.7740   -1.6527   0.4339
H   -1.9125   -2.0761   -0.9447
H   -0.4983   2.4941   0.5840
H   -1.7924   1.3763   1.1859
H   2.8990   0.1329   1.6693
H   1.3868   1.1545   -1.6143
H   2.7542   -1.4248   0.8250
H   1.6055   -0.9998   2.1071
H   2.8378   1.3079   -0.6047
H   2.5557   -0.1930   -1.5132
22
Frame 72: 72
C   -0.9042   -0.9850   0.3696
C   1.2985   0.0311   0.2198
C   -0.9557   1.5703   0.4421
C   2.1639   -0.5909   1.2758
C   2.0510   0.6108   -0.9438
N   0.2724   -0.9767   -0.3018
N   -2.0487   -1.3906   -0.2277
O   -1.2628   1.3570   -0.8734
H   -1.8109   0.5587   -0.8829
H   0.0659   -0.7609   -1.2856
H   -0.9098   -0.6987   1.4060
H   0.6007   0.8443   0.6503
H   -2.7720   -1.6808   0.4295
H   -1.9329   -2.0893   -0.9697
H   -0.4740   2.5681   0.5510
H   -1.6912   1.3822   1.2106
H   2.8684   0.1489   1.6706
H   1.3799   1.1540   -1.6176
H   2.7350   -1.4122   0.8316
H   1.5834   -0.9908   2.1129
H   2.8172   1.3083   -0.5901
H   2.5458   -0.1941   -1.4987
22
Frame 73: 73
C   -0.8864   -0.9856   0.3766
C   1.2791   0.0408   0.2257
C   -0.9832   1.5512   0.4436
C   2.1887   -0.5984   1.2754
C   2.0686   0.6100   -0.9489
N   0.2762   -0.9608   -0.2862
N   -2.0452   -1.3653   -0.2205
O   -1.2955   1.3615   -0.8853
H   -1.8370   0.5603   -0.9282
H   0.0787   -0.7604   -1.2740
H   -0.9127   -0.6536   1.4143
H   0.6287   0.8404   0.6525
H   -2.7742   -1.6529   0.4318
H   -1.9102   -2.0784   -0.9448
H   -0.4997   2.4940   0.5800
H   -1.7949   1.3772   1.1813
H   2.8972   0.1362   1.6724
H   1.3881   1.1527   -1.6142
H   2.7542   -1.4227   0.8299
H   1.6039   -0.9966   2.1103
H   2.8379   1.3081   -0.6031
H   2.5575   -0.1942   -1.5100
