22
Frame 1: 1
C   -0.7781   -1.0676   0.3211
C   1.3026   0.0521   -0.0283
C   -0.9720   1.4562   0.8237
C   1.9812   -0.4184   1.2502
C   2.2640   0.4352   -1.1331
N   0.2912   -0.8768   -0.5004
N   -2.0192   -1.3720   -0.2331
O   -1.6647   1.6302   -0.4018
H   -2.2586   0.8701   -0.4759
H   0.0278   -0.6783   -1.4585
H   -0.6098   -1.3679   1.3412
H   0.6813   0.9183   0.2869
H   -2.5733   -2.0574   0.2574
H   -2.0524   -1.5045   -1.2338
H   -0.3690   2.3514   0.9917
H   -1.6396   1.2942   1.6747
H   2.7644   0.2915   1.5228
H   1.7251   0.7307   -2.0378
H   2.4356   -1.4061   1.1342
H   1.2730   -0.4472   2.0806
H   2.8503   1.2987   -0.8143
H   2.9600   -0.3688   -1.3889
22
Frame 2: 2
C   -0.7848   -1.0822   0.2918
C   1.3082   0.0717   -0.0114
C   -0.9812   1.4563   0.8003
C   1.9868   -0.4187   1.2499
C   2.2643   0.4370   -1.1332
N   0.2696   -0.9046   -0.4937
N   -2.0023   -1.3544   -0.2178
O   -1.6552   1.6267   -0.3902
H   -2.2513   0.8692   -0.4708
H   0.0210   -0.6743   -1.4692
H   -0.6104   -1.3541   1.3502
H   0.6843   0.9283   0.2922
H   -2.5799   -2.0637   0.2655
H   -2.0514   -1.5073   -1.2505
H   -0.3702   2.3519   0.9909
H   -1.6350   1.2843   1.6801
H   2.7666   0.2922   1.5238
H   1.7249   0.7306   -2.0393
H   2.4361   -1.4066   1.1333
H   1.2697   -0.4470   2.0786
H   2.8521   1.2993   -0.8142
H   2.9578   -0.3709   -1.3875
22
Frame 3: 3
C   -0.7857   -1.1068   0.2857
C   1.3038   0.0782   -0.0009
C   -0.9863   1.4606   0.7932
C   1.9907   -0.4173   1.2533
C   2.2630   0.4393   -1.1314
N   0.2704   -0.9183   -0.5033
N   -2.0130   -1.3521   -0.2207
O   -1.6509   1.6250   -0.3894
H   -2.2426   0.8677   -0.4651
H   0.0142   -0.6720   -1.4709
H   -0.6132   -1.3324   1.3487
H   0.6863   0.9418   0.2992
H   -2.5787   -2.0605   0.2706
H   -2.0483   -1.5070   -1.2516
H   -0.3731   2.3495   0.9879
H   -1.6259   1.2719   1.6814
H   2.7702   0.2932   1.5259
H   1.7245   0.7305   -2.0406
H   2.4371   -1.4078   1.1313
H   1.2676   -0.4468   2.0751
H   2.8551   1.3004   -0.8147
H   2.9544   -0.3734   -1.3851
22
Frame 4: 4
C   -0.7842   -1.1938   0.2501
C   1.2873   0.0904   0.0170
C   -0.9969   1.4732   0.7886
C   1.9990   -0.4139   1.2643
C   2.2550   0.4464   -1.1200
N   0.2774   -0.9550   -0.5177
N   -2.0456   -1.3404   -0.2294
O   -1.6409   1.6281   -0.4016
H   -2.2160   0.8541   -0.4461
H   -0.0121   -0.6618   -1.4780
H   -0.6242   -1.2533   1.3433
H   0.6932   0.9847   0.3242
H   -2.5766   -2.0503   0.2883
H   -2.0390   -1.5080   -1.2535
H   -0.3822   2.3451   0.9763
H   -1.5914   1.2242   1.6828
H   2.7852   0.2973   1.5354
H   1.7234   0.7299   -2.0427
H   2.4399   -1.4096   1.1238
H   1.2618   -0.4465   2.0659
H   2.8664   1.3044   -0.8178
H   2.9388   -0.3810   -1.3741
22
Frame 5: 5
C   -0.7821   -1.2209   0.2437
C   1.2836   0.0904   0.0164
C   -0.9962   1.4793   0.7893
C   2.0001   -0.4122   1.2635
C   2.2514   0.4476   -1.1169
N   0.2814   -0.9559   -0.5251
N   -2.0492   -1.3361   -0.2313
O   -1.6428   1.6287   -0.4088
H   -2.2062   0.8480   -0.4407
H   -0.0198   -0.6597   -1.4723
H   -0.6303   -1.2254   1.3328
H   0.6950   0.9890   0.3307
H   -2.5774   -2.0470   0.2922
H   -2.0393   -1.5112   -1.2529
H   -0.3834   2.3504   0.9741
H   -1.5797   1.2044   1.6832
H   2.7891   0.2974   1.5395
H   1.7237   0.7294   -2.0401
H   2.4401   -1.4076   1.1212
H   1.2604   -0.4469   2.0673
H   2.8697   1.3046   -0.8193
H   2.9296   -0.3818   -1.3676
22
Frame 6: 6
C   -0.7711   -1.2480   0.2341
C   1.2812   0.0882   0.0108
C   -0.9933   1.4898   0.7868
C   1.9977   -0.4094   1.2611
C   2.2468   0.4504   -1.1128
N   0.2846   -0.9511   -0.5267
N   -2.0495   -1.3355   -0.2326
O   -1.6466   1.6304   -0.4150
H   -2.1932   0.8356   -0.4351
H   -0.0309   -0.6552   -1.4630
H   -0.6404   -1.1883   1.3135
H   0.6953   0.9833   0.3366
H   -2.5786   -2.0399   0.2937
H   -2.0435   -1.5190   -1.2504
H   -0.3837   2.3662   0.9735
H   -1.5619   1.1735   1.6824
H   2.7920   0.2953   1.5452
H   1.7237   0.7291   -2.0344
H   2.4399   -1.4027   1.1174
H   1.2617   -0.4480   2.0717
H   2.8726   1.3028   -0.8216
H   2.9141   -0.3830   -1.3560
22
Frame 7: 7
C   -0.7650   -1.2546   0.2270
C   1.2819   0.0861   0.0077
C   -0.9896   1.5006   0.7847
C   1.9947   -0.4076   1.2590
C   2.2438   0.4524   -1.1103
N   0.2884   -0.9442   -0.5263
N   -2.0399   -1.3379   -0.2334
O   -1.6512   1.6300   -0.4150
H   -2.1835   0.8246   -0.4335
H   -0.0393   -0.6504   -1.4560
H   -0.6480   -1.1646   1.3002
H   0.6925   0.9702   0.3374
H   -2.5808   -2.0346   0.2930
H   -2.0507   -1.5282   -1.2480
H   -0.3843   2.3838   0.9753
H   -1.5454   1.1493   1.6773
H   2.7908   0.2918   1.5484
H   1.7224   0.7299   -2.0298
H   2.4390   -1.3976   1.1146
H   1.2652   -0.4492   2.0764
H   2.8737   1.3004   -0.8228
H   2.9019   -0.3853   -1.3464
22
Frame 8: 8
C   -0.7565   -1.2507   0.2177
C   1.2837   0.0847   0.0082
C   -0.9859   1.5155   0.7821
C   1.9918   -0.4066   1.2587
C   2.2404   0.4545   -1.1072
N   0.2929   -0.9411   -0.5266
N   -2.0294   -1.3460   -0.2359
O   -1.6563   1.6289   -0.4104
H   -2.1710   0.8096   -0.4331
H   -0.0498   -0.6416   -1.4507
H   -0.6562   -1.1383   1.2898
H   0.6866   0.9541   0.3368
H   -2.5832   -2.0267   0.2920
H   -2.0615   -1.5419   -1.2473
H   -0.3878   2.4084   0.9785
H   -1.5205   1.1191   1.6670
H   2.7875   0.2872   1.5515
H   1.7189   0.7320   -2.0259
H   2.4378   -1.3918   1.1108
H   1.2707   -0.4512   2.0818
H   2.8749   1.2979   -0.8230
H   2.8883   -0.3910   -1.3350
22
Frame 9: 9
C   -0.7520   -1.2350   0.2122
C   1.2857   0.0832   0.0117
C   -0.9829   1.5328   0.7798
C   1.9896   -0.4071   1.2610
C   2.2377   0.4559   -1.1040
N   0.3006   -0.9426   -0.5326
N   -2.0173   -1.3576   -0.2422
O   -1.6622   1.6270   -0.4023
H   -2.1559   0.7924   -0.4341
H   -0.0604   -0.6290   -1.4479
H   -0.6636   -1.1129   1.2839
H   0.6788   0.9397   0.3353
H   -2.5867   -2.0187   0.2931
H   -2.0751   -1.5596   -1.2494
H   -0.3963   2.4378   0.9830
H   -1.4883   1.0866   1.6527
H   2.7833   0.2834   1.5540
H   1.7134   0.7352   -2.0227
H   2.4370   -1.3876   1.1063
H   1.2770   -0.4542   2.0878
H   2.8764   1.2957   -0.8218
H   2.8754   -0.3999   -1.3240
22
Frame 10: 10
C   -0.7491   -1.2137   0.2065
C   1.2853   0.0818   0.0173
C   -0.9809   1.5524   0.7781
C   1.9895   -0.4093   1.2655
C   2.2356   0.4564   -1.1006
N   0.3081   -0.9530   -0.5434
N   -2.0097   -1.3732   -0.2518
O   -1.6697   1.6247   -0.3937
H   -2.1353   0.7731   -0.4344
H   -0.0711   -0.6111   -1.4478
H   -0.6703   -1.0830   1.2831
H   0.6714   0.9327   0.3349
H   -2.5900   -2.0087   0.2980
H   -2.0896   -1.5816   -1.2564
H   -0.4131   2.4710   0.9880
H   -1.4471   1.0502   1.6372
H   2.7806   0.2818   1.5569
H   1.7064   0.7390   -2.0193
H   2.4372   -1.3870   1.1010
H   1.2820   -0.4587   2.0942
H   2.8791   1.2939   -0.8191
H   2.8628   -0.4115   -1.3137
22
Frame 11: 11
C   -0.7546   -1.1921   0.2110
C   1.2837   0.0789   0.0183
C   -0.9800   1.5593   0.7791
C   1.9905   -0.4127   1.2682
C   2.2364   0.4545   -1.0997
N   0.3102   -0.9593   -0.5523
N   -2.0067   -1.3839   -0.2601
O   -1.6748   1.6247   -0.3890
H   -2.1242   0.7642   -0.4360
H   -0.0706   -0.5998   -1.4495
H   -0.6705   -1.0757   1.2875
H   0.6696   0.9346   0.3327
H   -2.5920   -2.0042   0.3032
H   -2.0964   -1.5951   -1.2629
H   -0.4302   2.4881   0.9917
H   -1.4247   1.0389   1.6305
H   2.7801   0.2838   1.5574
H   1.7027   0.7408   -2.0171
H   2.4386   -1.3912   1.0991
H   1.2831   -0.4626   2.0979
H   2.8803   1.2928   -0.8159
H   2.8607   -0.4176   -1.3130
22
Frame 12: 12
C   -0.7614   -1.1839   0.2084
C   1.2793   0.0766   0.0185
C   -0.9787   1.5655   0.7778
C   1.9928   -0.4162   1.2702
C   2.2371   0.4519   -1.0984
N   0.3071   -0.9663   -0.5587
N   -2.0096   -1.3922   -0.2674
O   -1.6798   1.6253   -0.3872
H   -2.1097   0.7564   -0.4351
H   -0.0683   -0.5880   -1.4519
H   -0.6703   -1.0623   1.2926
H   0.6726   0.9448   0.3321
H   -2.5934   -1.9985   0.3113
H   -2.0992   -1.6088   -1.2708
H   -0.4537   2.5023   0.9943
H   -1.4026   1.0283   1.6304
H   2.7822   0.2873   1.5581
H   1.7007   0.7415   -2.0137
H   2.4413   -1.3980   1.0978
H   1.2820   -0.4676   2.1001
H   2.8824   1.2912   -0.8126
H   2.8596   -0.4224   -1.3147
22
Frame 13: 13
C   -0.7706   -1.1756   0.2109
C   1.2763   0.0731   0.0158
C   -0.9752   1.5660   0.7772
C   1.9944   -0.4208   1.2697
C   2.2389   0.4472   -1.0978
N   0.2996   -0.9637   -0.5605
N   -2.0137   -1.3996   -0.2737
O   -1.6863   1.6269   -0.3866
H   -2.0967   0.7503   -0.4353
H   -0.0598   -0.5779   -1.4538
H   -0.6689   -1.0568   1.2938
H   0.6790   0.9555   0.3285
H   -2.5950   -1.9934   0.3194
H   -2.0991   -1.6232   -1.2775
H   -0.4824   2.5161   0.9979
H   -1.3860   1.0277   1.6354
H   2.7833   0.2904   1.5570
H   1.7010   0.7411   -2.0092
H   2.4444   -1.4058   1.0986
H   1.2807   -0.4740   2.1013
H   2.8834   1.2876   -0.8085
H   2.8625   -0.4242   -1.3213
22
Frame 14: 14
C   -0.7826   -1.1709   0.2080
C   1.2737   0.0693   0.0135
C   -0.9669   1.5714   0.7740
C   1.9952   -0.4273   1.2682
C   2.2406   0.4403   -1.0956
N   0.2894   -0.9527   -0.5598
N   -2.0177   -1.4100   -0.2828
O   -1.6972   1.6277   -0.3836
H   -2.0719   0.7357   -0.4350
H   -0.0499   -0.5607   -1.4555
H   -0.6712   -1.0383   1.2886
H   0.6891   0.9676   0.3226
H   -2.5993   -1.9834   0.3316
H   -2.0997   -1.6506   -1.2846
H   -0.5304   2.5460   1.0047
H   -1.3549   1.0193   1.6428
H   2.7823   0.2914   1.5553
H   1.7017   0.7407   -2.0013
H   2.4488   -1.4144   1.0997
H   1.2814   -0.4853   2.1022
H   2.8849   1.2793   -0.8023
H   2.8634   -0.4276   -1.3295
22
Frame 15: 15
C   -0.7919   -1.1658   0.2046
C   1.2750   0.0679   0.0128
C   -0.9563   1.5770   0.7734
C   1.9946   -0.4340   1.2654
C   2.2429   0.4326   -1.0942
N   0.2787   -0.9330   -0.5550
N   -2.0219   -1.4193   -0.2887
O   -1.7076   1.6239   -0.3769
H   -2.0494   0.7221   -0.4370
H   -0.0387   -0.5461   -1.4577
H   -0.6760   -1.0260   1.2800
H   0.6986   0.9754   0.3149
H   -2.6045   -1.9733   0.3402
H   -2.0986   -1.6794   -1.2868
H   -0.5797   2.5767   1.0129
H   -1.3279   1.0189   1.6490
H   2.7777   0.2883   1.5515
H   1.7037   0.7404   -1.9945
H   2.4525   -1.4199   1.1023
H   1.2840   -0.4975   2.1014
H   2.8857   1.2687   -0.7958
H   2.8665   -0.4296   -1.3400
22
Frame 16: 16
C   -0.7973   -1.1642   0.1977
C   1.2785   0.0697   0.0151
C   -0.9464   1.5889   0.7738
C   1.9928   -0.4392   1.2634
C   2.2447   0.4268   -1.0930
N   0.2729   -0.9129   -0.5517
N   -2.0234   -1.4257   -0.2932
O   -1.7131   1.6173   -0.3655
H   -2.0297   0.7050   -0.4400
H   -0.0325   -0.5336   -1.4606
H   -0.6853   -1.0125   1.2700
H   0.7040   0.9793   0.3096
H   -2.6112   -1.9642   0.3454
H   -2.0981   -1.7081   -1.2834
H   -0.6230   2.6064   1.0209
H   -1.3016   1.0174   1.6504
H   2.7714   0.2817   1.5482
H   1.7053   0.7410   -1.9902
H   2.4551   -1.4211   1.1036
H   1.2882   -0.5088   2.0997
H   2.8873   1.2580   -0.7902
H   2.8678   -0.4327   -1.3478
22
Frame 17: 17
C   -0.7975   -1.1642   0.1927
C   1.2823   0.0745   0.0180
C   -0.9402   1.5983   0.7778
C   1.9908   -0.4424   1.2618
C   2.2471   0.4234   -1.0938
N   0.2699   -0.8974   -0.5496
N   -2.0261   -1.4265   -0.2929
O   -1.7129   1.6062   -0.3545
H   -2.0206   0.6955   -0.4437
H   -0.0284   -0.5290   -1.4657
H   -0.6952   -1.0118   1.2640
H   0.7063   0.9826   0.3081
H   -2.6168   -1.9596   0.3445
H   -2.0950   -1.7276   -1.2758
H   -0.6499   2.6230   1.0266
H   -1.2899   1.0273   1.6502
H   2.7660   0.2746   1.5454
H   1.7077   0.7419   -1.9905
H   2.4564   -1.4196   1.1044
H   1.2908   -0.5166   2.0969
H   2.8898   1.2502   -0.7866
H   2.8713   -0.4344   -1.3550
22
Frame 18: 18
C   -0.7971   -1.1620   0.1872
C   1.2831   0.0788   0.0202
C   -0.9361   1.6119   0.7810
C   1.9891   -0.4450   1.2615
C   2.2487   0.4218   -1.0940
N   0.2698   -0.8906   -0.5547
N   -2.0268   -1.4289   -0.2963
O   -1.7119   1.5981   -0.3442
H   -2.0076   0.6783   -0.4460
H   -0.0292   -0.5211   -1.4710
H   -0.7075   -1.0021   1.2598
H   0.7068   0.9874   0.3104
H   -2.6233   -1.9537   0.3453
H   -2.0954   -1.7512   -1.2702
H   -0.6759   2.6470   1.0324
H   -1.2690   1.0257   1.6483
H   2.7633   0.2691   1.5457
H   1.7085   0.7441   -1.9906
H   2.4579   -1.4189   1.1018
H   1.2921   -0.5245   2.0968
H   2.8952   1.2441   -0.7833
H   2.8701   -0.4393   -1.3575
22
Frame 19: 19
C   -0.7957   -1.1637   0.1854
C   1.2823   0.0844   0.0196
C   -0.9353   1.6204   0.7865
C   1.9873   -0.4457   1.2610
C   2.2513   0.4227   -1.0963
N   0.2702   -0.8892   -0.5599
N   -2.0297   -1.4250   -0.2956
O   -1.7068   1.5871   -0.3390
H   -2.0041   0.6707   -0.4473
H   -0.0304   -0.5211   -1.4782
H   -0.7181   -1.0062   1.2600
H   0.7074   0.9949   0.3165
H   -2.6280   -1.9524   0.3417
H   -2.0916   -1.7656   -1.2625
H   -0.6872   2.6563   1.0353
H   -1.2644   1.0373   1.6512
H   2.7638   0.2655   1.5475
H   1.7115   0.7462   -1.9943
H   2.4586   -1.4182   1.0981
H   1.2898   -0.5290   2.0956
H   2.9022   1.2412   -0.7824
H   2.8713   -0.4416   -1.3602
22
Frame 20: 20
C   -0.7962   -1.1616   0.1849
C   1.2798   0.0880   0.0169
C   -0.9339   1.6284   0.7908
C   1.9861   -0.4466   1.2599
C   2.2539   0.4238   -1.0981
N   0.2686   -0.8897   -0.5660
N   -2.0329   -1.4237   -0.2983
O   -1.7037   1.5788   -0.3370
H   -1.9963   0.6595   -0.4467
H   -0.0317   -0.5187   -1.4843
H   -0.7278   -1.0073   1.2603
H   0.7094   1.0030   0.3225
H   -2.6323   -1.9492   0.3403
H   -2.0888   -1.7846   -1.2580
H   -0.7029   2.6721   1.0384
H   -1.2547   1.0446   1.6581
H   2.7656   0.2634   1.5510
H   1.7150   0.7491   -1.9965
H   2.4595   -1.4193   1.0923
H   1.2863   -0.5346   2.0956
H   2.9109   1.2384   -0.7818
H   2.8700   -0.4445   -1.3615
22
Frame 21: 21
C   -0.7980   -1.1629   0.1857
C   1.2774   0.0908   0.0135
C   -0.9340   1.6313   0.7938
C   1.9851   -0.4458   1.2585
C   2.2559   0.4268   -1.0999
N   0.2665   -0.8915   -0.5687
N   -2.0358   -1.4199   -0.3003
O   -1.6987   1.5737   -0.3401
H   -1.9942   0.6543   -0.4438
H   -0.0338   -0.5219   -1.4877
H   -0.7327   -1.0141   1.2621
H   0.7109   1.0084   0.3283
H   -2.6338   -1.9486   0.3377
H   -2.0841   -1.7953   -1.2545
H   -0.7066   2.6767   1.0377
H   -1.2559   1.0556   1.6696
H   2.7682   0.2625   1.5553
H   1.7203   0.7520   -1.9997
H   2.4587   -1.4194   1.0859
H   1.2818   -0.5369   2.0941
H   2.9191   1.2379   -0.7838
H   2.8679   -0.4447   -1.3610
22
Frame 22: 22
C   -0.8009   -1.1612   0.1865
C   1.2761   0.0932   0.0107
C   -0.9334   1.6336   0.7970
C   1.9841   -0.4452   1.2564
C   2.2574   0.4299   -1.1009
N   0.2630   -0.8905   -0.5684
N   -2.0385   -1.4180   -0.3041
O   -1.6936   1.5687   -0.3433
H   -1.9901   0.6483   -0.4392
H   -0.0363   -0.5250   -1.4893
H   -0.7360   -1.0209   1.2633
H   0.7118   1.0108   0.3320
H   -2.6348   -1.9466   0.3356
H   -2.0794   -1.8091   -1.2529
H   -0.7118   2.6838   1.0358
H   -1.2558   1.0667   1.6829
H   2.7690   0.2609   1.5601
H   1.7270   0.7562   -2.0026
H   2.4568   -1.4189   1.0780
H   1.2779   -0.5397   2.0913
H   2.9279   1.2368   -0.7867
H   2.8640   -0.4448   -1.3595
22
Frame 23: 23
C   -0.8051   -1.1601   0.1868
C   1.2753   0.0968   0.0093
C   -0.9331   1.6360   0.8011
C   1.9826   -0.4441   1.2536
C   2.2583   0.4346   -1.1012
N   0.2594   -0.8872   -0.5651
N   -2.0410   -1.4163   -0.3101
O   -1.6853   1.5631   -0.3466
H   -1.9856   0.6424   -0.4315
H   -0.0410   -0.5310   -1.4887
H   -0.7380   -1.0294   1.2648
H   0.7107   1.0103   0.3353
H   -2.6349   -1.9441   0.3330
H   -2.0730   -1.8253   -1.2522
H   -0.7135   2.6894   1.0303
H   -1.2583   1.0809   1.6991
H   2.7683   0.2581   1.5663
H   1.7362   0.7628   -2.0066
H   2.4527   -1.4167   1.0668
H   1.2738   -0.5420   2.0858
H   2.9387   1.2357   -0.7915
H   2.8571   -0.4449   -1.3558
22
Frame 24: 24
C   -0.8091   -1.1579   0.1864
C   1.2752   0.1006   0.0101
C   -0.9324   1.6396   0.8055
C   1.9811   -0.4437   1.2510
C   2.2584   0.4382   -1.1005
N   0.2564   -0.8814   -0.5606
N   -2.0424   -1.4177   -0.3173
O   -1.6778   1.5571   -0.3457
H   -1.9787   0.6360   -0.4235
H   -0.0455   -0.5345   -1.4867
H   -0.7394   -1.0333   1.2650
H   0.7084   1.0086   0.3360
H   -2.6351   -1.9399   0.3317
H   -2.0676   -1.8433   -1.2532
H   -0.7174   2.6969   1.0240
H   -1.2567   1.0919   1.7101
H   2.7652   0.2546   1.5712
H   1.7444   0.7698   -2.0093
H   2.4484   -1.4145   1.0562
H   1.2715   -0.5451   2.0798
H   2.9475   1.2335   -0.7953
H   2.8497   -0.4463   -1.3520
22
Frame 25: 25
C   -0.8113   -1.1578   0.1858
C   1.2750   0.1042   0.0120
C   -0.9322   1.6433   0.8093
C   1.9800   -0.4438   1.2490
C   2.2578   0.4402   -1.0994
N   0.2552   -0.8763   -0.5569
N   -2.0424   -1.4207   -0.3234
O   -1.6719   1.5527   -0.3418
H   -1.9733   0.6317   -0.4166
H   -0.0489   -0.5361   -1.4839
H   -0.7399   -1.0327   1.2649
H   0.7057   1.0080   0.3355
H   -2.6351   -1.9360   0.3312
H   -2.0636   -1.8564   -1.2548
H   -0.7187   2.7012   1.0174
H   -1.2547   1.0982   1.7142
H   2.7617   0.2519   1.5741
H   1.7494   0.7756   -2.0105
H   2.4450   -1.4131   1.0483
H   1.2703   -0.5476   2.0747
H   2.9525   1.2314   -0.7974
H   2.8435   -0.4485   -1.3489
22
Frame 26: 26
C   -0.8122   -1.1582   0.1856
C   1.2742   0.1072   0.0135
C   -0.9317   1.6474   0.8123
C   1.9788   -0.4446   1.2474
C   2.2574   0.4403   -1.0986
N   0.2546   -0.8725   -0.5552
N   -2.0413   -1.4249   -0.3280
O   -1.6691   1.5489   -0.3363
H   -1.9677   0.6276   -0.4114
H   -0.0503   -0.5346   -1.4822
H   -0.7414   -1.0289   1.2643
H   0.7045   1.0106   0.3346
H   -2.6359   -1.9319   0.3312
H   -2.0607   -1.8682   -1.2564
H   -0.7222   2.7065   1.0127
H   -1.2503   1.1013   1.7144
H   2.7586   0.2501   1.5753
H   1.7517   0.7800   -2.0100
H   2.4432   -1.4132   1.0429
H   1.2693   -0.5510   2.0715
H   2.9550   1.2288   -0.7970
H   2.8392   -0.4514   -1.3476
22
Frame 27: 27
C   -0.8117   -1.1599   0.1862
C   1.2726   0.1103   0.0141
C   -0.9312   1.6509   0.8148
C   1.9774   -0.4455   1.2457
C   2.2567   0.4400   -1.0981
N   0.2545   -0.8701   -0.5543
N   -2.0388   -1.4299   -0.3321
O   -1.6676   1.5462   -0.3312
H   -1.9639   0.6245   -0.4054
H   -0.0510   -0.5323   -1.4805
H   -0.7430   -1.0243   1.2644
H   0.7045   1.0153   0.3338
H   -2.6368   -1.9281   0.3306
H   -2.0571   -1.8783   -1.2577
H   -0.7222   2.7097   1.0073
H   -1.2481   1.1045   1.7141
H   2.7559   0.2492   1.5760
H   1.7528   0.7843   -2.0088
H   2.4415   -1.4140   1.0377
H   1.2674   -0.5545   2.0686
H   2.9562   1.2262   -0.7954
H   2.8352   -0.4547   -1.3468
22
Frame 28: 28
C   -0.8106   -1.1619   0.1876
C   1.2701   0.1145   0.0137
C   -0.9297   1.6555   0.8177
C   1.9747   -0.4469   1.2430
C   2.2562   0.4391   -1.0979
N   0.2543   -0.8665   -0.5538
N   -2.0340   -1.4376   -0.3369
O   -1.6674   1.5422   -0.3253
H   -1.9587   0.6191   -0.3961
H   -0.0509   -0.5278   -1.4789
H   -0.7464   -1.0182   1.2648
H   0.7064   1.0241   0.3328
H   -2.6388   -1.9223   0.3286
H   -2.0507   -1.8948   -1.2589
H   -0.7225   2.7160   1.0003
H   -1.2455   1.1110   1.7160
H   2.7521   0.2481   1.5767
H   1.7538   0.7905   -2.0066
H   2.4392   -1.4155   1.0300
H   1.2637   -0.5610   2.0648
H   2.9581   1.2216   -0.7917
H   2.8297   -0.4595   -1.3469
22
Frame 29: 29
C   -0.8076   -1.1639   0.1903
C   1.2675   0.1192   0.0123
C   -0.9278   1.6592   0.8199
C   1.9710   -0.4481   1.2397
C   2.2555   0.4384   -1.0981
N   0.2546   -0.8632   -0.5529
N   -2.0262   -1.4471   -0.3420
O   -1.6686   1.5387   -0.3208
H   -1.9567   0.6145   -0.3834
H   -0.0507   -0.5233   -1.4771
H   -0.7501   -1.0136   1.2667
H   0.7098   1.0344   0.3315
H   -2.6414   -1.9168   0.3242
H   -2.0410   -1.9121   -1.2588
H   -0.7156   2.7198   0.9909
H   -1.2479   1.1219   1.7212
H   2.7476   0.2471   1.5774
H   1.7545   0.7981   -2.0040
H   2.4354   -1.4165   1.0202
H   1.2579   -0.5686   2.0599
H   2.9598   1.2162   -0.7866
H   2.8228   -0.4646   -1.3473
22
Frame 30: 30
C   -0.8052   -1.1637   0.1923
C   1.2659   0.1236   0.0107
C   -0.9251   1.6629   0.8211
C   1.9667   -0.4492   1.2366
C   2.2553   0.4381   -1.0986
N   0.2548   -0.8588   -0.5526
N   -2.0179   -1.4564   -0.3458
O   -1.6711   1.5344   -0.3179
H   -1.9552   0.6082   -0.3705
H   -0.0504   -0.5182   -1.4766
H   -0.7552   -1.0106   1.2690
H   0.7139   1.0435   0.3304
H   -2.6449   -1.9114   0.3187
H   -2.0296   -1.9328   -1.2576
H   -0.7094   2.7261   0.9830
H   -1.2499   1.1361   1.7300
H   2.7428   0.2451   1.5783
H   1.7555   0.8059   -2.0018
H   2.4312   -1.4164   1.0097
H   1.2515   -0.5773   2.0547
H   2.9632   1.2099   -0.7809
H   2.8157   -0.4691   -1.3491
22
Frame 31: 31
C   -0.8024   -1.1622   0.1939
C   1.2662   0.1255   0.0099
C   -0.9239   1.6631   0.8198
C   1.9637   -0.4491   1.2353
C   2.2550   0.4387   -1.0989
N   0.2557   -0.8568   -0.5521
N   -2.0112   -1.4628   -0.3474
O   -1.6745   1.5333   -0.3185
H   -1.9594   0.6064   -0.3613
H   -0.0507   -0.5155   -1.4762
H   -0.7572   -1.0104   1.2716
H   0.7160   1.0460   0.3294
H   -2.6472   -1.9101   0.3137
H   -2.0202   -1.9426   -1.2556
H   -0.6970   2.7255   0.9774
H   -1.2553   1.1478   1.7369
H   2.7397   0.2437   1.5790
H   1.7552   0.8105   -2.0004
H   2.4274   -1.4147   1.0032
H   1.2469   -0.5822   2.0513
H   2.9650   1.2061   -0.7767
H   2.8107   -0.4705   -1.3509
22
Frame 32: 32
C   -0.8021   -1.1597   0.1936
C   1.2673   0.1265   0.0102
C   -0.9227   1.6644   0.8185
C   1.9616   -0.4494   1.2350
C   2.2551   0.4395   -1.0985
N   0.2558   -0.8538   -0.5526
N   -2.0077   -1.4676   -0.3484
O   -1.6780   1.5313   -0.3186
H   -1.9613   0.6032   -0.3550
H   -0.0514   -0.5117   -1.4770
H   -0.7596   -1.0080   1.2723
H   0.7169   1.0459   0.3289
H   -2.6497   -1.9091   0.3109
H   -2.0122   -1.9539   -1.2543
H   -0.6918   2.7280   0.9747
H   -1.2543   1.1570   1.7424
H   2.7374   0.2417   1.5803
H   1.7551   0.8136   -1.9992
H   2.4249   -1.4127   0.9986
H   1.2439   -0.5868   2.0487
H   2.9683   1.2024   -0.7733
H   2.8067   -0.4710   -1.3537
22
Frame 33: 33
C   -0.8019   -1.1569   0.1930
C   1.2686   0.1262   0.0110
C   -0.9225   1.6654   0.8161
C   1.9599   -0.4494   1.2355
C   2.2551   0.4406   -1.0974
N   0.2559   -0.8516   -0.5536
N   -2.0048   -1.4729   -0.3498
O   -1.6828   1.5303   -0.3184
H   -1.9658   0.6016   -0.3487
H   -0.0527   -0.5069   -1.4774
H   -0.7606   -1.0032   1.2722
H   0.7162   1.0428   0.3284
H   -2.6521   -1.9096   0.3086
H   -2.0028   -1.9633   -1.2527
H   -0.6831   2.7276   0.9715
H   -1.2521   1.1658   1.7458
H   2.7355   0.2398   1.5823
H   1.7541   0.8160   -1.9973
H   2.4225   -1.4103   0.9952
H   1.2411   -0.5908   2.0465
H   2.9719   1.1989   -0.7698
H   2.8026   -0.4703   -1.3577
22
Frame 34: 34
C   -0.8033   -1.1537   0.1914
C   1.2692   0.1262   0.0122
C   -0.9221   1.6692   0.8138
C   1.9577   -0.4503   1.2361
C   2.2554   0.4420   -1.0955
N   0.2547   -0.8479   -0.5559
N   -2.0025   -1.4810   -0.3528
O   -1.6894   1.5275   -0.3152
H   -1.9698   0.5976   -0.3393
H   -0.0549   -0.4980   -1.4779
H   -0.7629   -0.9919   1.2700
H   0.7147   1.0398   0.3285
H   -2.6556   -1.9095   0.3063
H   -1.9884   -1.9820   -1.2508
H   -0.6760   2.7300   0.9659
H   -1.2433   1.1781   1.7495
H   2.7329   0.2367   1.5866
H   1.7532   0.8204   -1.9937
H   2.4201   -1.4083   0.9900
H   1.2371   -0.5977   2.0436
H   2.9788   1.1930   -0.7648
H   2.7962   -0.4701   -1.3644
22
Frame 35: 35
C   -0.8054   -1.1506   0.1897
C   1.2683   0.1259   0.0129
C   -0.9220   1.6744   0.8120
C   1.9552   -0.4522   1.2366
C   2.2558   0.4433   -1.0933
N   0.2527   -0.8444   -0.5590
N   -2.0001   -1.4911   -0.3577
O   -1.6972   1.5242   -0.3093
H   -1.9750   0.5936   -0.3279
H   -0.0576   -0.4864   -1.4778
H   -0.7654   -0.9758   1.2661
H   0.7126   1.0375   0.3290
H   -2.6587   -1.9097   0.3035
H   -1.9712   -2.0048   -1.2480
H   -0.6681   2.7329   0.9570
H   -1.2314   1.1914   1.7523
H   2.7299   0.2334   1.5925
H   1.7522   0.8267   -1.9884
H   2.4185   -1.4077   0.9845
H   1.2324   -0.6060   2.0408
H   2.9869   1.1859   -0.7592
H   2.7889   -0.4702   -1.3727
22
Frame 36: 36
C   -0.8084   -1.1482   0.1878
C   1.2662   0.1259   0.0129
C   -0.9215   1.6809   0.8116
C   1.9526   -0.4553   1.2363
C   2.2565   0.4440   -1.0915
N   0.2499   -0.8411   -0.5624
N   -1.9979   -1.5012   -0.3635
O   -1.7048   1.5204   -0.3011
H   -1.9800   0.5894   -0.3156
H   -0.0605   -0.4739   -1.4771
H   -0.7688   -0.9577   1.2608
H   0.7111   1.0378   0.3302
H   -2.6609   -1.9100   0.2997
H   -1.9534   -2.0314   -1.2440
H   -0.6627   2.7379   0.9453
H   -1.2183   1.2051   1.7560
H   2.7264   0.2298   1.5994
H   1.7522   0.8352   -1.9824
H   2.4180   -1.4092   0.9790
H   1.2275   -0.6152   2.0380
H   2.9958   1.1782   -0.7542
H   2.7816   -0.4710   -1.3815
22
Frame 37: 37
C   -0.8117   -1.1448   0.1855
C   1.2636   0.1256   0.0122
C   -0.9202   1.6883   0.8121
C   1.9498   -0.4600   1.2354
C   2.2574   0.4441   -1.0902
N   0.2467   -0.8382   -0.5662
N   -1.9951   -1.5117   -0.3706
O   -1.7137   1.5166   -0.2908
H   -1.9867   0.5856   -0.3020
H   -0.0638   -0.4601   -1.4758
H   -0.7731   -0.9374   1.2541
H   0.7104   1.0396   0.3317
H   -2.6618   -1.9116   0.2942
H   -1.9348   -2.0616   -1.2375
H   -0.6578   2.7451   0.9297
H   -1.2047   1.2197   1.7612
H   2.7215   0.2253   1.6073
H   1.7530   0.8467   -1.9754
H   2.4188   -1.4126   0.9742
H   1.2228   -0.6253   2.0356
H   3.0048   1.1695   -0.7495
H   2.7744   -0.4722   -1.3911
22
Frame 38: 38
C   -0.8164   -1.1387   0.1813
C   1.2607   0.1257   0.0111
C   -0.9171   1.6997   0.8135
C   1.9452   -0.4681   1.2335
C   2.2589   0.4443   -1.0891
N   0.2426   -0.8332   -0.5717
N   -1.9903   -1.5261   -0.3816
O   -1.7265   1.5109   -0.2751
H   -1.9984   0.5799   -0.2804
H   -0.0695   -0.4404   -1.4740
H   -0.7816   -0.9090   1.2441
H   0.7108   1.0433   0.3342
H   -2.6618   -1.9154   0.2838
H   -1.9065   -2.1099   -1.2254
H   -0.6512   2.7577   0.9034
H   -1.1869   1.2444   1.7734
H   2.7124   0.2173   1.6192
H   1.7561   0.8670   -1.9655
H   2.4204   -1.4184   0.9674
H   1.2158   -0.6411   2.0313
H   3.0184   1.1557   -0.7436
H   2.7638   -0.4744   -1.4055
22
Frame 39: 39
C   -0.8214   -1.1281   0.1748
C   1.2592   0.1251   0.0103
C   -0.9123   1.7129   0.8149
C   1.9395   -0.4797   1.2313
C   2.2608   0.4444   -1.0887
N   0.2390   -0.8268   -0.5785
N   -1.9826   -1.5440   -0.3964
O   -1.7441   1.5051   -0.2552
H   -2.0175   0.5749   -0.2523
H   -0.0772   -0.4164   -1.4717
H   -0.7935   -0.8749   1.2315
H   0.7120   1.0465   0.3368
H   -2.6601   -1.9234   0.2692
H   -1.8716   -2.1696   -1.2065
H   -0.6402   2.7729   0.8676
H   -1.1679   1.2778   1.7908
H   2.6989   0.2057   1.6332
H   1.7608   0.8950   -1.9530
H   2.4230   -1.4261   0.9613
H   1.2081   -0.6610   2.0260
H   3.0338   1.1380   -0.7368
H   2.7511   -0.4765   -1.4239
22
Frame 40: 40
C   -0.8240   -1.1208   0.1688
C   1.2608   0.1242   0.0105
C   -0.9088   1.7194   0.8152
C   1.9363   -0.4878   1.2304
C   2.2619   0.4448   -1.0896
N   0.2387   -0.8225   -0.5827
N   -1.9779   -1.5527   -0.4046
O   -1.7548   1.5036   -0.2433
H   -2.0344   0.5747   -0.2348
H   -0.0825   -0.4046   -1.4707
H   -0.8029   -0.8575   1.2233
H   0.7132   1.0464   0.3387
H   -2.6563   -1.9323   0.2587
H   -1.8510   -2.2026   -1.1907
H   -0.6311   2.7793   0.8436
H   -1.1611   1.3015   1.8033
H   2.6895   0.1973   1.6403
H   1.7654   0.9139   -1.9462
H   2.4253   -1.4311   0.9613
H   1.2047   -0.6727   2.0228
H   3.0414   1.1275   -0.7341
H   2.7446   -0.4761   -1.4351
22
Frame 41: 41
C   -0.8256   -1.1122   0.1635
C   1.2629   0.1261   0.0112
C   -0.9042   1.7280   0.8162
C   1.9325   -0.4942   1.2287
C   2.2625   0.4462   -1.0898
N   0.2384   -0.8153   -0.5853
N   -1.9723   -1.5634   -0.4149
O   -1.7621   1.4987   -0.2337
H   -2.0411   0.5689   -0.2157
H   -0.0867   -0.3947   -1.4716
H   -0.8148   -0.8447   1.2183
H   0.7148   1.0481   0.3396
H   -2.6555   -1.9355   0.2521
H   -1.8327   -2.2395   -1.1797
H   -0.6288   2.7907   0.8251
H   -1.1525   1.3263   1.8168
H   2.6806   0.1891   1.6453
H   1.7712   0.9313   -1.9416
H   2.4245   -1.4337   0.9563
H   1.2001   -0.6867   2.0173
H   3.0499   1.1169   -0.7301
H   2.7352   -0.4779   -1.4427
22
Frame 42: 42
C   -0.8241   -1.1111   0.1603
C   1.2669   0.1248   0.0125
C   -0.9042   1.7235   0.8144
C   1.9346   -0.4940   1.2301
C   2.2620   0.4471   -1.0910
N   0.2423   -0.8165   -0.5845
N   -1.9734   -1.5581   -0.4118
O   -1.7592   1.5030   -0.2382
H   -2.0432   0.5749   -0.2193
H   -0.0855   -0.4037   -1.4738
H   -0.8179   -0.8555   1.2194
H   0.7153   1.0435   0.3393
H   -2.6498   -1.9403   0.2553
H   -1.8431   -2.2216   -1.1776
H   -0.6300   2.7843   0.8297
H   -1.1610   1.3237   1.8139
H   2.6821   0.1897   1.6391
H   1.7731   0.9287   -1.9451
H   2.4257   -1.4337   0.9651
H   1.2041   -0.6832   2.0187
H   3.0429   1.1214   -0.7333
H   2.7390   -0.4748   -1.4382
22
Frame 43: 43
C   -0.8255   -1.1115   0.1591
C   1.2656   0.1262   0.0124
C   -0.9038   1.7270   0.8145
C   1.9332   -0.4947   1.2293
C   2.2622   0.4484   -1.0900
N   0.2411   -0.8142   -0.5857
N   -1.9736   -1.5616   -0.4137
O   -1.7599   1.4999   -0.2360
H   -2.0416   0.5711   -0.2123
H   -0.0863   -0.4007   -1.4749
H   -0.8220   -0.8505   1.2176
H   0.7152   1.0449   0.3407
H   -2.6501   -1.9385   0.2548
H   -1.8362   -2.2348   -1.1773
H   -0.6305   2.7881   0.8265
H   -1.1557   1.3315   1.8167
H   2.6816   0.1882   1.6413
H   1.7746   0.9323   -1.9442
H   2.4246   -1.4337   0.9610
H   1.2013   -0.6883   2.0163
H   3.0477   1.1187   -0.7311
H   2.7345   -0.4756   -1.4400
22
Frame 44: 44
C   -0.8269   -1.1086   0.1570
C   1.2636   0.1267   0.0120
C   -0.9027   1.7326   0.8135
C   1.9312   -0.4970   1.2285
C   2.2621   0.4501   -1.0880
N   0.2399   -0.8117   -0.5883
N   -1.9707   -1.5706   -0.4186
O   -1.7640   1.4969   -0.2319
H   -2.0405   0.5676   -0.1990
H   -0.0866   -0.3948   -1.4765
H   -0.8298   -0.8396   1.2131
H   0.7148   1.0456   0.3418
H   -2.6481   -1.9375   0.2559
H   -1.8277   -2.2533   -1.1764
H   -0.6295   2.7941   0.8199
H   -1.1461   1.3418   1.8176
H   2.6802   0.1861   1.6432
H   1.7761   0.9391   -1.9412
H   2.4236   -1.4356   0.9575
H   1.1977   -0.6973   2.0135
H   3.0527   1.1147   -0.7262
H   2.7267   -0.4767   -1.4423
22
Frame 45: 45
C   -0.8301   -1.1055   0.1501
C   1.2618   0.1264   0.0118
C   -0.9008   1.7409   0.8109
C   1.9290   -0.5022   1.2276
C   2.2620   0.4536   -1.0856
N   0.2387   -0.8079   -0.5932
N   -1.9676   -1.5816   -0.4246
O   -1.7701   1.4942   -0.2251
H   -2.0435   0.5652   -0.1763
H   -0.0866   -0.3890   -1.4804
H   -0.8464   -0.8237   1.2027
H   0.7145   1.0449   0.3451
H   -2.6400   -1.9411   0.2577
H   -1.8158   -2.2788   -1.1703
H   -0.6275   2.8011   0.8071
H   -1.1338   1.3614   1.8195
H   2.6781   0.1814   1.6447
H   1.7807   0.9515   -1.9368
H   2.4241   -1.4399   0.9572
H   1.1935   -0.7117   2.0093
H   3.0589   1.1095   -0.7198
H   2.7158   -0.4759   -1.4461
22
Frame 46: 46
C   -0.8326   -1.1021   0.1441
C   1.2601   0.1246   0.0115
C   -0.8992   1.7472   0.8079
C   1.9280   -0.5070   1.2269
C   2.2616   0.4563   -1.0837
N   0.2380   -0.8063   -0.5970
N   -1.9645   -1.5908   -0.4284
O   -1.7753   1.4941   -0.2203
H   -2.0465   0.5661   -0.1583
H   -0.0839   -0.3867   -1.4844
H   -0.8607   -0.8117   1.1919
H   0.7143   1.0431   0.3476
H   -2.6301   -1.9464   0.2618
H   -1.8114   -2.2919   -1.1658
H   -0.6262   2.8061   0.7976
H   -1.1251   1.3739   1.8177
H   2.6769   0.1782   1.6434
H   1.7839   0.9604   -1.9327
H   2.4259   -1.4449   0.9605
H   1.1921   -0.7221   2.0073
H   3.0606   1.1073   -0.7142
H   2.7087   -0.4742   -1.4478
22
Frame 47: 47
C   -0.8349   -1.0994   0.1384
C   1.2595   0.1233   0.0116
C   -0.8973   1.7528   0.8061
C   1.9268   -0.5120   1.2260
C   2.2615   0.4580   -1.0827
N   0.2374   -0.8045   -0.5998
N   -1.9620   -1.5981   -0.4317
O   -1.7804   1.4938   -0.2149
H   -2.0531   0.5670   -0.1434
H   -0.0821   -0.3839   -1.4873
H   -0.8712   -0.8008   1.1831
H   0.7144   1.0422   0.3498
H   -2.6232   -1.9532   0.2622
H   -1.8048   -2.3056   -1.1591
H   -0.6226   2.8109   0.7859
H   -1.1199   1.3870   1.8200
H   2.6735   0.1738   1.6440
H   1.7867   0.9698   -1.9284
H   2.4278   -1.4490   0.9620
H   1.1909   -0.7302   2.0053
H   3.0628   1.1038   -0.7098
H   2.7041   -0.4725   -1.4514
22
Frame 48: 48
C   -0.8369   -1.0975   0.1353
C   1.2589   0.1222   0.0117
C   -0.8962   1.7563   0.8056
C   1.9263   -0.5151   1.2248
C   2.2615   0.4588   -1.0820
N   0.2366   -0.8039   -0.6008
N   -1.9615   -1.6020   -0.4322
O   -1.7819   1.4939   -0.2123
H   -2.0571   0.5683   -0.1358
H   -0.0779   -0.3855   -1.4905
H   -0.8763   -0.7969   1.1773
H   0.7141   1.0413   0.3512
H   -2.6186   -1.9594   0.2641
H   -1.8041   -2.3090   -1.1559
H   -0.6207   2.8144   0.7795
H   -1.1191   1.3943   1.8210
H   2.6715   0.1709   1.6435
H   1.7880   0.9739   -1.9257
H   2.4294   -1.4514   0.9623
H   1.1913   -0.7330   2.0044
H   3.0626   1.1029   -0.7067
H   2.7040   -0.4704   -1.4531
22
Frame 49: 49
C   -0.8406   -1.0943   0.1292
C   1.2574   0.1216   0.0121
C   -0.8941   1.7650   0.8054
C   1.9242   -0.5208   1.2223
C   2.2616   0.4607   -1.0799
N   0.2353   -0.8020   -0.6030
N   -1.9601   -1.6117   -0.4346
O   -1.7851   1.4922   -0.2063
H   -2.0642   0.5679   -0.1189
H   -0.0712   -0.3860   -1.4963
H   -0.8852   -0.7862   1.1684
H   0.7131   1.0410   0.3542
H   -2.6130   -1.9696   0.2657
H   -1.7977   -2.3234   -1.1501
H   -0.6150   2.8229   0.7651
H   -1.1156   1.4116   1.8258
H   2.6664   0.1646   1.6449
H   1.7902   0.9834   -1.9199
H   2.4305   -1.4547   0.9576
H   1.1898   -0.7401   2.0012
H   3.0652   1.0988   -0.6997
H   2.7017   -0.4674   -1.4574
22
Frame 50: 50
C   -0.8453   -1.0923   0.1242
C   1.2551   0.1214   0.0126
C   -0.8930   1.7737   0.8065
C   1.9228   -0.5247   1.2191
C   2.2617   0.4629   -1.0769
N   0.2336   -0.8017   -0.6039
N   -1.9627   -1.6191   -0.4324
O   -1.7823   1.4899   -0.2036
H   -2.0671   0.5681   -0.1063
H   -0.0583   -0.3953   -1.5060
H   -0.8901   -0.7829   1.1618
H   0.7106   1.0403   0.3578
H   -2.6086   -1.9822   0.2720
H   -1.7992   -2.3266   -1.1497
H   -0.6117   2.8316   0.7558
H   -1.1168   1.4265   1.8290
H   2.6634   0.1593   1.6445
H   1.7913   0.9874   -1.9154
H   2.4306   -1.4562   0.9488
H   1.1895   -0.7424   1.9984
H   3.0652   1.0982   -0.6920
H   2.7045   -0.4624   -1.4583
22
Frame 51: 51
C   -0.8496   -1.0893   0.1194
C   1.2522   0.1220   0.0132
C   -0.8917   1.7839   0.8079
C   1.9204   -0.5284   1.2157
C   2.2615   0.4656   -1.0727
N   0.2324   -0.8011   -0.6059
N   -1.9647   -1.6292   -0.4313
O   -1.7801   1.4866   -0.2003
H   -2.0685   0.5666   -0.0902
H   -0.0458   -0.4040   -1.5162
H   -0.8947   -0.7760   1.1570
H   0.7075   1.0397   0.3614
H   -2.6055   -1.9946   0.2776
H   -1.7978   -2.3360   -1.1510
H   -0.6065   2.8414   0.7442
H   -1.1157   1.4454   1.8338
H   2.6602   0.1536   1.6455
H   1.7922   0.9933   -1.9102
H   2.4286   -1.4569   0.9354
H   1.1872   -0.7474   1.9944
H   3.0667   1.0963   -0.6826
H   2.7049   -0.4578   -1.4592
22
Frame 52: 52
C   -0.8508   -1.0902   0.1195
C   1.2504   0.1224   0.0136
C   -0.8925   1.7861   0.8091
C   1.9205   -0.5272   1.2147
C   2.2607   0.4669   -1.0700
N   0.2326   -0.8038   -0.6058
N   -1.9690   -1.6290   -0.4259
O   -1.7739   1.4862   -0.2034
H   -2.0630   0.5677   -0.0901
H   -0.0366   -0.4168   -1.5231
H   -0.8906   -0.7793   1.1595
H   0.7051   1.0384   0.3627
H   -2.6057   -2.0011   0.2842
H   -1.8070   -2.3260   -1.1591
H   -0.6071   2.8429   0.7461
H   -1.1193   1.4476   1.8329
H   2.6626   0.1537   1.6437
H   1.7907   0.9895   -1.9100
H   2.4259   -1.4550   0.9268
H   1.1874   -0.7450   1.9940
H   3.0632   1.1004   -0.6790
H   2.7098   -0.4546   -1.4544
22
Frame 53: 53
C   -0.8514   -1.0880   0.1185
C   1.2491   0.1219   0.0136
C   -0.8919   1.7896   0.8090
C   1.9191   -0.5287   1.2142
C   2.2598   0.4685   -1.0678
N   0.2330   -0.8044   -0.6076
N   -1.9694   -1.6337   -0.4251
O   -1.7742   1.4861   -0.2020
H   -2.0625   0.5683   -0.0821
H   -0.0323   -0.4221   -1.5278
H   -0.8911   -0.7728   1.1584
H   0.7036   1.0369   0.3636
H   -2.6036   -2.0082   0.2860
H   -1.8071   -2.3309   -1.1617
H   -0.6043   2.8454   0.7393
H   -1.1171   1.4578   1.8351
H   2.6623   0.1517   1.6443
H   1.7906   0.9939   -1.9073
H   2.4234   -1.4554   0.9205
H   1.1855   -0.7500   1.9926
H   3.0626   1.1005   -0.6743
H   2.7091   -0.4526   -1.4534
22
Frame 54: 54
C   -0.8508   -1.0879   0.1184
C   1.2479   0.1204   0.0135
C   -0.8914   1.7911   0.8083
C   1.9187   -0.5294   1.2147
C   2.2583   0.4699   -1.0660
N   0.2340   -0.8074   -0.6091
N   -1.9703   -1.6346   -0.4220
O   -1.7745   1.4884   -0.2021
H   -2.0599   0.5711   -0.0791
H   -0.0283   -0.4313   -1.5329
H   -0.8888   -0.7660   1.1578
H   0.7025   1.0343   0.3638
H   -2.6006   -2.0170   0.2891
H   -1.8132   -2.3270   -1.1664
H   -0.6041   2.8455   0.7354
H   -1.1154   1.4632   1.8350
H   2.6642   0.1509   1.6432
H   1.7894   0.9962   -1.9053
H   2.4208   -1.4559   0.9172
H   1.1852   -0.7543   1.9932
H   3.0582   1.1038   -0.6705
H   2.7110   -0.4502   -1.4500
22
Frame 55: 55
C   -0.8502   -1.0863   0.1180
C   1.2470   0.1180   0.0131
C   -0.8900   1.7937   0.8070
C   1.9177   -0.5319   1.2150
C   2.2569   0.4717   -1.0647
N   0.2347   -0.8101   -0.6107
N   -1.9699   -1.6372   -0.4197
O   -1.7773   1.4914   -0.1997
H   -2.0599   0.5741   -0.0739
H   -0.0250   -0.4409   -1.5383
H   -0.8878   -0.7554   1.1540
H   0.7015   1.0311   0.3639
H   -2.5952   -2.0288   0.2905
H   -1.8177   -2.3260   -1.1685
H   -0.6031   2.8469   0.7271
H   -1.1122   1.4736   1.8368
H   2.6647   0.1481   1.6425
H   1.7887   1.0021   -1.9020
H   2.4186   -1.4580   0.9154
H   1.1851   -0.7620   1.9936
H   3.0536   1.1069   -0.6657
H   2.7125   -0.4473   -1.4478
22
Frame 56: 56
C   -0.8498   -1.0866   0.1174
C   1.2461   0.1163   0.0129
C   -0.8888   1.7966   0.8063
C   1.9169   -0.5341   1.2149
C   2.2561   0.4732   -1.0640
N   0.2349   -0.8126   -0.6112
N   -1.9694   -1.6386   -0.4173
O   -1.7794   1.4934   -0.1976
H   -2.0591   0.5753   -0.0722
H   -0.0223   -0.4499   -1.5422
H   -0.8868   -0.7473   1.1503
H   0.7007   1.0294   0.3640
H   -2.5910   -2.0378   0.2919
H   -1.8222   -2.3223   -1.1696
H   -0.6035   2.8494   0.7217
H   -1.1097   1.4807   1.8380
H   2.6647   0.1452   1.6416
H   1.7880   1.0058   -1.8997
H   2.4172   -1.4599   0.9147
H   1.1860   -0.7677   1.9941
H   3.0494   1.1103   -0.6619
H   2.7148   -0.4448   -1.4460
22
Frame 57: 57
C   -0.8497   -1.0868   0.1176
C   1.2451   0.1156   0.0126
C   -0.8881   1.7998   0.8062
C   1.9159   -0.5361   1.2140
C   2.2558   0.4748   -1.0636
N   0.2347   -0.8146   -0.6108
N   -1.9691   -1.6399   -0.4148
O   -1.7803   1.4940   -0.1952
H   -2.0576   0.5744   -0.0728
H   -0.0202   -0.4598   -1.5452
H   -0.8855   -0.7426   1.1473
H   0.6995   1.0287   0.3639
H   -2.5880   -2.0444   0.2930
H   -1.8256   -2.3178   -1.1705
H   -0.6042   2.8530   0.7178
H   -1.1083   1.4883   1.8402
H   2.6640   0.1417   1.6410
H   1.7877   1.0084   -1.8986
H   2.4158   -1.4615   0.9134
H   1.1870   -0.7727   1.9940
H   3.0461   1.1139   -0.6586
H   2.7174   -0.4424   -1.4445
22
Frame 58: 58
C   -0.8500   -1.0874   0.1173
C   1.2435   0.1157   0.0124
C   -0.8876   1.8050   0.8066
C   1.9143   -0.5387   1.2124
C   2.2556   0.4772   -1.0626
N   0.2344   -0.8168   -0.6102
N   -1.9685   -1.6424   -0.4125
O   -1.7813   1.4930   -0.1920
H   -2.0545   0.5711   -0.0734
H   -0.0181   -0.4712   -1.5483
H   -0.8848   -0.7373   1.1446
H   0.6975   1.0290   0.3640
H   -2.5854   -2.0502   0.2946
H   -1.8272   -2.3143   -1.1719
H   -0.6045   2.8587   0.7137
H   -1.1058   1.4985   1.8432
H   2.6627   0.1370   1.6410
H   1.7877   1.0108   -1.8978
H   2.4139   -1.4634   0.9102
H   1.1875   -0.7788   1.9927
H   3.0436   1.1178   -0.6546
H   2.7193   -0.4394   -1.4432
22
Frame 59: 59
C   -0.8505   -1.0874   0.1179
C   1.2416   0.1163   0.0120
C   -0.8877   1.8104   0.8075
C   1.9126   -0.5413   1.2103
C   2.2554   0.4802   -1.0613
N   0.2344   -0.8192   -0.6092
N   -1.9681   -1.6449   -0.4102
O   -1.7818   1.4911   -0.1885
H   -2.0503   0.5667   -0.0747
H   -0.0167   -0.4838   -1.5509
H   -0.8838   -0.7345   1.1437
H   0.6948   1.0295   0.3639
H   -2.5837   -2.0543   0.2965
H   -1.8267   -2.3106   -1.1745
H   -0.6040   2.8641   0.7098
H   -1.1040   1.5110   1.8469
H   2.6610   0.1319   1.6417
H   1.7883   1.0126   -1.8978
H   2.4117   -1.4654   0.9057
H   1.1873   -0.7850   1.9905
H   3.0417   1.1222   -0.6509
H   2.7208   -0.4357   -1.4420
22
Frame 60: 60
C   -0.8511   -1.0867   0.1177
C   1.2399   0.1167   0.0119
C   -0.8880   1.8154   0.8080
C   1.9110   -0.5442   1.2086
C   2.2549   0.4830   -1.0596
N   0.2347   -0.8211   -0.6091
N   -1.9670   -1.6482   -0.4095
O   -1.7839   1.4894   -0.1847
H   -2.0478   0.5631   -0.0729
H   -0.0163   -0.4920   -1.5526
H   -0.8848   -0.7306   1.1434
H   0.6920   1.0298   0.3640
H   -2.5822   -2.0572   0.2980
H   -1.8221   -2.3114   -1.1763
H   -0.6011   2.8680   0.7040
H   -1.1015   1.5238   1.8502
H   2.6589   0.1273   1.6433
H   1.7891   1.0152   -1.8972
H   2.4102   -1.4678   0.9014
H   1.1857   -0.7911   1.9876
H   3.0412   1.1246   -0.6476
H   2.7202   -0.4320   -1.4423
22
Frame 61: 61
C   -0.8513   -1.0855   0.1184
C   1.2391   0.1166   0.0118
C   -0.8886   1.8175   0.8083
C   1.9104   -0.5464   1.2077
C   2.2541   0.4849   -1.0586
N   0.2354   -0.8227   -0.6089
N   -1.9661   -1.6492   -0.4094
O   -1.7862   1.4890   -0.1820
H   -2.0467   0.5618   -0.0717
H   -0.0170   -0.4961   -1.5528
H   -0.8857   -0.7297   1.1446
H   0.6900   1.0292   0.3638
H   -2.5812   -2.0581   0.2987
H   -1.8168   -2.3120   -1.1775
H   -0.5977   2.8683   0.6992
H   -1.1009   1.5326   1.8521
H   2.6574   0.1246   1.6449
H   1.7899   1.0166   -1.8971
H   2.4098   -1.4699   0.8994
H   1.1839   -0.7945   1.9853
H   3.0408   1.1260   -0.6466
H   2.7195   -0.4288   -1.4433
22
Frame 62: 62
C   -0.8515   -1.0842   0.1183
C   1.2386   0.1156   0.0119
C   -0.8887   1.8194   0.8080
C   1.9098   -0.5492   1.2072
C   2.2531   0.4864   -1.0576
N   0.2361   -0.8241   -0.6093
N   -1.9646   -1.6508   -0.4102
O   -1.7904   1.4899   -0.1786
H   -2.0472   0.5619   -0.0679
H   -0.0174   -0.4970   -1.5530
H   -0.8882   -0.7266   1.1449
H   0.6883   1.0277   0.3640
H   -2.5796   -2.0597   0.2988
H   -1.8100   -2.3152   -1.1771
H   -0.5933   2.8679   0.6921
H   -1.0994   1.5409   1.8535
H   2.6556   0.1221   1.6468
H   1.7903   1.0194   -1.8959
H   2.4104   -1.4725   0.8984
H   1.1815   -0.7982   1.9830
H   3.0404   1.1262   -0.6455
H   2.7182   -0.4257   -1.4453
22
Frame 63: 63
C   -0.8511   -1.0833   0.1192
C   1.2387   0.1140   0.0119
C   -0.8887   1.8200   0.8075
C   1.9098   -0.5515   1.2071
C   2.2519   0.4873   -1.0573
N   0.2368   -0.8258   -0.6092
N   -1.9637   -1.6501   -0.4102
O   -1.7943   1.4921   -0.1760
H   -2.0467   0.5630   -0.0665
H   -0.0172   -0.4980   -1.5529
H   -0.8896   -0.7259   1.1459
H   0.6869   1.0253   0.3641
H   -2.5780   -2.0609   0.2987
H   -1.8055   -2.3148   -1.1770
H   -0.5902   2.8663   0.6862
H   -1.0994   1.5457   1.8538
H   2.6544   0.1203   1.6482
H   1.7896   1.0206   -1.8952
H   2.4113   -1.4747   0.8986
H   1.1797   -0.8000   1.9815
H   3.0386   1.1274   -0.6453
H   2.7187   -0.4228   -1.4467
22
Frame 64: 64
C   -0.8511   -1.0825   0.1195
C   1.2386   0.1119   0.0120
C   -0.8881   1.8223   0.8064
C   1.9094   -0.5546   1.2068
C   2.2507   0.4884   -1.0569
N   0.2371   -0.8274   -0.6095
N   -1.9624   -1.6509   -0.4103
O   -1.7994   1.4945   -0.1721
H   -2.0455   0.5638   -0.0631
H   -0.0155   -0.4996   -1.5539
H   -0.8922   -0.7225   1.1454
H   0.6854   1.0222   0.3651
H   -2.5755   -2.0638   0.2985
H   -1.8010   -2.3160   -1.1757
H   -0.5874   2.8671   0.6779
H   -1.0976   1.5524   1.8545
H   2.6527   0.1173   1.6497
H   1.7881   1.0233   -1.8935
H   2.4123   -1.4771   0.8978
H   1.1776   -0.8036   1.9796
H   3.0362   1.1286   -0.6436
H   2.7195   -0.4196   -1.4482
22
Frame 65: 65
C   -0.8509   -1.0829   0.1205
C   1.2385   0.1103   0.0121
C   -0.8875   1.8241   0.8056
C   1.9091   -0.5565   1.2065
C   2.2498   0.4891   -1.0571
N   0.2370   -0.8287   -0.6089
N   -1.9620   -1.6501   -0.4096
O   -1.8024   1.4965   -0.1694
H   -2.0416   0.5638   -0.0629
H   -0.0129   -0.5027   -1.5548
H   -0.8931   -0.7222   1.1457
H   0.6841   1.0194   0.3663
H   -2.5741   -2.0653   0.2985
H   -1.8001   -2.3138   -1.1752
H   -0.5874   2.8685   0.6731
H   -1.0965   1.5559   1.8545
H   2.6519   0.1149   1.6506
H   1.7857   1.0240   -1.8929
H   2.4127   -1.4782   0.8966
H   1.1764   -0.8058   1.9782
H   3.0332   1.1311   -0.6425
H   2.7220   -0.4173   -1.4483
22
Frame 66: 66
C   -0.8513   -1.0830   0.1205
C   1.2381   0.1095   0.0122
C   -0.8867   1.8273   0.8049
C   1.9084   -0.5582   1.2058
C   2.2494   0.4901   -1.0570
N   0.2366   -0.8290   -0.6086
N   -1.9617   -1.6511   -0.4097
O   -1.8045   1.4968   -0.1665
H   -2.0374   0.5623   -0.0612
H   -0.0101   -0.5055   -1.5560
H   -0.8947   -0.7209   1.1450
H   0.6831   1.0176   0.3680
H   -2.5733   -2.0666   0.2982
H   -1.7991   -2.3151   -1.1740
H   -0.5881   2.8722   0.6685
H   -1.0939   1.5610   1.8553
H   2.6509   0.1122   1.6516
H   1.7835   1.0255   -1.8920
H   2.4124   -1.4787   0.8940
H   1.1751   -0.8091   1.9764
H   3.0314   1.1328   -0.6405
H   2.7234   -0.4158   -1.4484
22
Frame 67: 67
C   -0.8515   -1.0840   0.1209
C   1.2378   0.1098   0.0124
C   -0.8865   1.8291   0.8046
C   1.9080   -0.5583   1.2054
C   2.2492   0.4906   -1.0572
N   0.2364   -0.8288   -0.6077
N   -1.9620   -1.6510   -0.4099
O   -1.8046   1.4964   -0.1654
H   -2.0330   0.5605   -0.0616
H   -0.0083   -0.5075   -1.5560
H   -0.8946   -0.7227   1.1455
H   0.6826   1.0171   0.3696
H   -2.5740   -2.0657   0.2975
H   -1.7995   -2.3152   -1.1735
H   -0.5893   2.8745   0.6675
H   -1.0923   1.5632   1.8554
H   2.6508   0.1109   1.6524
H   1.7813   1.0252   -1.8921
H   2.4116   -1.4780   0.8916
H   1.1743   -0.8107   1.9749
H   3.0303   1.1346   -0.6399
H   2.7247   -0.4155   -1.4476
22
Frame 68: 68
C   -0.8521   -1.0844   0.1205
C   1.2374   0.1104   0.0128
C   -0.8861   1.8317   0.8044
C   1.9074   -0.5589   1.2048
C   2.2489   0.4915   -1.0570
N   0.2362   -0.8282   -0.6071
N   -1.9620   -1.6523   -0.4112
O   -1.8050   1.4952   -0.1637
H   -2.0298   0.5586   -0.0597
H   -0.0067   -0.5087   -1.5562
H   -0.8953   -0.7233   1.1453
H   0.6823   1.0172   0.3714
H   -2.5750   -2.0652   0.2963
H   -1.7981   -2.3191   -1.1722
H   -0.5893   2.8772   0.6651
H   -1.0897   1.5683   1.8561
H   2.6501   0.1091   1.6537
H   1.7797   1.0261   -1.8915
H   2.4107   -1.4776   0.8886
H   1.1731   -0.8138   1.9729
H   3.0299   1.1355   -0.6391
H   2.7245   -0.4150   -1.4475
22
Frame 69: 69
C   -0.8523   -1.0856   0.1203
C   1.2369   0.1113   0.0135
C   -0.8860   1.8335   0.8040
C   1.9070   -0.5589   1.2045
C   2.2482   0.4922   -1.0567
N   0.2365   -0.8276   -0.6061
N   -1.9620   -1.6529   -0.4129
O   -1.8051   1.4945   -0.1626
H   -2.0269   0.5571   -0.0583
H   -0.0058   -0.5090   -1.5551
H   -0.8947   -0.7259   1.1459
H   0.6824   1.0179   0.3733
H   -2.5770   -2.0634   0.2941
H   -1.7963   -2.3229   -1.1709
H   -0.5876   2.8781   0.6629
H   -1.0877   1.5729   1.8562
H   2.6496   0.1080   1.6554
H   1.7774   1.0261   -1.8909
H   2.4097   -1.4768   0.8858
H   1.1718   -0.8166   1.9707
H   3.0291   1.1369   -0.6394
H   2.7240   -0.4144   -1.4472
22
Frame 70: 70
C   -0.8531   -1.0858   0.1191
C   1.2362   0.1119   0.0148
C   -0.8852   1.8376   0.8034
C   1.9063   -0.5607   1.2040
C   2.2467   0.4939   -1.0556
N   0.2369   -0.8275   -0.6054
N   -1.9616   -1.6553   -0.4156
O   -1.8067   1.4939   -0.1597
H   -2.0246   0.5558   -0.0535
H   -0.0038   -0.5102   -1.5552
H   -0.8956   -0.7268   1.1450
H   0.6823   1.0184   0.3760
H   -2.5782   -2.0637   0.2917
H   -1.7925   -2.3306   -1.1685
H   -0.5845   2.8802   0.6562
H   -1.0837   1.5834   1.8573
H   2.6480   0.1052   1.6581
H   1.7750   1.0281   -1.8889
H   2.4090   -1.4775   0.8822
H   1.1700   -0.8225   1.9675
H   3.0276   1.1386   -0.6389
H   2.7228   -0.4120   -1.4474
22
Frame 71: 71
C   -0.8532   -1.0868   0.1183
C   1.2356   0.1118   0.0163
C   -0.8845   1.8405   0.8023
C   1.9062   -0.5625   1.2041
C   2.2445   0.4954   -1.0542
N   0.2378   -0.8281   -0.6048
N   -1.9611   -1.6569   -0.4177
O   -1.8087   1.4948   -0.1573
H   -2.0236   0.5562   -0.0498
H   -0.0020   -0.5114   -1.5548
H   -0.8953   -0.7285   1.1443
H   0.6824   1.0186   0.3781
H   -2.5795   -2.0640   0.2891
H   -1.7897   -2.3359   -1.1666
H   -0.5799   2.8806   0.6494
H   -1.0806   1.5922   1.8574
H   2.6466   0.1031   1.6606
H   1.7718   1.0292   -1.8867
H   2.4091   -1.4785   0.8800
H   1.1687   -0.8276   1.9652
H   3.0246   1.1415   -0.6393
H   2.7217   -0.4089   -1.4472
22
Frame 72: 72
C   -0.8536   -1.0873   0.1169
C   1.2349   0.1110   0.0180
C   -0.8831   1.8449   0.8010
C   1.9060   -0.5658   1.2041
C   2.2420   0.4975   -1.0524
N   0.2382   -0.8294   -0.6048
N   -1.9605   -1.6593   -0.4192
O   -1.8113   1.4962   -0.1540
H   -2.0226   0.5569   -0.0452
H   0.0009   -0.5144   -1.5562
H   -0.8961   -0.7287   1.1426
H   0.6821   1.0180   0.3801
H   -2.5795   -2.0663   0.2876
H   -1.7875   -2.3410   -1.1652
H   -0.5759   2.8828   0.6406
H   -1.0766   1.6029   1.8580
H   2.6448   0.0999   1.6630
H   1.7686   1.0310   -1.8839
H   2.4099   -1.4808   0.8781
H   1.1679   -0.8341   1.9634
H   3.0208   1.1454   -0.6388
H   2.7211   -0.4045   -1.4468
22
Frame 73: 73
C   -0.8536   -1.0885   0.1160
C   1.2344   0.1097   0.0195
C   -0.8817   1.8484   0.7996
C   1.9062   -0.5687   1.2045
C   2.2396   0.4995   -1.0507
N   0.2384   -0.8308   -0.6050
N   -1.9601   -1.6610   -0.4199
O   -1.8131   1.4982   -0.1516
H   -2.0215   0.5582   -0.0429
H   0.0038   -0.5176   -1.5578
H   -0.8961   -0.7299   1.1414
H   0.6817   1.0168   0.3814
H   -2.5796   -2.0677   0.2867
H   -1.7874   -2.3434   -1.1649
H   -0.5730   2.8849   0.6336
H   -1.0733   1.6102   1.8580
H   2.6436   0.0973   1.6648
H   1.7648   1.0314   -1.8820
H   2.4114   -1.4828   0.8773
H   1.1682   -0.8391   1.9632
H   3.0165   1.1501   -0.6387
H   2.7212   -0.4004   -1.4457
22
Frame 74: 74
C   -0.8539   -1.0901   0.1149
C   1.2337   0.1081   0.0211
C   -0.8797   1.8531   0.7981
C   1.9064   -0.5722   1.2050
C   2.2372   0.5021   -1.0489
N   0.2382   -0.8320   -0.6054
N   -1.9598   -1.6633   -0.4206
O   -1.8145   1.5001   -0.1488
H   -2.0191   0.5590   -0.0408
H   0.0073   -0.5219   -1.5604
H   -0.8965   -0.7319   1.1403
H   0.6812   1.0151   0.3830
H   -2.5802   -2.0684   0.2862
H   -1.7882   -2.3463   -1.1652
H   -0.5711   2.8890   0.6262
H   -1.0689   1.6185   1.8583
H   2.6424   0.0942   1.6669
H   1.7599   1.0315   -1.8803
H   2.4135   -1.4849   0.8761
H   1.1689   -0.8450   1.9635
H   3.0117   1.1563   -0.6382
H   2.7215   -0.3959   -1.4440
22
Frame 75: 75
C   -0.8539   -1.0923   0.1143
C   1.2333   0.1069   0.0223
C   -0.8779   1.8568   0.7969
C   1.9067   -0.5746   1.2057
C   2.2354   0.5044   -1.0479
N   0.2377   -0.8326   -0.6058
N   -1.9597   -1.6651   -0.4213
O   -1.8142   1.5014   -0.1473
H   -2.0163   0.5595   -0.0407
H   0.0100   -0.5251   -1.5625
H   -0.8964   -0.7360   1.1406
H   0.6807   1.0133   0.3844
H   -2.5820   -2.0666   0.2856
H   -1.7901   -2.3483   -1.1663
H   -0.5704   2.8930   0.6217
H   -1.0652   1.6236   1.8582
H   2.6418   0.0920   1.6686
H   1.7546   1.0301   -1.8799
H   2.4159   -1.4857   0.8755
H   1.1703   -0.8493   1.9648
H   3.0076   1.1627   -0.6383
H   2.7221   -0.3928   -1.4418
22
Frame 76: 76
C   -0.8541   -1.0939   0.1141
C   1.2330   0.1066   0.0228
C   -0.8770   1.8590   0.7965
C   1.9066   -0.5756   1.2060
C   2.2348   0.5058   -1.0477
N   0.2372   -0.8324   -0.6059
N   -1.9597   -1.6664   -0.4222
O   -1.8133   1.5015   -0.1468
H   -2.0144   0.5592   -0.0406
H   0.0109   -0.5267   -1.5637
H   -0.8965   -0.7391   1.1414
H   0.6802   1.0122   0.3857
H   -2.5837   -2.0645   0.2851
H   -1.7907   -2.3504   -1.1671
H   -0.5700   2.8955   0.6198
H   -1.0632   1.6271   1.8586
H   2.6416   0.0908   1.6698
H   1.7513   1.0293   -1.8802
H   2.4172   -1.4855   0.8748
H   1.1711   -0.8518   1.9656
H   3.0058   1.1663   -0.6383
H   2.7225   -0.3916   -1.4406
22
Frame 77: 77
C   -0.8541   -1.0948   0.1142
C   1.2331   0.1068   0.0227
C   -0.8770   1.8592   0.7968
C   1.9067   -0.5753   1.2061
C   2.2349   0.5060   -1.0482
N   0.2369   -0.8321   -0.6058
N   -1.9599   -1.6666   -0.4229
O   -1.8121   1.5012   -0.1475
H   -2.0140   0.5591   -0.0410
H   0.0104   -0.5268   -1.5637
H   -0.8964   -0.7412   1.1424
H   0.6800   1.0116   0.3866
H   -2.5849   -2.0625   0.2846
H   -1.7910   -2.3512   -1.1678
H   -0.5697   2.8957   0.6204
H   -1.0633   1.6277   1.8587
H   2.6418   0.0909   1.6702
H   1.7500   1.0285   -1.8810
H   2.4179   -1.4847   0.8750
H   1.1717   -0.8519   1.9662
H   3.0055   1.1675   -0.6386
H   2.7231   -0.3919   -1.4403
22
Frame 78: 78
C   -0.8544   -1.0953   0.1141
C   1.2330   0.1068   0.0226
C   -0.8770   1.8599   0.7971
C   1.9067   -0.5754   1.2059
C   2.2348   0.5064   -1.0485
N   0.2368   -0.8322   -0.6057
N   -1.9598   -1.6673   -0.4237
O   -1.8114   1.5011   -0.1476
H   -2.0141   0.5592   -0.0398
H   0.0100   -0.5275   -1.5638
H   -0.8968   -0.7419   1.1427
H   0.6794   1.0110   0.3878
H   -2.5854   -2.0619   0.2842
H   -1.7904   -2.3526   -1.1682
H   -0.5680   2.8956   0.6192
H   -1.0636   1.6306   1.8594
H   2.6416   0.0905   1.6706
H   1.7492   1.0289   -1.8811
H   2.4185   -1.4844   0.8749
H   1.1719   -0.8530   1.9659
H   3.0049   1.1684   -0.6384
H   2.7238   -0.3915   -1.4405
22
Frame 79: 79
C   -0.8545   -1.0959   0.1140
C   1.2328   0.1064   0.0226
C   -0.8771   1.8606   0.7974
C   1.9070   -0.5756   1.2058
C   2.2344   0.5067   -1.0487
N   0.2367   -0.8328   -0.6056
N   -1.9599   -1.6677   -0.4245
O   -1.8107   1.5013   -0.1480
H   -2.0144   0.5599   -0.0387
H   0.0096   -0.5290   -1.5639
H   -0.8970   -0.7428   1.1429
H   0.6788   1.0099   0.3894
H   -2.5856   -2.0616   0.2837
H   -1.7903   -2.3532   -1.1690
H   -0.5658   2.8949   0.6177
H   -1.0645   1.6339   1.8597
H   2.6415   0.0903   1.6709
H   1.7482   1.0289   -1.8811
H   2.4196   -1.4842   0.8753
H   1.1725   -0.8539   1.9658
H   3.0032   1.1699   -0.6383
H   2.7253   -0.3905   -1.4406
22
Frame 80: 80
C   -0.8549   -1.0965   0.1136
C   1.2323   0.1054   0.0229
C   -0.8768   1.8624   0.7974
C   1.9073   -0.5768   1.2055
C   2.2333   0.5074   -1.0484
N   0.2367   -0.8341   -0.6055
N   -1.9598   -1.6688   -0.4254
O   -1.8105   1.5020   -0.1474
H   -2.0144   0.5609   -0.0359
H   0.0100   -0.5321   -1.5645
H   -0.8977   -0.7427   1.1423
H   0.6777   1.0082   0.3916
H   -2.5853   -2.0627   0.2833
H   -1.7902   -2.3543   -1.1699
H   -0.5622   2.8949   0.6137
H   -1.0650   1.6404   1.8606
H   2.6410   0.0893   1.6715
H   1.7466   1.0296   -1.8805
H   2.4211   -1.4848   0.8753
H   1.1730   -0.8565   1.9651
H   3.0000   1.1723   -0.6375
H   2.7274   -0.3880   -1.4406
22
Frame 81: 81
C   -0.8550   -1.0972   0.1133
C   1.2319   0.1042   0.0234
C   -0.8762   1.8637   0.7973
C   1.9080   -0.5777   1.2055
C   2.2320   0.5077   -1.0480
N   0.2367   -0.8356   -0.6054
N   -1.9600   -1.6691   -0.4257
O   -1.8101   1.5027   -0.1473
H   -2.0137   0.5617   -0.0348
H   0.0104   -0.5349   -1.5649
H   -0.8980   -0.7430   1.1416
H   0.6771   1.0066   0.3932
H   -2.5853   -2.0632   0.2830
H   -1.7916   -2.3538   -1.1710
H   -0.5599   2.8951   0.6114
H   -1.0657   1.6441   1.8607
H   2.6409   0.0892   1.6714
H   1.7449   1.0291   -1.8800
H   2.4230   -1.4853   0.8758
H   1.1740   -0.8582   1.9649
H   2.9964   1.1749   -0.6371
H   2.7296   -0.3856   -1.4402
22
Frame 82: 82
C   -0.8552   -1.0979   0.1130
C   1.2315   0.1029   0.0239
C   -0.8755   1.8650   0.7970
C   1.9088   -0.5787   1.2056
C   2.2307   0.5082   -1.0473
N   0.2368   -0.8371   -0.6053
N   -1.9602   -1.6695   -0.4259
O   -1.8097   1.5033   -0.1470
H   -2.0124   0.5621   -0.0338
H   0.0109   -0.5375   -1.5652
H   -0.8984   -0.7429   1.1409
H   0.6766   1.0050   0.3944
H   -2.5856   -2.0636   0.2824
H   -1.7932   -2.3535   -1.1721
H   -0.5580   2.8959   0.6093
H   -1.0662   1.6475   1.8609
H   2.6408   0.0893   1.6714
H   1.7432   1.0283   -1.8797
H   2.4248   -1.4858   0.8760
H   1.1749   -0.8598   1.9648
H   2.9930   1.1775   -0.6366
H   2.7316   -0.3831   -1.4396
22
Frame 83: 83
C   -0.8553   -1.0987   0.1130
C   1.2314   0.1017   0.0244
C   -0.8748   1.8652   0.7969
C   1.9100   -0.5789   1.2059
C   2.2297   0.5081   -1.0470
N   0.2369   -0.8385   -0.6050
N   -1.9607   -1.6688   -0.4260
O   -1.8084   1.5033   -0.1476
H   -2.0104   0.5619   -0.0348
H   0.0106   -0.5388   -1.5647
H   -0.8984   -0.7435   1.1406
H   0.6766   1.0037   0.3950
H   -2.5869   -2.0625   0.2817
H   -1.7959   -2.3521   -1.1732
H   -0.5577   2.8966   0.6102
H   -1.0672   1.6473   1.8605
H   2.6413   0.0908   1.6707
H   1.7416   1.0261   -1.8801
H   2.4270   -1.4856   0.8766
H   1.1763   -0.8599   1.9652
H   2.9900   1.1797   -0.6367
H   2.7336   -0.3815   -1.4386
22
Frame 84: 84
C   -0.8554   -1.0995   0.1133
C   1.2315   0.1007   0.0246
C   -0.8742   1.8648   0.7971
C   1.9112   -0.5786   1.2062
C   2.2292   0.5080   -1.0468
N   0.2370   -0.8396   -0.6045
N   -1.9614   -1.6680   -0.4264
O   -1.8067   1.5028   -0.1484
H   -2.0084   0.5611   -0.0363
H   0.0097   -0.5387   -1.5637
H   -0.8984   -0.7442   1.1408
H   0.6769   1.0026   0.3952
H   -2.5890   -2.0605   0.2804
H   -1.7980   -2.3513   -1.1740
H   -0.5576   2.8971   0.6120
H   -1.0685   1.6462   1.8604
H   2.6418   0.0927   1.6701
H   1.7402   1.0236   -1.8811
H   2.4290   -1.4850   0.8771
H   1.1775   -0.8594   1.9658
H   2.9882   1.1813   -0.6369
H   2.7349   -0.3807   -1.4378
22
Frame 85: 85
C   -0.8555   -1.1001   0.1137
C   1.2319   0.1002   0.0246
C   -0.8739   1.8636   0.7976
C   1.9123   -0.5778   1.2065
C   2.2292   0.5077   -1.0472
N   0.2372   -0.8404   -0.6041
N   -1.9622   -1.6667   -0.4269
O   -1.8049   1.5020   -0.1496
H   -2.0070   0.5603   -0.0383
H   0.0083   -0.5375   -1.5623
H   -0.8985   -0.7450   1.1414
H   0.6773   1.0020   0.3949
H   -2.5915   -2.0580   0.2790
H   -1.7995   -2.3506   -1.1742
H   -0.5579   2.8968   0.6149
H   -1.0700   1.6438   1.8603
H   2.6424   0.0950   1.6694
H   1.7393   1.0212   -1.8824
H   2.4308   -1.4840   0.8777
H   1.1786   -0.8582   1.9664
H   2.9875   1.1822   -0.6374
H   2.7357   -0.3810   -1.4372
22
Frame 86: 86
C   -0.8558   -1.1005   0.1139
C   1.2322   0.0999   0.0244
C   -0.8737   1.8628   0.7982
C   1.9129   -0.5773   1.2066
C   2.2294   0.5077   -1.0475
N   0.2374   -0.8411   -0.6037
N   -1.9629   -1.6660   -0.4276
O   -1.8036   1.5013   -0.1503
H   -2.0064   0.5597   -0.0392
H   0.0073   -0.5362   -1.5611
H   -0.8988   -0.7453   1.1418
H   0.6775   1.0016   0.3947
H   -2.5935   -2.0564   0.2777
H   -1.7996   -2.3508   -1.1740
H   -0.5575   2.8961   0.6162
H   -1.0712   1.6431   1.8607
H   2.6425   0.0964   1.6690
H   1.7387   1.0199   -1.8832
H   2.4321   -1.4832   0.8780
H   1.1793   -0.8577   1.9667
H   2.9874   1.1828   -0.6376
H   2.7359   -0.3814   -1.4369
22
Frame 87: 87
C   -0.8561   -1.1006   0.1141
C   1.2323   0.0996   0.0243
C   -0.8737   1.8623   0.7987
C   1.9133   -0.5771   1.2065
C   2.2295   0.5079   -1.0477
N   0.2377   -0.8420   -0.6034
N   -1.9635   -1.6656   -0.4281
O   -1.8026   1.5009   -0.1507
H   -2.0062   0.5596   -0.0393
H   0.0070   -0.5357   -1.5602
H   -0.8994   -0.7450   1.1420
H   0.6773   1.0010   0.3945
H   -2.5951   -2.0557   0.2767
H   -1.7992   -2.3510   -1.1737
H   -0.5566   2.8950   0.6163
H   -1.0721   1.6437   1.8612
H   2.6423   0.0972   1.6688
H   1.7382   1.0193   -1.8837
H   2.4334   -1.4827   0.8782
H   1.1801   -0.8580   1.9668
H   2.9870   1.1837   -0.6376
H   2.7361   -0.3815   -1.4366
22
Frame 88: 88
C   -0.8566   -1.1006   0.1140
C   1.2322   0.0991   0.0243
C   -0.8736   1.8626   0.7991
C   1.9135   -0.5776   1.2062
C   2.2293   0.5083   -1.0476
N   0.2379   -0.8430   -0.6032
N   -1.9639   -1.6657   -0.4284
O   -1.8023   1.5010   -0.1504
H   -2.0061   0.5598   -0.0385
H   0.0077   -0.5362   -1.5600
H   -0.9002   -0.7442   1.1416
H   0.6767   1.0002   0.3946
H   -2.5960   -2.0561   0.2760
H   -1.7985   -2.3513   -1.1735
H   -0.5552   2.8943   0.6148
H   -1.0724   1.6460   1.8618
H   2.6418   0.0972   1.6687
H   1.7375   1.0194   -1.8835
H   2.4345   -1.4826   0.8780
H   1.1808   -0.8593   1.9666
H   2.9860   1.1851   -0.6372
H   2.7363   -0.3809   -1.4362
22
Frame 89: 89
C   -0.8570   -1.1005   0.1138
C   1.2319   0.0986   0.0244
C   -0.8734   1.8632   0.7992
C   1.9137   -0.5782   1.2060
C   2.2288   0.5087   -1.0472
N   0.2380   -0.8439   -0.6031
N   -1.9641   -1.6660   -0.4284
O   -1.8022   1.5012   -0.1500
H   -2.0057   0.5600   -0.0376
H   0.0088   -0.5375   -1.5602
H   -0.9009   -0.7434   1.1410
H   0.6761   0.9994   0.3947
H   -2.5964   -2.0568   0.2757
H   -1.7983   -2.3513   -1.1736
H   -0.5539   2.8940   0.6130
H   -1.0723   1.6484   1.8622
H   2.6414   0.0969   1.6686
H   1.7368   1.0196   -1.8830
H   2.4355   -1.4827   0.8776
H   1.1815   -0.8609   1.9664
H   2.9845   1.1865   -0.6368
H   2.7367   -0.3801   -1.4357
22
Frame 90: 90
C   -0.8573   -1.1003   0.1137
C   1.2316   0.0981   0.0246
C   -0.8733   1.8638   0.7992
C   1.9139   -0.5787   1.2058
C   2.2282   0.5090   -1.0469
N   0.2380   -0.8445   -0.6030
N   -1.9641   -1.6663   -0.4283
O   -1.8022   1.5014   -0.1497
H   -2.0052   0.5602   -0.0371
H   0.0099   -0.5386   -1.5605
H   -0.9015   -0.7426   1.1406
H   0.6756   0.9988   0.3949
H   -2.5966   -2.0571   0.2756
H   -1.7984   -2.3512   -1.1737
H   -0.5532   2.8941   0.6117
H   -1.0721   1.6499   1.8625
H   2.6412   0.0967   1.6686
H   1.7362   1.0197   -1.8826
H   2.4363   -1.4827   0.8773
H   1.1822   -0.8623   1.9663
H   2.9832   1.1875   -0.6366
H   2.7371   -0.3794   -1.4351
