22
Frame 1: 1
C   -0.7781   -1.0676   0.3211
C   1.3026   0.0521   -0.0283
C   -0.9720   1.4562   0.8237
C   1.9812   -0.4184   1.2502
C   2.2640   0.4352   -1.1331
N   0.2912   -0.8768   -0.5004
N   -2.0192   -1.3720   -0.2331
O   -1.6647   1.6302   -0.4018
H   -2.2586   0.8701   -0.4759
H   0.0278   -0.6783   -1.4585
H   -0.6098   -1.3679   1.3412
H   0.6813   0.9183   0.2869
H   -2.5733   -2.0574   0.2574
H   -2.0524   -1.5045   -1.2338
H   -0.3690   2.3514   0.9917
H   -1.6396   1.2942   1.6747
H   2.7644   0.2915   1.5228
H   1.7251   0.7307   -2.0378
H   2.4356   -1.4061   1.1342
H   1.2730   -0.4472   2.0806
H   2.8503   1.2987   -0.8143
H   2.9600   -0.3688   -1.3889
22
Frame 2: 2
C   -0.7848   -1.0822   0.2918
C   1.3082   0.0717   -0.0114
C   -0.9680   1.4520   0.7960
C   1.9868   -0.4187   1.2499
C   2.2643   0.4370   -1.1332
N   0.2696   -0.9046   -0.4937
N   -2.0023   -1.3544   -0.2178
O   -1.6552   1.6267   -0.3902
H   -2.2513   0.8692   -0.4708
H   0.0210   -0.6743   -1.4692
H   -0.6104   -1.3541   1.3502
H   0.6713   0.9325   0.2964
H   -2.5799   -2.0637   0.2655
H   -2.0514   -1.5073   -1.2505
H   -0.3702   2.3519   0.9909
H   -1.6350   1.2843   1.6801
H   2.7666   0.2922   1.5238
H   1.7249   0.7306   -2.0393
H   2.4361   -1.4066   1.1333
H   1.2697   -0.4470   2.0786
H   2.8521   1.2993   -0.8142
H   2.9578   -0.3709   -1.3875
22
Frame 3: 3
C   -0.7859   -1.1086   0.2847
C   1.3009   0.0820   0.0009
C   -0.9651   1.4557   0.7877
C   1.9909   -0.4172   1.2534
C   2.2628   0.4396   -1.1313
N   0.2704   -0.9197   -0.5037
N   -2.0129   -1.3518   -0.2205
O   -1.6486   1.6230   -0.3883
H   -2.2423   0.8680   -0.4652
H   0.0140   -0.6720   -1.4712
H   -0.6132   -1.3322   1.3488
H   0.6616   0.9479   0.3063
H   -2.5788   -2.0605   0.2708
H   -2.0482   -1.5070   -1.2519
H   -0.3721   2.3491   0.9878
H   -1.6224   1.2714   1.6781
H   2.7703   0.2933   1.5259
H   1.7244   0.7305   -2.0406
H   2.4371   -1.4079   1.1312
H   1.2677   -0.4470   2.0751
H   2.8552   1.3005   -0.8147
H   2.9542   -0.3736   -1.3849
22
Frame 4: 4
C   -0.7838   -1.1996   0.2475
C   1.2726   0.1065   0.0230
C   -0.9575   1.4714   0.7830
C   1.9978   -0.4119   1.2639
C   2.2524   0.4488   -1.1183
N   0.2787   -0.9597   -0.5186
N   -2.0454   -1.3410   -0.2292
O   -1.6270   1.6165   -0.3965
H   -2.2163   0.8558   -0.4477
H   -0.0118   -0.6624   -1.4789
H   -0.6239   -1.2565   1.3434
H   0.6306   0.9922   0.3379
H   -2.5770   -2.0502   0.2887
H   -2.0389   -1.5077   -1.2539
H   -0.3736   2.3449   0.9770
H   -1.5728   1.2227   1.6653
H   2.7851   0.2977   1.5355
H   1.7232   0.7301   -2.0428
H   2.4396   -1.4093   1.1228
H   1.2635   -0.4480   2.0670
H   2.8667   1.3047   -0.8179
H   2.9377   -0.3814   -1.3729
22
Frame 5: 5
C   -0.7818   -1.2209   0.2446
C   1.2660   0.1065   0.0224
C   -0.9621   1.4811   0.7848
C   1.9967   -0.4086   1.2623
C   2.2471   0.4512   -1.1145
N   0.2832   -0.9591   -0.5257
N   -2.0478   -1.3384   -0.2313
O   -1.6221   1.6121   -0.4022
H   -2.2097   0.8506   -0.4449
H   -0.0172   -0.6617   -1.4730
H   -0.6289   -1.2371   1.3331
H   0.6281   0.9920   0.3415
H   -2.5779   -2.0474   0.2914
H   -2.0397   -1.5104   -1.2526
H   -0.3676   2.3529   0.9767
H   -1.5574   1.2046   1.6626
H   2.7879   0.2978   1.5390
H   1.7234   0.7300   -2.0405
H   2.4388   -1.4063   1.1197
H   1.2634   -0.4492   2.0700
H   2.8693   1.3052   -0.8191
H   2.9282   -0.3813   -1.3658
22
Frame 6: 6
C   -0.7687   -1.2596   0.2299
C   1.2544   0.1034   0.0170
C   -0.9633   1.5098   0.7840
C   1.9904   -0.4006   1.2589
C   2.2349   0.4587   -1.1049
N   0.2880   -0.9561   -0.5288
N   -2.0496   -1.3376   -0.2331
O   -1.6110   1.6021   -0.4171
H   -2.1953   0.8349   -0.4402
H   -0.0312   -0.6579   -1.4612
H   -0.6411   -1.1940   1.3081
H   0.6203   0.9822   0.3476
H   -2.5800   -2.0382   0.2942
H   -2.0447   -1.5198   -1.2496
H   -0.3532   2.3769   0.9777
H   -1.5216   1.1562   1.6611
H   2.7916   0.2965   1.5464
H   1.7229   0.7308   -2.0339
H   2.4353   -1.3956   1.1110
H   1.2665   -0.4528   2.0789
H   2.8735   1.3049   -0.8221
H   2.9017   -0.3806   -1.3457
22
Frame 7: 7
C   -0.7649   -1.2649   0.2227
C   1.2527   0.1006   0.0154
C   -0.9591   1.5244   0.7829
C   1.9856   -0.3971   1.2580
C   2.2286   0.4627   -1.1007
N   0.2910   -0.9532   -0.5288
N   -2.0408   -1.3400   -0.2341
O   -1.6053   1.5970   -0.4244
H   -2.1880   0.8242   -0.4397
H   -0.0386   -0.6546   -1.4558
H   -0.6472   -1.1764   1.2960
H   0.6136   0.9694   0.3474
H   -2.5827   -2.0337   0.2941
H   -2.0516   -1.5281   -1.2478
H   -0.3459   2.3967   0.9798
H   -1.4988   1.1286   1.6590
H   2.7892   0.2945   1.5489
H   1.7208   0.7327   -2.0302
H   2.4319   -1.3870   1.1054
H   1.2705   -0.4551   2.0854
H   2.8734   1.3040   -0.8225
H   2.8854   -0.3810   -1.3326
22
Frame 8: 8
C   -0.7585   -1.2604   0.2118
C   1.2509   0.0997   0.0180
C   -0.9470   1.5427   0.7795
C   1.9799   -0.3934   1.2597
C   2.2200   0.4687   -1.0949
N   0.2951   -0.9557   -0.5300
N   -2.0308   -1.3487   -0.2367
O   -1.5963   1.5878   -0.4306
H   -2.1745   0.8096   -0.4395
H   -0.0497   -0.6475   -1.4518
H   -0.6549   -1.1541   1.2847
H   0.5982   0.9531   0.3475
H   -2.5861   -2.0254   0.2939
H   -2.0635   -1.5424   -1.2479
H   -0.3407   2.4264   0.9826
H   -1.4592   1.0895   1.6512
H   2.7834   0.2922   1.5510
H   1.7152   0.7370   -2.0262
H   2.4268   -1.3755   1.0963
H   1.2769   -0.4586   2.0948
H   2.8720   1.3033   -0.8211
H   2.8628   -0.3846   -1.3137
22
Frame 9: 9
C   -0.7568   -1.2401   0.2063
C   1.2482   0.0998   0.0231
C   -0.9305   1.5578   0.7754
C   1.9741   -0.3913   1.2636
C   2.2121   0.4739   -1.0897
N   0.3021   -0.9613   -0.5359
N   -2.0197   -1.3613   -0.2432
O   -1.5847   1.5785   -0.4314
H   -2.1588   0.7943   -0.4404
H   -0.0591   -0.6381   -1.4506
H   -0.6609   -1.1381   1.2792
H   0.5789   0.9388   0.3467
H   -2.5908   -2.0178   0.2950
H   -2.0785   -1.5599   -1.2505
H   -0.3427   2.4571   0.9854
H   -1.4113   1.0534   1.6373
H   2.7753   0.2917   1.5518
H   1.7067   0.7431   -2.0225
H   2.4221   -1.3662   1.0862
H   1.2836   -0.4628   2.1052
H   2.8687   1.3034   -0.8171
H   2.8417   -0.3913   -1.2954
22
Frame 10: 10
C   -0.7580   -1.2151   0.2036
C   1.2418   0.1011   0.0284
C   -0.9146   1.5681   0.7722
C   1.9703   -0.3913   1.2680
C   2.2060   0.4769   -1.0854
N   0.3078   -0.9697   -0.5446
N   -2.0148   -1.3758   -0.2519
O   -1.5724   1.5691   -0.4278
H   -2.1407   0.7825   -0.4405
H   -0.0641   -0.6278   -1.4521
H   -0.6641   -1.1272   1.2818
H   0.5601   0.9337   0.3467
H   -2.5950   -2.0104   0.2985
H   -2.0921   -1.5776   -1.2566
H   -0.3532   2.4809   0.9870
H   -1.3612   1.0271   1.6195
H   2.7686   0.2949   1.5518
H   1.6971   0.7494   -2.0188
H   2.4195   -1.3629   1.0769
H   1.2877   -0.4673   2.1148
H   2.8648   1.3047   -0.8110
H   2.8263   -0.3995   -1.2820
22
Frame 11: 11
C   -0.7635   -1.1997   0.2051
C   1.2345   0.1011   0.0300
C   -0.9060   1.5733   0.7701
C   1.9686   -0.3928   1.2700
C   2.2028   0.4770   -1.0826
N   0.3088   -0.9738   -0.5515
N   -2.0150   -1.3855   -0.2598
O   -1.5623   1.5641   -0.4243
H   -2.1261   0.7754   -0.4393
H   -0.0623   -0.6203   -1.4547
H   -0.6641   -1.1225   1.2871
H   0.5500   0.9374   0.3466
H   -2.5981   -2.0059   0.3035
H   -2.0996   -1.5904   -1.2632
H   -0.3677   2.4916   0.9875
H   -1.3252   1.0166   1.6072
H   2.7652   0.3003   1.5514
H   1.6903   0.7535   -2.0147
H   2.4199   -1.3656   1.0717
H   1.2884   -0.4712   2.1205
H   2.8614   1.3060   -0.8049
H   2.8202   -0.4051   -1.2775
22
Frame 12: 12
C   -0.7690   -1.1956   0.2054
C   1.2266   0.1001   0.0296
C   -0.9015   1.5800   0.7680
C   1.9672   -0.3942   1.2699
C   2.1995   0.4762   -1.0793
N   0.3050   -0.9733   -0.5546
N   -2.0187   -1.3928   -0.2662
O   -1.5533   1.5595   -0.4246
H   -2.1103   0.7690   -0.4364
H   -0.0581   -0.6140   -1.4568
H   -0.6643   -1.1158   1.2894
H   0.5455   0.9440   0.3462
H   -2.6007   -2.0010   0.3094
H   -2.1040   -1.6025   -1.2694
H   -0.3822   2.5010   0.9883
H   -1.2929   1.0073   1.6003
H   2.7628   0.3061   1.5508
H   1.6851   0.7563   -2.0092
H   2.4211   -1.3693   1.0682
H   1.2879   -0.4755   2.1244
H   2.8580   1.3065   -0.7989
H   2.8160   -0.4083   -1.2761
22
Frame 13: 13
C   -0.7789   -1.1942   0.2064
C   1.2177   0.0977   0.0284
C   -0.8967   1.5878   0.7653
C   1.9650   -0.3969   1.2687
C   2.1956   0.4737   -1.0749
N   0.2957   -0.9662   -0.5549
N   -2.0239   -1.4017   -0.2743
O   -1.5410   1.5547   -0.4289
H   -2.0878   0.7581   -0.4317
H   -0.0491   -0.6060   -1.4603
H   -0.6652   -1.1086   1.2894
H   0.5452   0.9540   0.3432
H   -2.6054   -1.9945   0.3180
H   -2.1085   -1.6208   -1.2771
H   -0.4036   2.5177   0.9909
H   -1.2500   0.9967   1.5955
H   2.7575   0.3135   1.5487
H   1.6787   0.7597   -2.0000
H   2.4232   -1.3741   1.0652
H   1.2874   -0.4826   2.1275
H   2.8517   1.3057   -0.7893
H   2.8122   -0.4101   -1.2775
22
Frame 14: 14
C   -0.7911   -1.1963   0.2046
C   1.2098   0.0954   0.0287
C   -0.8885   1.5997   0.7616
C   1.9615   -0.4006   1.2667
C   2.1902   0.4702   -1.0691
N   0.2820   -0.9534   -0.5518
N   -2.0313   -1.4122   -0.2826
O   -1.5266   1.5474   -0.4369
H   -2.0575   0.7420   -0.4257
H   -0.0378   -0.5963   -1.4655
H   -0.6688   -1.0995   1.2862
H   0.5495   0.9657   0.3380
H   -2.6127   -1.9854   0.3279
H   -2.1132   -1.6462   -1.2841
H   -0.4310   2.5448   0.9956
H   -1.1970   0.9817   1.5933
H   2.7481   0.3206   1.5445
H   1.6709   0.7642   -1.9879
H   2.4257   -1.3775   1.0628
H   1.2876   -0.4928   2.1294
H   2.8425   1.3027   -0.7763
H   2.8077   -0.4104   -1.2811
22
Frame 15: 15
C   -0.8040   -1.1948   0.2046
C   1.2089   0.0933   0.0297
C   -0.8797   1.6063   0.7602
C   1.9580   -0.4057   1.2644
C   2.1875   0.4650   -1.0656
N   0.2663   -0.9348   -0.5453
N   -2.0388   -1.4211   -0.2880
O   -1.5158   1.5424   -0.4432
H   -2.0316   0.7258   -0.4215
H   -0.0236   -0.5897   -1.4723
H   -0.6738   -1.1019   1.2829
H   0.5630   0.9767   0.3299
H   -2.6215   -1.9786   0.3348
H   -2.1151   -1.6713   -1.2865
H   -0.4606   2.5725   1.0016
H   -1.1574   0.9793   1.5948
H   2.7356   0.3246   1.5378
H   1.6645   0.7682   -1.9773
H   2.4287   -1.3795   1.0641
H   1.2877   -0.5032   2.1272
H   2.8317   1.2975   -0.7626
H   2.8098   -0.4074   -1.2912
22
Frame 16: 16
C   -0.8121   -1.1992   0.1989
C   1.2106   0.0941   0.0328
C   -0.8676   1.6174   0.7579
C   1.9552   -0.4091   1.2635
C   2.1854   0.4620   -1.0635
N   0.2565   -0.9210   -0.5416
N   -2.0449   -1.4252   -0.2902
O   -1.5077   1.5356   -0.4454
H   -2.0106   0.7106   -0.4189
H   -0.0164   -0.5860   -1.4777
H   -0.6827   -1.1023   1.2787
H   0.5759   0.9852   0.3258
H   -2.6309   -1.9739   0.3384
H   -2.1156   -1.6926   -1.2836
H   -0.4836   2.5973   1.0062
H   -1.1303   0.9753   1.5977
H   2.7248   0.3246   1.5327
H   1.6599   0.7719   -1.9709
H   2.4309   -1.3775   1.0656
H   1.2875   -0.5120   2.1238
H   2.8244   1.2924   -0.7520
H   2.8111   -0.4039   -1.2996
22
Frame 17: 17
C   -0.8146   -1.1975   0.1977
C   1.2191   0.0945   0.0336
C   -0.8587   1.6188   0.7598
C   1.9536   -0.4128   1.2625
C   2.1884   0.4589   -1.0666
N   0.2500   -0.9084   -0.5376
N   -2.0508   -1.4244   -0.2873
O   -1.5072   1.5326   -0.4404
H   -2.0026   0.7019   -0.4198
H   -0.0105   -0.5886   -1.4830
H   -0.6920   -1.1177   1.2768
H   0.5954   0.9914   0.3227
H   -2.6395   -1.9745   0.3354
H   -2.1123   -1.7057   -1.2753
H   -0.5009   2.6119   1.0095
H   -1.1338   0.9917   1.6029
H   2.7167   0.3210   1.5282
H   1.6592   0.7741   -1.9703
H   2.4341   -1.3753   1.0709
H   1.2850   -0.5177   2.1175
H   2.8205   1.2875   -0.7452
H   2.8208   -0.3980   -1.3133
22
Frame 18: 18
C   -0.8142   -1.1990   0.1934
C   1.2220   0.0956   0.0334
C   -0.8495   1.6266   0.7603
C   1.9519   -0.4139   1.2629
C   2.1893   0.4596   -1.0686
N   0.2512   -0.9065   -0.5403
N   -2.0536   -1.4224   -0.2863
O   -1.5033   1.5279   -0.4336
H   -1.9942   0.6919   -0.4201
H   -0.0135   -0.5898   -1.4856
H   -0.7026   -1.1215   1.2747
H   0.6037   0.9955   0.3257
H   -2.6474   -1.9748   0.3331
H   -2.1122   -1.7179   -1.2686
H   -0.5108   2.6266   1.0103
H   -1.1311   0.9948   1.6035
H   2.7137   0.3185   1.5287
H   1.6580   0.7771   -1.9715
H   2.4365   -1.3723   1.0714
H   1.2820   -0.5221   2.1157
H   2.8213   1.2857   -0.7418
H   2.8227   -0.3958   -1.3183
22
Frame 19: 19
C   -0.8131   -1.1989   0.1909
C   1.2235   0.0961   0.0305
C   -0.8420   1.6336   0.7643
C   1.9505   -0.4151   1.2633
C   2.1916   0.4616   -1.0721
N   0.2534   -0.9092   -0.5446
N   -2.0576   -1.4199   -0.2855
O   -1.4995   1.5221   -0.4248
H   -1.9838   0.6823   -0.4196
H   -0.0191   -0.5915   -1.4887
H   -0.7141   -1.1266   1.2741
H   0.6114   1.0006   0.3312
H   -2.6551   -1.9752   0.3296
H   -2.1126   -1.7319   -1.2627
H   -0.5215   2.6411   1.0096
H   -1.1300   1.0025   1.6024
H   2.7135   0.3172   1.5323
H   1.6576   0.7813   -1.9740
H   2.4404   -1.3714   1.0710
H   1.2761   -0.5264   2.1146
H   2.8252   1.2855   -0.7397
H   2.8252   -0.3942   -1.3237
22
Frame 20: 20
C   -0.8145   -1.1988   0.1908
C   1.2223   0.0959   0.0275
C   -0.8386   1.6403   0.7676
C   1.9500   -0.4160   1.2633
C   2.1930   0.4638   -1.0741
N   0.2534   -0.9129   -0.5486
N   -2.0612   -1.4196   -0.2882
O   -1.4941   1.5181   -0.4200
H   -1.9713   0.6732   -0.4169
H   -0.0242   -0.5916   -1.4901
H   -0.7219   -1.1275   1.2739
H   0.6145   1.0041   0.3357
H   -2.6600   -1.9737   0.3281
H   -2.1142   -1.7454   -1.2605
H   -0.5315   2.6534   1.0084
H   -1.1223   1.0068   1.6017
H   2.7138   0.3177   1.5372
H   1.6574   0.7857   -1.9749
H   2.4439   -1.3723   1.0690
H   1.2710   -0.5303   2.1142
H   2.8293   1.2864   -0.7386
H   2.8251   -0.3938   -1.3268
22
Frame 21: 21
C   -0.8173   -1.2003   0.1914
C   1.2211   0.0957   0.0248
C   -0.8378   1.6459   0.7710
C   1.9504   -0.4172   1.2630
C   2.1946   0.4661   -1.0759
N   0.2515   -0.9164   -0.5509
N   -2.0647   -1.4194   -0.2919
O   -1.4900   1.5150   -0.4179
H   -1.9578   0.6661   -0.4126
H   -0.0297   -0.5920   -1.4903
H   -0.7274   -1.1275   1.2744
H   0.6161   1.0058   0.3392
H   -2.6627   -1.9714   0.3267
H   -2.1153   -1.7583   -1.2601
H   -0.5410   2.6626   1.0064
H   -1.1161   1.0133   1.6040
H   2.7144   0.3181   1.5436
H   1.6589   0.7904   -1.9759
H   2.4471   -1.3739   1.0671
H   1.2661   -0.5336   2.1120
H   2.8346   1.2876   -0.7395
H   2.8248   -0.3931   -1.3302
22
Frame 22: 22
C   -0.8215   -1.2015   0.1929
C   1.2205   0.0950   0.0224
C   -0.8375   1.6527   0.7737
C   1.9511   -0.4189   1.2620
C   2.1962   0.4691   -1.0776
N   0.2476   -0.9187   -0.5516
N   -2.0687   -1.4204   -0.2984
O   -1.4845   1.5124   -0.4170
H   -1.9388   0.6562   -0.4056
H   -0.0369   -0.5926   -1.4890
H   -0.7332   -1.1270   1.2751
H   0.6164   1.0050   0.3420
H   -2.6652   -1.9673   0.3251
H   -2.1169   -1.7761   -1.2608
H   -0.5536   2.6747   1.0038
H   -1.1073   1.0225   1.6104
H   2.7133   0.3176   1.5526
H   1.6621   0.7975   -1.9768
H   2.4507   -1.3755   1.0645
H   1.2607   -0.5381   2.1074
H   2.8416   1.2888   -0.7420
H   2.8235   -0.3917   -1.3347
22
Frame 23: 23
C   -0.8251   -1.2038   0.1946
C   1.2222   0.0943   0.0208
C   -0.8388   1.6574   0.7762
C   1.9527   -0.4206   1.2604
C   2.1986   0.4723   -1.0797
N   0.2444   -0.9192   -0.5493
N   -2.0708   -1.4203   -0.3047
O   -1.4826   1.5113   -0.4167
H   -1.9228   0.6494   -0.3983
H   -0.0457   -0.5953   -1.4851
H   -0.7369   -1.1281   1.2766
H   0.6151   1.0002   0.3437
H   -2.6658   -1.9634   0.3220
H   -2.1167   -1.7914   -1.2616
H   -0.5624   2.6816   0.9999
H   -1.1087   1.0375   1.6217
H   2.7120   0.3146   1.5632
H   1.6684   0.8049   -1.9794
H   2.4536   -1.3764   1.0627
H   1.2560   -0.5417   2.0996
H   2.8503   1.2896   -0.7482
H   2.8229   -0.3892   -1.3400
22
Frame 24: 24
C   -0.8267   -1.2037   0.1951
C   1.2244   0.0940   0.0211
C   -0.8378   1.6611   0.7768
C   1.9531   -0.4222   1.2589
C   2.1993   0.4743   -1.0806
N   0.2421   -0.9167   -0.5456
N   -2.0706   -1.4222   -0.3101
O   -1.4809   1.5103   -0.4162
H   -1.9106   0.6426   -0.3934
H   -0.0517   -0.5966   -1.4813
H   -0.7395   -1.1283   1.2773
H   0.6125   0.9948   0.3430
H   -2.6671   -1.9594   0.3203
H   -2.1162   -1.8046   -1.2628
H   -0.5689   2.6897   0.9973
H   -1.1078   1.0480   1.6312
H   2.7082   0.3111   1.5703
H   1.6730   0.8113   -1.9807
H   2.4548   -1.3759   1.0612
H   1.2540   -0.5456   2.0930
H   2.8555   1.2889   -0.7527
H   2.8209   -0.3873   -1.3437
22
Frame 25: 25
C   -0.8254   -1.2043   0.1953
C   1.2262   0.0948   0.0220
C   -0.8383   1.6610   0.7775
C   1.9533   -0.4227   1.2580
C   2.1994   0.4749   -1.0811
N   0.2435   -0.9155   -0.5430
N   -2.0679   -1.4226   -0.3111
O   -1.4830   1.5106   -0.4148
H   -1.9112   0.6427   -0.3929
H   -0.0543   -0.5977   -1.4783
H   -0.7389   -1.1283   1.2783
H   0.6093   0.9911   0.3422
H   -2.6664   -1.9582   0.3190
H   -2.1138   -1.8060   -1.2635
H   -0.5658   2.6878   0.9951
H   -1.1155   1.0548   1.6363
H   2.7065   0.3082   1.5729
H   1.6761   0.8134   -1.9823
H   2.4543   -1.3752   1.0610
H   1.2540   -0.5466   2.0893
H   2.8579   1.2878   -0.7564
H   2.8200   -0.3866   -1.3448
22
Frame 26: 26
C   -0.8241   -1.2036   0.1953
C   1.2267   0.0958   0.0229
C   -0.8363   1.6627   0.7782
C   1.9522   -0.4236   1.2571
C   2.1983   0.4749   -1.0810
N   0.2446   -0.9133   -0.5413
N   -2.0652   -1.4256   -0.3125
O   -1.4829   1.5091   -0.4123
H   -1.9092   0.6394   -0.3931
H   -0.0549   -0.5966   -1.4765
H   -0.7398   -1.1268   1.2787
H   0.6066   0.9902   0.3409
H   -2.6678   -1.9553   0.3191
H   -2.1114   -1.8110   -1.2648
H   -0.5651   2.6915   0.9934
H   -1.1156   1.0587   1.6391
H   2.7032   0.3063   1.5741
H   1.6768   0.8162   -1.9823
H   2.4539   -1.3746   1.0598
H   1.2538   -0.5501   2.0870
H   2.8582   1.2859   -0.7573
H   2.8178   -0.3868   -1.3459
22
Frame 27: 27
C   -0.8211   -1.2041   0.1961
C   1.2262   0.0982   0.0236
C   -0.8352   1.6652   0.7804
C   1.9505   -0.4248   1.2555
C   2.1967   0.4750   -1.0814
N   0.2471   -0.9120   -0.5396
N   -2.0598   -1.4304   -0.3146
O   -1.4839   1.5067   -0.4074
H   -1.9088   0.6358   -0.3941
H   -0.0554   -0.5944   -1.4735
H   -0.7404   -1.1232   1.2800
H   0.6022   0.9906   0.3397
H   -2.6693   -1.9506   0.3190
H   -2.1053   -1.8170   -1.2666
H   -0.5605   2.6938   0.9895
H   -1.1196   1.0668   1.6437
H   2.6992   0.3038   1.5763
H   1.6780   0.8201   -1.9828
H   2.4534   -1.3747   1.0575
H   1.2524   -0.5561   2.0837
H   2.8594   1.2828   -0.7588
H   2.8140   -0.3877   -1.3477
22
Frame 28: 28
C   -0.8182   -1.2054   0.1982
C   1.2240   0.1014   0.0236
C   -0.8336   1.6707   0.7847
C   1.9475   -0.4273   1.2532
C   2.1944   0.4754   -1.0824
N   0.2493   -0.9108   -0.5384
N   -2.0524   -1.4393   -0.3188
O   -1.4840   1.5016   -0.4001
H   -1.9034   0.6272   -0.3940
H   -0.0555   -0.5898   -1.4699
H   -0.7430   -1.1165   1.2820
H   0.5976   0.9939   0.3386
H   -2.6729   -1.9416   0.3189
H   -2.0949   -1.8313   -1.2693
H   -0.5564   2.7015   0.9830
H   -1.1208   1.0803   1.6514
H   2.6927   0.3013   1.5806
H   1.6786   0.8275   -1.9826
H   2.4536   -1.3756   1.0524
H   1.2481   -0.5680   2.0786
H   2.8619   1.2780   -0.7594
H   2.8075   -0.3897   -1.3519
22
Frame 29: 29
C   -0.8154   -1.2074   0.2012
C   1.2211   0.1042   0.0227
C   -0.8340   1.6762   0.7893
C   1.9444   -0.4299   1.2511
C   2.1925   0.4762   -1.0839
N   0.2506   -0.9112   -0.5382
N   -2.0448   -1.4489   -0.3236
O   -1.4851   1.4969   -0.3937
H   -1.8973   0.6189   -0.3926
H   -0.0555   -0.5845   -1.4669
H   -0.7455   -1.1087   1.2844
H   0.5949   0.9983   0.3386
H   -2.6762   -1.9317   0.3179
H   -2.0825   -1.8469   -1.2711
H   -0.5512   2.7079   0.9752
H   -1.1231   1.0962   1.6613
H   2.6869   0.2995   1.5861
H   1.6784   0.8353   -1.9824
H   2.4539   -1.3770   1.0460
H   1.2421   -0.5812   2.0734
H   2.8657   1.2736   -0.7592
H   2.8002   -0.3921   -1.3570
22
Frame 30: 30
C   -0.8144   -1.2090   0.2040
C   1.2188   0.1057   0.0214
C   -0.8355   1.6805   0.7927
C   1.9419   -0.4321   1.2500
C   2.1915   0.4773   -1.0855
N   0.2506   -0.9121   -0.5390
N   -2.0388   -1.4569   -0.3271
O   -1.4870   1.4936   -0.3897
H   -1.8908   0.6119   -0.3896
H   -0.0552   -0.5799   -1.4657
H   -0.7479   -1.1017   1.2864
H   0.5959   1.0026   0.3395
H   -2.6793   -1.9233   0.3157
H   -2.0708   -1.8621   -1.2715
H   -0.5473   2.7130   0.9679
H   -1.1245   1.1108   1.6712
H   2.6823   0.2988   1.5912
H   1.6771   0.8418   -1.9819
H   2.4543   -1.3778   1.0393
H   1.2357   -0.5933   2.0690
H   2.8697   1.2701   -0.7577
H   2.7936   -0.3944   -1.3622
22
Frame 31: 31
C   -0.8134   -1.2088   0.2061
C   1.2177   0.1060   0.0207
C   -0.8375   1.6828   0.7940
C   1.9399   -0.4335   1.2500
C   2.1910   0.4785   -1.0865
N   0.2502   -0.9130   -0.5403
N   -2.0339   -1.4629   -0.3298
O   -1.4902   1.4925   -0.3883
H   -1.8864   0.6079   -0.3858
H   -0.0550   -0.5761   -1.4658
H   -0.7490   -1.0954   1.2876
H   0.5987   1.0047   0.3411
H   -2.6817   -1.9175   0.3130
H   -2.0608   -1.8743   -1.2702
H   -0.5428   2.7150   0.9614
H   -1.1256   1.1217   1.6796
H   2.6789   0.2986   1.5954
H   1.6747   0.8464   -1.9810
H   2.4540   -1.3772   1.0326
H   1.2306   -0.6028   2.0660
H   2.8732   1.2676   -0.7553
H   2.7872   -0.3966   -1.3660
22
Frame 32: 32
C   -0.8131   -1.2074   0.2067
C   1.2179   0.1058   0.0209
C   -0.8383   1.6837   0.7935
C   1.9382   -0.4346   1.2504
C   2.1905   0.4796   -1.0867
N   0.2500   -0.9128   -0.5418
N   -2.0300   -1.4673   -0.3313
O   -1.4944   1.4929   -0.3879
H   -1.8828   0.6050   -0.3810
H   -0.0550   -0.5729   -1.4670
H   -0.7496   -1.0888   1.2881
H   0.6027   1.0055   0.3433
H   -2.6843   -1.9134   0.3098
H   -2.0515   -1.8865   -1.2682
H   -0.5385   2.7156   0.9551
H   -1.1254   1.1307   1.6865
H   2.6754   0.2984   1.5989
H   1.6712   0.8499   -1.9792
H   2.4534   -1.3754   1.0257
H   1.2265   -0.6109   2.0637
H   2.8762   1.2653   -0.7520
H   2.7807   -0.3986   -1.3693
22
Frame 33: 33
C   -0.8118   -1.2037   0.2067
C   1.2189   0.1055   0.0220
C   -0.8378   1.6842   0.7917
C   1.9363   -0.4356   1.2510
C   2.1895   0.4807   -1.0856
N   0.2506   -0.9112   -0.5430
N   -2.0262   -1.4714   -0.3334
O   -1.4995   1.4938   -0.3872
H   -1.8807   0.6033   -0.3758
H   -0.0554   -0.5698   -1.4682
H   -0.7492   -1.0806   1.2876
H   0.6056   1.0040   0.3457
H   -2.6872   -1.9106   0.3065
H   -2.0424   -1.8994   -1.2656
H   -0.5328   2.7151   0.9481
H   -1.1237   1.1376   1.6914
H   2.6712   0.2977   1.6025
H   1.6669   0.8531   -1.9759
H   2.4525   -1.3723   1.0180
H   1.2238   -0.6185   2.0619
H   2.8786   1.2625   -0.7484
H   2.7728   -0.4007   -1.3715
22
Frame 34: 34
C   -0.8113   -1.2008   0.2052
C   1.2199   0.1059   0.0237
C   -0.8358   1.6850   0.7897
C   1.9348   -0.4369   1.2511
C   2.1883   0.4814   -1.0839
N   0.2514   -0.9082   -0.5438
N   -2.0243   -1.4739   -0.3349
O   -1.5040   1.4948   -0.3850
H   -1.8792   0.6015   -0.3708
H   -0.0562   -0.5675   -1.4692
H   -0.7489   -1.0720   1.2864
H   0.6074   1.0026   0.3485
H   -2.6899   -1.9089   0.3032
H   -2.0340   -1.9132   -1.2630
H   -0.5281   2.7148   0.9413
H   -1.1208   1.1437   1.6936
H   2.6667   0.2965   1.6062
H   1.6630   0.8563   -1.9716
H   2.4524   -1.3694   1.0111
H   1.2223   -0.6251   2.0598
H   2.8806   1.2593   -0.7452
H   2.7656   -0.4022   -1.3739
22
Frame 35: 35
C   -0.8108   -1.1970   0.2040
C   1.2202   0.1066   0.0254
C   -0.8330   1.6871   0.7882
C   1.9335   -0.4385   1.2506
C   2.1868   0.4819   -1.0816
N   0.2519   -0.9045   -0.5440
N   -2.0226   -1.4767   -0.3384
O   -1.5080   1.4945   -0.3812
H   -1.8782   0.5997   -0.3662
H   -0.0572   -0.5653   -1.4695
H   -0.7486   -1.0625   1.2842
H   0.6069   1.0008   0.3509
H   -2.6925   -1.9075   0.3005
H   -2.0260   -1.9284   -1.2602
H   -0.5231   2.7159   0.9343
H   -1.1162   1.1492   1.6938
H   2.6616   0.2949   1.6106
H   1.6596   0.8604   -1.9662
H   2.4533   -1.3672   1.0045
H   1.2216   -0.6319   2.0576
H   2.8825   1.2556   -0.7427
H   2.7583   -0.4035   -1.3762
22
Frame 36: 36
C   -0.8118   -1.1950   0.2024
C   1.2197   0.1077   0.0270
C   -0.8304   1.6905   0.7873
C   1.9330   -0.4408   1.2496
C   2.1856   0.4821   -1.0796
N   0.2514   -0.9009   -0.5440
N   -2.0230   -1.4784   -0.3418
O   -1.5113   1.4938   -0.3762
H   -1.8777   0.5971   -0.3615
H   -0.0585   -0.5637   -1.4695
H   -0.7492   -1.0529   1.2817
H   0.6060   1.0009   0.3536
H   -2.6942   -1.9066   0.2974
H   -2.0179   -1.9456   -1.2571
H   -0.5187   2.7184   0.9270
H   -1.1118   1.1561   1.6934
H   2.6569   0.2930   1.6161
H   1.6570   0.8656   -1.9601
H   2.4561   -1.3664   0.9990
H   1.2209   -0.6389   2.0545
H   2.8851   1.2516   -0.7409
H   2.7526   -0.4041   -1.3799
22
Frame 37: 37
C   -0.8139   -1.1920   0.2017
C   1.2183   0.1086   0.0281
C   -0.8285   1.6955   0.7872
C   1.9329   -0.4439   1.2481
C   2.1846   0.4823   -1.0777
N   0.2497   -0.8979   -0.5439
N   -2.0231   -1.4807   -0.3475
O   -1.5152   1.4921   -0.3706
H   -1.8782   0.5944   -0.3565
H   -0.0594   -0.5619   -1.4693
H   -0.7504   -1.0424   1.2789
H   0.6044   1.0020   0.3563
H   -2.6951   -1.9058   0.2940
H   -2.0086   -1.9659   -1.2529
H   -0.5133   2.7228   0.9188
H   -1.1070   1.1648   1.6937
H   2.6518   0.2908   1.6229
H   1.6547   0.8728   -1.9533
H   2.4606   -1.3668   0.9937
H   1.2201   -0.6476   2.0509
H   2.8888   1.2471   -0.7394
H   2.7470   -0.4046   -1.3847
22
Frame 38: 38
C   -0.8175   -1.1891   0.2009
C   1.2167   0.1090   0.0290
C   -0.8279   1.7014   0.7872
C   1.9334   -0.4480   1.2467
C   2.1841   0.4825   -1.0765
N   0.2468   -0.8957   -0.5439
N   -2.0241   -1.4828   -0.3535
O   -1.5203   1.4908   -0.3654
H   -1.8809   0.5920   -0.3505
H   -0.0600   -0.5602   -1.4696
H   -0.7529   -1.0317   1.2763
H   0.6041   1.0045   0.3592
H   -2.6948   -1.9057   0.2896
H   -1.9977   -1.9890   -1.2473
H   -0.5065   2.7280   0.9096
H   -1.1043   1.1763   1.6961
H   2.6470   0.2881   1.6309
H   1.6526   0.8818   -1.9463
H   2.4669   -1.3681   0.9890
H   1.2188   -0.6581   2.0464
H   2.8939   1.2422   -0.7378
H   2.7423   -0.4047   -1.3915
22
Frame 39: 39
C   -0.8222   -1.1842   0.2003
C   1.2154   0.1086   0.0298
C   -0.8286   1.7079   0.7869
C   1.9343   -0.4532   1.2457
C   2.1839   0.4829   -1.0757
N   0.2433   -0.8942   -0.5441
N   -2.0243   -1.4855   -0.3610
O   -1.5276   1.4902   -0.3614
H   -1.8873   0.5910   -0.3434
H   -0.0597   -0.5581   -1.4707
H   -0.7568   -1.0206   1.2742
H   0.6049   1.0072   0.3617
H   -2.6935   -1.9066   0.2849
H   -1.9846   -2.0153   -1.2401
H   -0.4971   2.7338   0.8989
H   -1.1031   1.1907   1.7010
H   2.6421   0.2847   1.6394
H   1.6504   0.8931   -1.9391
H   2.4748   -1.3698   0.9848
H   1.2177   -0.6711   2.0415
H   2.9001   1.2366   -0.7356
H   2.7376   -0.4046   -1.3997
22
Frame 40: 40
C   -0.8270   -1.1782   0.1991
C   1.2154   0.1074   0.0308
C   -0.8300   1.7135   0.7856
C   1.9355   -0.4584   1.2454
C   2.1840   0.4835   -1.0756
N   0.2404   -0.8933   -0.5444
N   -2.0248   -1.4880   -0.3677
O   -1.5359   1.4914   -0.3593
H   -1.8975   0.5924   -0.3359
H   -0.0584   -0.5565   -1.4726
H   -0.7622   -1.0109   1.2728
H   0.6072   1.0091   0.3637
H   -2.6911   -1.9091   0.2807
H   -1.9717   -2.0400   -1.2324
H   -0.4869   2.7381   0.8885
H   -1.1038   1.2053   1.7072
H   2.6382   0.2810   1.6465
H   1.6484   0.9045   -1.9329
H   2.4829   -1.3710   0.9823
H   1.2173   -0.6845   2.0375
H   2.9061   1.2312   -0.7329
H   2.7337   -0.4039   -1.4079
22
Frame 41: 41
C   -0.8310   -1.1718   0.1972
C   1.2165   0.1058   0.0319
C   -0.8312   1.7171   0.7833
C   1.9368   -0.4627   1.2460
C   2.1841   0.4844   -1.0757
N   0.2389   -0.8929   -0.5449
N   -2.0251   -1.4903   -0.3729
O   -1.5436   1.4941   -0.3595
H   -1.9108   0.5970   -0.3295
H   -0.0560   -0.5554   -1.4750
H   -0.7689   -1.0040   1.2719
H   0.6095   1.0092   0.3646
H   -2.6877   -1.9133   0.2789
H   -1.9620   -2.0584   -1.2258
H   -0.4778   2.7403   0.8803
H   -1.1047   1.2163   1.7121
H   2.6362   0.2776   1.6502
H   1.6472   0.9140   -1.9288
H   2.4898   -1.3715   0.9824
H   1.2186   -0.6960   2.0358
H   2.9104   1.2269   -0.7300
H   2.7309   -0.4028   -1.4140
22
Frame 42: 42
C   -0.8349   -1.1650   0.1940
C   1.2180   0.1041   0.0332
C   -0.8305   1.7219   0.7803
C   1.9373   -0.4675   1.2467
C   2.1834   0.4863   -1.0756
N   0.2380   -0.8917   -0.5456
N   -2.0252   -1.4948   -0.3787
O   -1.5506   1.4969   -0.3594
H   -1.9230   0.6014   -0.3211
H   -0.0535   -0.5536   -1.4774
H   -0.7795   -0.9948   1.2702
H   0.6116   1.0080   0.3658
H   -2.6849   -1.9166   0.2785
H   -1.9512   -2.0820   -1.2199
H   -0.4707   2.7446   0.8704
H   -1.1013   1.2289   1.7173
H   2.6333   0.2737   1.6540
H   1.6463   0.9258   -1.9247
H   2.4970   -1.3711   0.9820
H   1.2200   -0.7113   2.0344
H   2.9149   1.2218   -0.7256
H   2.7256   -0.4014   -1.4205
22
Frame 43: 43
C   -0.8375   -1.1599   0.1897
C   1.2199   0.1019   0.0344
C   -0.8301   1.7226   0.7758
C   1.9385   -0.4701   1.2486
C   2.1828   0.4883   -1.0752
N   0.2393   -0.8919   -0.5464
N   -2.0258   -1.4985   -0.3809
O   -1.5548   1.5019   -0.3618
H   -1.9415   0.6131   -0.3157
H   -0.0495   -0.5537   -1.4797
H   -0.7910   -0.9899   1.2676
H   0.6118   1.0040   0.3658
H   -2.6788   -1.9231   0.2821
H   -1.9482   -2.0895   -1.2160
H   -0.4655   2.7429   0.8652
H   -1.0982   1.2319   1.7161
H   2.6350   0.2712   1.6520
H   1.6477   0.9323   -1.9238
H   2.5021   -1.3705   0.9866
H   1.2253   -0.7200   2.0377
H   2.9158   1.2196   -0.7220
H   2.7228   -0.3990   -1.4218
22
Frame 44: 44
C   -0.8414   -1.1547   0.1852
C   1.2199   0.1011   0.0361
C   -0.8252   1.7314   0.7730
C   1.9375   -0.4761   1.2486
C   2.1804   0.4920   -1.0736
N   0.2385   -0.8888   -0.5473
N   -2.0241   -1.5093   -0.3891
O   -1.5591   1.5025   -0.3574
H   -1.9473   0.6148   -0.3025
H   -0.0479   -0.5497   -1.4810
H   -0.8083   -0.9728   1.2626
H   0.6118   1.0017   0.3691
H   -2.6777   -1.9222   0.2834
H   -1.9343   -2.1264   -1.2115
H   -0.4624   2.7529   0.8501
H   -1.0844   1.2491   1.7203
H   2.6288   0.2668   1.6588
H   1.6473   0.9490   -1.9180
H   2.5101   -1.3694   0.9821
H   1.2256   -0.7431   2.0350
H   2.9217   1.2127   -0.7153
H   2.7104   -0.3977   -1.4300
22
Frame 45: 45
C   -0.8416   -1.1567   0.1837
C   1.2189   0.1008   0.0362
C   -0.8232   1.7326   0.7723
C   1.9374   -0.4765   1.2486
C   2.1797   0.4934   -1.0726
N   0.2389   -0.8887   -0.5474
N   -2.0233   -1.5138   -0.3894
O   -1.5566   1.5026   -0.3558
H   -1.9486   0.6176   -0.2999
H   -0.0473   -0.5497   -1.4804
H   -0.8147   -0.9689   1.2588
H   0.6101   0.9997   0.3704
H   -2.6760   -1.9219   0.2860
H   -1.9357   -2.1281   -1.2118
H   -0.4652   2.7540   0.8480
H   -1.0784   1.2489   1.7166
H   2.6291   0.2668   1.6583
H   1.6494   0.9506   -1.9178
H   2.5107   -1.3692   0.9820
H   1.2273   -0.7459   2.0360
H   2.9215   1.2128   -0.7136
H   2.7073   -0.3968   -1.4296
22
Frame 46: 46
C   -0.8437   -1.1579   0.1816
C   1.2170   0.1004   0.0371
C   -0.8206   1.7385   0.7720
C   1.9374   -0.4797   1.2477
C   2.1787   0.4954   -1.0708
N   0.2376   -0.8876   -0.5475
N   -2.0210   -1.5227   -0.3939
O   -1.5571   1.5014   -0.3509
H   -1.9497   0.6179   -0.2916
H   -0.0469   -0.5484   -1.4799
H   -0.8249   -0.9565   1.2525
H   0.6095   0.9992   0.3744
H   -2.6746   -1.9200   0.2856
H   -1.9294   -2.1463   -1.2079
H   -0.4646   2.7600   0.8386
H   -1.0704   1.2589   1.7165
H   2.6252   0.2649   1.6635
H   1.6508   0.9590   -1.9134
H   2.5149   -1.3694   0.9769
H   1.2272   -0.7572   2.0327
H   2.9251   1.2096   -0.7099
H   2.6995   -0.3959   -1.4346
22
Frame 47: 47
C   -0.8468   -1.1569   0.1793
C   1.2158   0.0996   0.0382
C   -0.8182   1.7457   0.7715
C   1.9377   -0.4843   1.2466
C   2.1781   0.4971   -1.0692
N   0.2358   -0.8860   -0.5476
N   -2.0185   -1.5322   -0.3999
O   -1.5600   1.5005   -0.3463
H   -1.9520   0.6172   -0.2817
H   -0.0461   -0.5469   -1.4804
H   -0.8356   -0.9432   1.2467
H   0.6109   0.9994   0.3787
H   -2.6739   -1.9189   0.2834
H   -1.9206   -2.1695   -1.2015
H   -0.4621   2.7675   0.8274
H   -1.0641   1.2731   1.7196
H   2.6198   0.2620   1.6700
H   1.6514   0.9694   -1.9076
H   2.5204   -1.3695   0.9707
H   1.2266   -0.7706   2.0278
H   2.9297   1.2051   -0.7054
H   2.6917   -0.3949   -1.4419
22
Frame 48: 48
C   -0.8514   -1.1538   0.1754
C   1.2154   0.0983   0.0402
C   -0.8152   1.7560   0.7703
C   1.9382   -0.4916   1.2448
C   2.1776   0.4992   -1.0670
N   0.2337   -0.8836   -0.5479
N   -2.0147   -1.5460   -0.4081
O   -1.5661   1.4993   -0.3401
H   -1.9566   0.6163   -0.2662
H   -0.0443   -0.5453   -1.4821
H   -0.8510   -0.9237   1.2388
H   0.6146   1.0000   0.3853
H   -2.6734   -1.9187   0.2787
H   -1.9069   -2.2043   -1.1903
H   -0.4570   2.7785   0.8104
H   -1.0576   1.2961   1.7261
H   2.6111   0.2571   1.6796
H   1.6518   0.9850   -1.8981
H   2.5286   -1.3694   0.9608
H   1.2254   -0.7904   2.0195
H   2.9365   1.1976   -0.6981
H   2.6811   -0.3930   -1.4537
22
Frame 49: 49
C   -0.8541   -1.1506   0.1724
C   1.2158   0.0975   0.0417
C   -0.8131   1.7635   0.7695
C   1.9386   -0.4969   1.2432
C   2.1776   0.5003   -1.0653
N   0.2331   -0.8820   -0.5482
N   -2.0111   -1.5568   -0.4132
O   -1.5705   1.4983   -0.3359
H   -1.9592   0.6148   -0.2544
H   -0.0425   -0.5449   -1.4836
H   -0.8617   -0.9099   1.2332
H   0.6180   1.0002   0.3902
H   -2.6743   -1.9193   0.2745
H   -1.8981   -2.2279   -1.1816
H   -0.4538   2.7866   0.7984
H   -1.0547   1.3141   1.7319
H   2.6041   0.2530   1.6861
H   1.6524   0.9957   -1.8907
H   2.5340   -1.3691   0.9527
H   1.2244   -0.8036   2.0124
H   2.9408   1.1919   -0.6926
H   2.6743   -0.3913   -1.4621
22
Frame 50: 50
C   -0.8558   -1.1470   0.1695
C   1.2167   0.0973   0.0429
C   -0.8117   1.7688   0.7685
C   1.9389   -0.5010   1.2416
C   2.1777   0.5011   -1.0638
N   0.2338   -0.8809   -0.5487
N   -2.0085   -1.5647   -0.4159
O   -1.5742   1.4973   -0.3328
H   -1.9616   0.6139   -0.2446
H   -0.0404   -0.5453   -1.4852
H   -0.8694   -0.8989   1.2292
H   0.6202   1.0000   0.3939
H   -2.6758   -1.9211   0.2710
H   -1.8919   -2.2453   -1.1752
H   -0.4512   2.7921   0.7892
H   -1.0535   1.3285   1.7366
H   2.5990   0.2494   1.6906
H   1.6527   1.0038   -1.8847
H   2.5379   -1.3687   0.9461
H   1.2236   -0.8131   2.0066
H   2.9438   1.1872   -0.6883
H   2.6698   -0.3897   -1.4679
22
Frame 51: 51
C   -0.8559   -1.1441   0.1676
C   1.2172   0.0976   0.0434
C   -0.8111   1.7720   0.7682
C   1.9389   -0.5032   1.2397
C   2.1776   0.5015   -1.0627
N   0.2356   -0.8810   -0.5492
N   -2.0060   -1.5709   -0.4159
O   -1.5754   1.4959   -0.3311
H   -1.9617   0.6124   -0.2376
H   -0.0377   -0.5466   -1.4865
H   -0.8732   -0.8910   1.2266
H   0.6201   0.9994   0.3957
H   -2.6783   -1.9231   0.2691
H   -1.8901   -2.2530   -1.1723
H   -0.4505   2.7955   0.7839
H   -1.0537   1.3383   1.7401
H   2.5959   0.2466   1.6923
H   1.6533   1.0082   -1.8807
H   2.5392   -1.3684   0.9410
H   1.2228   -0.8179   2.0022
H   2.9448   1.1841   -0.6855
H   2.6680   -0.3886   -1.4699
22
Frame 52: 52
C   -0.8569   -1.1398   0.1649
C   1.2172   0.0979   0.0439
C   -0.8103   1.7769   0.7674
C   1.9388   -0.5066   1.2375
C   2.1773   0.5027   -1.0609
N   0.2376   -0.8813   -0.5501
N   -2.0042   -1.5786   -0.4160
O   -1.5775   1.4940   -0.3286
H   -1.9641   0.6117   -0.2269
H   -0.0333   -0.5483   -1.4886
H   -0.8794   -0.8780   1.2224
H   0.6188   0.9983   0.3979
H   -2.6806   -1.9269   0.2672
H   -1.8864   -2.2664   -1.1690
H   -0.4485   2.7999   0.7755
H   -1.0523   1.3520   1.7440
H   2.5928   0.2423   1.6948
H   1.6538   1.0160   -1.8751
H   2.5423   -1.3683   0.9348
H   1.2223   -0.8266   1.9969
H   2.9474   1.1796   -0.6813
H   2.6651   -0.3868   -1.4722
22
Frame 53: 53
C   -0.8561   -1.1383   0.1637
C   1.2163   0.0987   0.0432
C   -0.8112   1.7783   0.7679
C   1.9386   -0.5069   1.2349
C   2.1773   0.5035   -1.0596
N   0.2405   -0.8841   -0.5511
N   -2.0036   -1.5829   -0.4105
O   -1.5750   1.4907   -0.3287
H   -1.9630   0.6103   -0.2203
H   -0.0267   -0.5530   -1.4910
H   -0.8795   -0.8700   1.2194
H   0.6144   0.9968   0.3971
H   -2.6839   -1.9324   0.2681
H   -1.8916   -2.2609   -1.1714
H   -0.4508   2.8009   0.7742
H   -1.0541   1.3575   1.7453
H   2.5946   0.2395   1.6921
H   1.6554   1.0174   -1.8734
H   2.5411   -1.3689   0.9316
H   1.2219   -0.8263   1.9937
H   2.9469   1.1789   -0.6790
H   2.6683   -0.3852   -1.4679
22
Frame 54: 54
C   -0.8578   -1.1351   0.1614
C   1.2138   0.0986   0.0430
C   -0.8106   1.7850   0.7680
C   1.9378   -0.5108   1.2319
C   2.1763   0.5066   -1.0573
N   0.2418   -0.8859   -0.5524
N   -2.0015   -1.5942   -0.4101
O   -1.5754   1.4864   -0.3253
H   -1.9656   0.6085   -0.2058
H   -0.0181   -0.5563   -1.4943
H   -0.8870   -0.8492   1.2127
H   0.6090   0.9948   0.3979
H   -2.6862   -1.9375   0.2690
H   -1.8880   -2.2742   -1.1709
H   -0.4488   2.8075   0.7632
H   -1.0510   1.3746   1.7502
H   2.5936   0.2339   1.6939
H   1.6567   1.0285   -1.8683
H   2.5441   -1.3696   0.9243
H   1.2209   -0.8393   1.9879
H   2.9511   1.1747   -0.6729
H   2.6649   -0.3832   -1.4677
22
Frame 55: 55
C   -0.8599   -1.1356   0.1612
C   1.2121   0.0975   0.0419
C   -0.8111   1.7860   0.7685
C   1.9380   -0.5110   1.2311
C   2.1771   0.5085   -1.0564
N   0.2405   -0.8879   -0.5530
N   -2.0049   -1.5946   -0.4054
O   -1.5733   1.4834   -0.3249
H   -1.9677   0.6087   -0.2004
H   -0.0114   -0.5625   -1.4981
H   -0.8871   -0.8418   1.2080
H   0.6060   0.9930   0.3960
H   -2.6860   -1.9445   0.2715
H   -1.8925   -2.2678   -1.1734
H   -0.4511   2.8083   0.7621
H   -1.0522   1.3775   1.7494
H   2.5984   0.2319   1.6908
H   1.6583   1.0300   -1.8687
H   2.5440   -1.3706   0.9245
H   1.2215   -0.8397   1.9873
H   2.9519   1.1763   -0.6701
H   2.6691   -0.3812   -1.4635
22
Frame 56: 56
C   -0.8617   -1.1360   0.1607
C   1.2108   0.0964   0.0417
C   -0.8103   1.7880   0.7690
C   1.9378   -0.5123   1.2310
C   2.1773   0.5103   -1.0558
N   0.2386   -0.8883   -0.5533
N   -2.0053   -1.5977   -0.4059
O   -1.5737   1.4809   -0.3226
H   -1.9690   0.6072   -0.1956
H   -0.0079   -0.5659   -1.5006
H   -0.8889   -0.8332   1.2045
H   0.6052   0.9918   0.3957
H   -2.6852   -1.9471   0.2729
H   -1.8911   -2.2694   -1.1731
H   -0.4502   2.8110   0.7577
H   -1.0523   1.3832   1.7512
H   2.5994   0.2302   1.6910
H   1.6592   1.0334   -1.8684
H   2.5441   -1.3710   0.9222
H   1.2211   -0.8446   1.9863
H   2.9538   1.1768   -0.6669
H   2.6681   -0.3802   -1.4632
22
Frame 57: 57
C   -0.8640   -1.1343   0.1601
C   1.2108   0.0950   0.0415
C   -0.8092   1.7891   0.7691
C   1.9377   -0.5137   1.2315
C   2.1782   0.5118   -1.0552
N   0.2365   -0.8877   -0.5536
N   -2.0069   -1.5982   -0.4067
O   -1.5754   1.4792   -0.3201
H   -1.9707   0.6055   -0.1920
H   -0.0056   -0.5706   -1.5039
H   -0.8895   -0.8270   1.2018
H   0.6064   0.9902   0.3956
H   -2.6838   -1.9505   0.2736
H   -1.8896   -2.2702   -1.1719
H   -0.4492   2.8127   0.7537
H   -1.0538   1.3881   1.7527
H   2.6000   0.2287   1.6912
H   1.6601   1.0354   -1.8681
H   2.5439   -1.3712   0.9205
H   1.2212   -0.8478   1.9862
H   2.9548   1.1779   -0.6638
H   2.6678   -0.3788   -1.4638
22
Frame 58: 58
C   -0.8660   -1.1314   0.1582
C   1.2111   0.0940   0.0414
C   -0.8082   1.7897   0.7692
C   1.9375   -0.5154   1.2316
C   2.1790   0.5132   -1.0541
N   0.2354   -0.8874   -0.5544
N   -2.0084   -1.5982   -0.4067
O   -1.5778   1.4770   -0.3169
H   -1.9725   0.6030   -0.1876
H   -0.0029   -0.5772   -1.5080
H   -0.8895   -0.8188   1.1994
H   0.6074   0.9887   0.3959
H   -2.6823   -1.9552   0.2745
H   -1.8879   -2.2696   -1.1710
H   -0.4474   2.8136   0.7486
H   -1.0563   1.3943   1.7551
H   2.6002   0.2266   1.6912
H   1.6616   1.0370   -1.8675
H   2.5429   -1.3716   0.9178
H   1.2216   -0.8509   1.9861
H   2.9549   1.1793   -0.6603
H   2.6676   -0.3770   -1.4640
22
Frame 59: 59
C   -0.8673   -1.1258   0.1570
C   1.2114   0.0931   0.0408
C   -0.8077   1.7895   0.7696
C   1.9368   -0.5168   1.2312
C   2.1797   0.5141   -1.0530
N   0.2355   -0.8872   -0.5552
N   -2.0100   -1.5969   -0.4058
O   -1.5803   1.4746   -0.3140
H   -1.9737   0.5999   -0.1843
H   0.0001   -0.5857   -1.5125
H   -0.8880   -0.8123   1.1978
H   0.6077   0.9868   0.3954
H   -2.6801   -1.9605   0.2762
H   -1.8877   -2.2653   -1.1720
H   -0.4461   2.8130   0.7444
H   -1.0595   1.3999   1.7578
H   2.6004   0.2246   1.6899
H   1.6638   1.0372   -1.8674
H   2.5405   -1.3730   0.9156
H   1.2225   -0.8522   1.9872
H   2.9531   1.1815   -0.6571
H   2.6689   -0.3750   -1.4633
22
Frame 60: 60
C   -0.8681   -1.1211   0.1545
C   1.2109   0.0929   0.0404
C   -0.8083   1.7893   0.7701
C   1.9362   -0.5186   1.2303
C   2.1799   0.5150   -1.0515
N   0.2365   -0.8882   -0.5564
N   -2.0111   -1.5956   -0.4042
O   -1.5829   1.4725   -0.3114
H   -1.9758   0.5977   -0.1800
H   0.0036   -0.5949   -1.5167
H   -0.8884   -0.8039   1.1959
H   0.6069   0.9860   0.3959
H   -2.6767   -1.9661   0.2787
H   -1.8874   -2.2605   -1.1736
H   -0.4444   2.8117   0.7393
H   -1.0616   1.4058   1.7606
H   2.6003   0.2222   1.6885
H   1.6670   1.0376   -1.8671
H   2.5385   -1.3753   0.9134
H   1.2240   -0.8537   1.9884
H   2.9505   1.1837   -0.6539
H   2.6703   -0.3728   -1.4626
22
Frame 61: 61
C   -0.8678   -1.1170   0.1539
C   1.2098   0.0929   0.0396
C   -0.8098   1.7884   0.7708
C   1.9354   -0.5196   1.2292
C   2.1796   0.5150   -1.0506
N   0.2379   -0.8894   -0.5570
N   -2.0113   -1.5932   -0.4024
O   -1.5844   1.4710   -0.3104
H   -1.9765   0.5963   -0.1788
H   0.0061   -0.6023   -1.5191
H   -0.8884   -0.8004   1.1947
H   0.6053   0.9859   0.3959
H   -2.6725   -1.9694   0.2817
H   -1.8888   -2.2534   -1.1769
H   -0.4439   2.8094   0.7369
H   -1.0619   1.4081   1.7627
H   2.6002   0.2211   1.6864
H   1.6699   1.0366   -1.8681
H   2.5360   -1.3782   0.9132
H   1.2258   -0.8530   1.9906
H   2.9468   1.1863   -0.6524
H   2.6727   -0.3713   -1.4613
22
Frame 62: 62
C   -0.8675   -1.1162   0.1531
C   1.2083   0.0930   0.0394
C   -0.8112   1.7890   0.7710
C   1.9350   -0.5209   1.2281
C   2.1791   0.5152   -1.0500
N   0.2387   -0.8907   -0.5572
N   -2.0108   -1.5930   -0.4019
O   -1.5857   1.4705   -0.3098
H   -1.9778   0.5960   -0.1763
H   0.0081   -0.6065   -1.5202
H   -0.8915   -0.7958   1.1924
H   0.6038   0.9863   0.3970
H   -2.6688   -1.9711   0.2835
H   -1.8887   -2.2517   -1.1782
H   -0.4432   2.8089   0.7338
H   -1.0600   1.4109   1.7644
H   2.5996   0.2198   1.6857
H   1.6716   1.0378   -1.8682
H   2.5355   -1.3805   0.9126
H   1.2269   -0.8543   1.9912
H   2.9450   1.1872   -0.6508
H   2.6736   -0.3703   -1.4613
22
Frame 63: 63
C   -0.8668   -1.1170   0.1536
C   1.2075   0.0929   0.0392
C   -0.8121   1.7888   0.7712
C   1.9347   -0.5211   1.2279
C   2.1787   0.5152   -1.0504
N   0.2388   -0.8913   -0.5568
N   -2.0103   -1.5917   -0.4019
O   -1.5863   1.4705   -0.3098
H   -1.9774   0.5959   -0.1768
H   0.0086   -0.6080   -1.5200
H   -0.8927   -0.7956   1.1915
H   0.6031   0.9867   0.3974
H   -2.6664   -1.9709   0.2846
H   -1.8893   -2.2493   -1.1792
H   -0.4433   2.8083   0.7336
H   -1.0581   1.4102   1.7647
H   2.5995   0.2198   1.6850
H   1.6715   1.0374   -1.8691
H   2.5347   -1.3817   0.9131
H   1.2271   -0.8535   1.9920
H   2.9437   1.1881   -0.6506
H   2.6749   -0.3703   -1.4607
22
Frame 64: 64
C   -0.8667   -1.1174   0.1536
C   1.2071   0.0927   0.0393
C   -0.8123   1.7898   0.7710
C   1.9344   -0.5219   1.2275
C   2.1784   0.5156   -1.0505
N   0.2389   -0.8916   -0.5566
N   -2.0099   -1.5919   -0.4026
O   -1.5878   1.4704   -0.3089
H   -1.9775   0.5953   -0.1752
H   0.0098   -0.6096   -1.5202
H   -0.8950   -0.7927   1.1898
H   0.6026   0.9864   0.3982
H   -2.6646   -1.9713   0.2848
H   -1.8888   -2.2502   -1.1790
H   -0.4427   2.8091   0.7315
H   -1.0558   1.4122   1.7657
H   2.5990   0.2189   1.6852
H   1.6707   1.0388   -1.8690
H   2.5345   -1.3824   0.9122
H   1.2268   -0.8547   1.9915
H   2.9435   1.1882   -0.6494
H   2.6754   -0.3699   -1.4606
22
Frame 65: 65
C   -0.8662   -1.1182   0.1540
C   1.2072   0.0924   0.0392
C   -0.8124   1.7896   0.7708
C   1.9340   -0.5220   1.2277
C   2.1781   0.5159   -1.0512
N   0.2390   -0.8920   -0.5560
N   -2.0101   -1.5898   -0.4031
O   -1.5894   1.4707   -0.3079
H   -1.9765   0.5942   -0.1759
H   0.0106   -0.6114   -1.5202
H   -0.8953   -0.7926   1.1894
H   0.6024   0.9859   0.3983
H   -2.6626   -1.9715   0.2852
H   -1.8894   -2.2478   -1.1795
H   -0.4427   2.8089   0.7313
H   -1.0536   1.4116   1.7658
H   2.5992   0.2185   1.6845
H   1.6689   1.0381   -1.8698
H   2.5330   -1.3829   0.9123
H   1.2259   -0.8533   1.9917
H   2.9423   1.1891   -0.6490
H   2.6774   -0.3697   -1.4592
22
Frame 66: 66
C   -0.8662   -1.1175   0.1537
C   1.2076   0.0920   0.0392
C   -0.8119   1.7904   0.7705
C   1.9336   -0.5227   1.2275
C   2.1779   0.5164   -1.0514
N   0.2395   -0.8924   -0.5557
N   -2.0102   -1.5893   -0.4039
O   -1.5921   1.4707   -0.3057
H   -1.9761   0.5925   -0.1745
H   0.0126   -0.6141   -1.5208
H   -0.8966   -0.7899   1.1886
H   0.6022   0.9846   0.3985
H   -2.6609   -1.9726   0.2849
H   -1.8891   -2.2481   -1.1792
H   -0.4420   2.8097   0.7291
H   -1.0514   1.4143   1.7668
H   2.5991   0.2171   1.6845
H   1.6668   1.0388   -1.8694
H   2.5320   -1.3835   0.9111
H   1.2245   -0.8537   1.9907
H   2.9415   1.1894   -0.6478
H   2.6790   -0.3687   -1.4583
22
Frame 67: 67
C   -0.8661   -1.1169   0.1536
C   1.2082   0.0916   0.0390
C   -0.8114   1.7901   0.7702
C   1.9334   -0.5227   1.2276
C   2.1777   0.5166   -1.0516
N   0.2401   -0.8929   -0.5553
N   -2.0106   -1.5875   -0.4042
O   -1.5944   1.4713   -0.3040
H   -1.9752   0.5913   -0.1750
H   0.0140   -0.6162   -1.5210
H   -0.8962   -0.7903   1.1893
H   0.6021   0.9837   0.3979
H   -2.6597   -1.9733   0.2850
H   -1.8896   -2.2458   -1.1799
H   -0.4419   2.8094   0.7287
H   -1.0500   1.4147   1.7670
H   2.5998   0.2165   1.6840
H   1.6650   1.0375   -1.8695
H   2.5303   -1.3842   0.9111
H   1.2231   -0.8521   1.9903
H   2.9401   1.1906   -0.6478
H   2.6813   -0.3677   -1.4569
22
Frame 68: 68
C   -0.8664   -1.1157   0.1531
C   1.2086   0.0912   0.0389
C   -0.8109   1.7906   0.7701
C   1.9333   -0.5231   1.2274
C   2.1775   0.5169   -1.0512
N   0.2409   -0.8937   -0.5550
N   -2.0108   -1.5874   -0.4046
O   -1.5969   1.4718   -0.3019
H   -1.9752   0.5905   -0.1740
H   0.0159   -0.6182   -1.5213
H   -0.8968   -0.7894   1.1895
H   0.6021   0.9829   0.3974
H   -2.6590   -1.9743   0.2848
H   -1.8893   -2.2458   -1.1803
H   -0.4414   2.8098   0.7270
H   -1.0487   1.4170   1.7678
H   2.6002   0.2155   1.6841
H   1.6639   1.0370   -1.8688
H   2.5294   -1.3850   0.9107
H   1.2217   -0.8520   1.9891
H   2.9391   1.1913   -0.6476
H   2.6825   -0.3663   -1.4565
22
Frame 69: 69
C   -0.8667   -1.1150   0.1527
C   1.2088   0.0907   0.0388
C   -0.8105   1.7910   0.7700
C   1.9333   -0.5233   1.2274
C   2.1772   0.5171   -1.0507
N   0.2416   -0.8949   -0.5547
N   -2.0109   -1.5872   -0.4049
O   -1.5991   1.4728   -0.3001
H   -1.9752   0.5902   -0.1737
H   0.0177   -0.6198   -1.5213
H   -0.8972   -0.7899   1.1899
H   0.6020   0.9824   0.3965
H   -2.6584   -1.9748   0.2848
H   -1.8891   -2.2451   -1.1811
H   -0.4410   2.8100   0.7258
H   -1.0471   1.4183   1.7682
H   2.6011   0.2148   1.6841
H   1.6631   1.0357   -1.8683
H   2.5284   -1.3861   0.9111
H   1.2203   -0.8514   1.9881
H   2.9378   1.1929   -0.6481
H   2.6838   -0.3648   -1.4561
22
Frame 70: 70
C   -0.8670   -1.1147   0.1522
C   1.2087   0.0901   0.0390
C   -0.8102   1.7920   0.7700
C   1.9334   -0.5237   1.2274
C   2.1770   0.5174   -1.0500
N   0.2422   -0.8963   -0.5545
N   -2.0106   -1.5881   -0.4053
O   -1.6016   1.4738   -0.2981
H   -1.9755   0.5903   -0.1723
H   0.0196   -0.6212   -1.5214
H   -0.8984   -0.7895   1.1893
H   0.6019   0.9822   0.3958
H   -2.6580   -1.9751   0.2847
H   -1.8883   -2.2458   -1.1818
H   -0.4403   2.8108   0.7237
H   -1.0449   1.4202   1.7690
H   2.6018   0.2138   1.6846
H   1.6626   1.0349   -1.8676
H   2.5277   -1.3872   0.9113
H   1.2191   -0.8516   1.9869
H   2.9367   1.1947   -0.6484
H   2.6842   -0.3633   -1.4563
22
Frame 71: 71
C   -0.8672   -1.1152   0.1520
C   1.2085   0.0897   0.0392
C   -0.8101   1.7930   0.7700
C   1.9334   -0.5239   1.2277
C   2.1768   0.5176   -1.0494
N   0.2425   -0.8975   -0.5543
N   -2.0103   -1.5887   -0.4056
O   -1.6034   1.4749   -0.2967
H   -1.9754   0.5906   -0.1713
H   0.0209   -0.6223   -1.5213
H   -0.8994   -0.7897   1.1885
H   0.6017   0.9822   0.3953
H   -2.6581   -1.9750   0.2846
H   -1.8878   -2.2462   -1.1824
H   -0.4397   2.8116   0.7223
H   -1.0424   1.4210   1.7695
H   2.6024   0.2130   1.6850
H   1.6621   1.0339   -1.8674
H   2.5270   -1.3883   0.9119
H   1.2181   -0.8515   1.9863
H   2.9356   1.1969   -0.6489
H   2.6845   -0.3623   -1.4565
22
Frame 72: 72
C   -0.8672   -1.1159   0.1517
C   1.2084   0.0895   0.0395
C   -0.8099   1.7941   0.7701
C   1.9332   -0.5243   1.2279
C   2.1768   0.5180   -1.0492
N   0.2428   -0.8982   -0.5542
N   -2.0100   -1.5897   -0.4060
O   -1.6049   1.4757   -0.2954
H   -1.9752   0.5908   -0.1699
H   0.0219   -0.6233   -1.5214
H   -0.9001   -0.7894   1.1874
H   0.6014   0.9823   0.3950
H   -2.6585   -1.9750   0.2842
H   -1.8872   -2.2471   -1.1828
H   -0.4390   2.8127   0.7208
H   -1.0399   1.4218   1.7701
H   2.6028   0.2121   1.6856
H   1.6615   1.0333   -1.8674
H   2.5263   -1.3890   0.9123
H   1.2175   -0.8517   1.9861
H   2.9347   1.1990   -0.6491
H   2.6846   -0.3618   -1.4568
22
Frame 73: 73
C   -0.8670   -1.1168   0.1514
C   1.2085   0.0894   0.0397
C   -0.8097   1.7953   0.7701
C   1.9329   -0.5246   1.2284
C   2.1770   0.5184   -1.0493
N   0.2430   -0.8986   -0.5541
N   -2.0097   -1.5904   -0.4064
O   -1.6063   1.4765   -0.2941
H   -1.9744   0.5907   -0.1684
H   0.0227   -0.6245   -1.5217
H   -0.9003   -0.7897   1.1864
H   0.6010   0.9824   0.3947
H   -2.6594   -1.9749   0.2833
H   -1.8869   -2.2477   -1.1832
H   -0.4385   2.8139   0.7196
H   -1.0372   1.4223   1.7706
H   2.6030   0.2110   1.6862
H   1.6605   1.0324   -1.8680
H   2.5254   -1.3899   0.9130
H   1.2169   -0.8515   1.9864
H   2.9335   1.2016   -0.6495
H   2.6852   -0.3616   -1.4568
22
Frame 74: 74
C   -0.8669   -1.1174   0.1510
C   1.2087   0.0896   0.0398
C   -0.8092   1.7967   0.7702
C   1.9323   -0.5251   1.2288
C   2.1771   0.5189   -1.0497
N   0.2433   -0.8987   -0.5541
N   -2.0094   -1.5914   -0.4070
O   -1.6079   1.4771   -0.2923
H   -1.9733   0.5902   -0.1664
H   0.0236   -0.6264   -1.5224
H   -0.9000   -0.7898   1.1857
H   0.6005   0.9825   0.3944
H   -2.6609   -1.9750   0.2817
H   -1.8866   -2.2486   -1.1836
H   -0.4379   2.8153   0.7184
H   -1.0342   1.4236   1.7714
H   2.6030   0.2096   1.6870
H   1.6592   1.0314   -1.8687
H   2.5241   -1.3908   0.9137
H   1.2162   -0.8513   1.9871
H   2.9319   1.2045   -0.6500
H   2.6862   -0.3612   -1.4566
22
Frame 75: 75
C   -0.8667   -1.1178   0.1506
C   1.2090   0.0899   0.0396
C   -0.8086   1.7980   0.7704
C   1.9316   -0.5255   1.2293
C   2.1771   0.5194   -1.0504
N   0.2435   -0.8986   -0.5542
N   -2.0091   -1.5921   -0.4076
O   -1.6093   1.4777   -0.2902
H   -1.9718   0.5896   -0.1644
H   0.0245   -0.6285   -1.5232
H   -0.8990   -0.7906   1.1858
H   0.6001   0.9825   0.3940
H   -2.6625   -1.9751   0.2797
H   -1.8866   -2.2493   -1.1842
H   -0.4376   2.8166   0.7175
H   -1.0315   1.4252   1.7722
H   2.6030   0.2081   1.6877
H   1.6578   1.0302   -1.8698
H   2.5226   -1.3919   0.9147
H   1.2155   -0.8506   1.9882
H   2.9300   1.2073   -0.6509
H   2.6879   -0.3607   -1.4561
22
Frame 76: 76
C   -0.8666   -1.1178   0.1503
C   1.2091   0.0900   0.0392
C   -0.8079   1.7990   0.7706
C   1.9309   -0.5259   1.2295
C   2.1769   0.5197   -1.0511
N   0.2436   -0.8983   -0.5544
N   -2.0087   -1.5929   -0.4083
O   -1.6105   1.4780   -0.2881
H   -1.9706   0.5889   -0.1624
H   0.0255   -0.6305   -1.5242
H   -0.8980   -0.7913   1.1862
H   0.6001   0.9825   0.3936
H   -2.6639   -1.9752   0.2777
H   -1.8866   -2.2502   -1.1849
H   -0.4373   2.8176   0.7167
H   -1.0295   1.4275   1.7731
H   2.6028   0.2069   1.6884
H   1.6567   1.0291   -1.8709
H   2.5213   -1.3930   0.9155
H   1.2149   -0.8501   1.9891
H   2.9281   1.2094   -0.6519
H   2.6897   -0.3598   -1.4554
22
Frame 77: 77
C   -0.8665   -1.1180   0.1501
C   1.2090   0.0900   0.0389
C   -0.8072   1.7998   0.7710
C   1.9303   -0.5260   1.2297
C   2.1763   0.5199   -1.0515
N   0.2436   -0.8982   -0.5546
N   -2.0083   -1.5935   -0.4090
O   -1.6113   1.4781   -0.2864
H   -1.9697   0.5883   -0.1608
H   0.0262   -0.6319   -1.5250
H   -0.8972   -0.7923   1.1869
H   0.6003   0.9826   0.3934
H   -2.6648   -1.9749   0.2759
H   -1.8865   -2.2509   -1.1856
H   -0.4370   2.8183   0.7163
H   -1.0281   1.4295   1.7738
H   2.6027   0.2061   1.6889
H   1.6560   1.0280   -1.8719
H   2.5200   -1.3939   0.9163
H   1.2143   -0.8495   1.9898
H   2.9264   1.2108   -0.6530
H   2.6914   -0.3587   -1.4546
22
Frame 78: 78
C   -0.8664   -1.1183   0.1500
C   1.2087   0.0898   0.0387
C   -0.8066   1.8005   0.7714
C   1.9299   -0.5261   1.2298
C   2.1755   0.5200   -1.0517
N   0.2434   -0.8983   -0.5549
N   -2.0078   -1.5941   -0.4098
O   -1.6118   1.4781   -0.2850
H   -1.9693   0.5880   -0.1592
H   0.0268   -0.6329   -1.5258
H   -0.8968   -0.7930   1.1873
H   0.6007   0.9828   0.3934
H   -2.6654   -1.9745   0.2745
H   -1.8861   -2.2517   -1.1863
H   -0.4366   2.8189   0.7158
H   -1.0268   1.4313   1.7746
H   2.6027   0.2057   1.6891
H   1.6555   1.0270   -1.8728
H   2.5189   -1.3946   0.9169
H   1.2139   -0.8491   1.9902
H   2.9249   1.2117   -0.6541
H   2.6926   -0.3574   -1.4537
22
Frame 79: 79
C   -0.8663   -1.1190   0.1500
C   1.2082   0.0895   0.0387
C   -0.8062   1.8009   0.7718
C   1.9295   -0.5260   1.2299
C   2.1748   0.5201   -1.0517
N   0.2433   -0.8986   -0.5551
N   -2.0074   -1.5944   -0.4105
O   -1.6118   1.4781   -0.2841
H   -1.9691   0.5879   -0.1578
H   0.0270   -0.6334   -1.5262
H   -0.8968   -0.7937   1.1872
H   0.6010   0.9829   0.3935
H   -2.6656   -1.9739   0.2735
H   -1.8857   -2.2523   -1.1869
H   -0.4361   2.8193   0.7156
H   -1.0257   1.4322   1.7752
H   2.6027   0.2057   1.6891
H   1.6551   1.0258   -1.8737
H   2.5179   -1.3951   0.9175
H   1.2136   -0.8485   1.9905
H   2.9238   1.2125   -0.6551
H   2.6936   -0.3565   -1.4528
22
Frame 80: 80
C   -0.8662   -1.1197   0.1498
C   1.2078   0.0893   0.0389
C   -0.8057   1.8014   0.7721
C   1.9293   -0.5258   1.2301
C   2.1741   0.5201   -1.0515
N   0.2432   -0.8990   -0.5554
N   -2.0071   -1.5947   -0.4113
O   -1.6116   1.4780   -0.2834
H   -1.9691   0.5880   -0.1565
H   0.0271   -0.6337   -1.5266
H   -0.8969   -0.7943   1.1867
H   0.6012   0.9830   0.3937
H   -2.6658   -1.9733   0.2728
H   -1.8853   -2.2527   -1.1875
H   -0.4354   2.8197   0.7153
H   -1.0246   1.4326   1.7757
H   2.6029   0.2059   1.6888
H   1.6547   1.0245   -1.8746
H   2.5170   -1.3954   0.9180
H   1.2134   -0.8478   1.9908
H   2.9229   1.2133   -0.6558
H   2.6943   -0.3558   -1.4518
22
Frame 81: 81
C   -0.8662   -1.1205   0.1494
C   1.2073   0.0891   0.0390
C   -0.8052   1.8018   0.7727
C   1.9291   -0.5256   1.2303
C   2.1736   0.5202   -1.0514
N   0.2431   -0.8994   -0.5556
N   -2.0070   -1.5948   -0.4122
O   -1.6111   1.4777   -0.2827
H   -1.9692   0.5882   -0.1546
H   0.0270   -0.6340   -1.5268
H   -0.8971   -0.7952   1.1859
H   0.6011   0.9829   0.3941
H   -2.6660   -1.9727   0.2720
H   -1.8848   -2.2531   -1.1882
H   -0.4345   2.8201   0.7151
H   -1.0232   1.4329   1.7764
H   2.6031   0.2064   1.6881
H   1.6541   1.0227   -1.8757
H   2.5159   -1.3957   0.9185
H   1.2131   -0.8467   1.9911
H   2.9216   1.2146   -0.6564
H   2.6952   -0.3554   -1.4504
22
Frame 82: 82
C   -0.8664   -1.1212   0.1484
C   1.2069   0.0889   0.0392
C   -0.8043   1.8026   0.7736
C   1.9287   -0.5252   1.2305
C   2.1730   0.5202   -1.0513
N   0.2432   -0.9000   -0.5559
N   -2.0070   -1.5949   -0.4137
O   -1.6102   1.4771   -0.2816
H   -1.9695   0.5883   -0.1515
H   0.0271   -0.6347   -1.5273
H   -0.8973   -0.7965   1.1847
H   0.6008   0.9827   0.3945
H   -2.6664   -1.9722   0.2707
H   -1.8841   -2.2537   -1.1892
H   -0.4330   2.8207   0.7148
H   -1.0214   1.4335   1.7777
H   2.6034   0.2070   1.6867
H   1.6530   1.0198   -1.8773
H   2.5144   -1.3962   0.9193
H   1.2125   -0.8447   1.9917
H   2.9197   1.2168   -0.6571
H   2.6970   -0.3550   -1.4482
22
Frame 83: 83
C   -0.8668   -1.1217   0.1469
C   1.2065   0.0888   0.0391
C   -0.8032   1.8034   0.7749
C   1.9282   -0.5247   1.2306
C   2.1727   0.5202   -1.0514
N   0.2434   -0.9005   -0.5564
N   -2.0074   -1.5948   -0.4158
O   -1.6089   1.4762   -0.2798
H   -1.9699   0.5884   -0.1473
H   0.0274   -0.6357   -1.5278
H   -0.8973   -0.7986   1.1835
H   0.6001   0.9821   0.3948
H   -2.6669   -1.9718   0.2687
H   -1.8833   -2.2542   -1.1905
H   -0.4312   2.8213   0.7144
H   -1.0193   1.4349   1.7795
H   2.6038   0.2080   1.6846
H   1.6515   1.0157   -1.8793
H   2.5123   -1.3969   0.9203
H   1.2117   -0.8417   1.9925
H   2.9168   1.2201   -0.6579
H   2.6997   -0.3548   -1.4452
22
Frame 84: 84
C   -0.8672   -1.1215   0.1456
C   1.2064   0.0888   0.0387
C   -0.8021   1.8040   0.7761
C   1.9277   -0.5243   1.2304
C   2.1728   0.5201   -1.0516
N   0.2436   -0.9007   -0.5567
N   -2.0078   -1.5945   -0.4176
O   -1.6078   1.4751   -0.2780
H   -1.9703   0.5883   -0.1436
H   0.0280   -0.6368   -1.5283
H   -0.8974   -0.8004   1.1829
H   0.5993   0.9814   0.3948
H   -2.6674   -1.9718   0.2669
H   -1.8827   -2.2546   -1.1917
H   -0.4297   2.8216   0.7142
H   -1.0181   1.4367   1.7812
H   2.6042   0.2087   1.6827
H   1.6504   1.0120   -1.8808
H   2.5107   -1.3977   0.9210
H   1.2108   -0.8390   1.9932
H   2.9141   1.2230   -0.6583
H   2.7024   -0.3548   -1.4427
22
Frame 85: 85
C   -0.8675   -1.1211   0.1450
C   1.2064   0.0888   0.0382
C   -0.8016   1.8041   0.7769
C   1.9274   -0.5241   1.2302
C   2.1731   0.5198   -1.0518
N   0.2437   -0.9007   -0.5568
N   -2.0081   -1.5942   -0.4184
O   -1.6074   1.4746   -0.2769
H   -1.9703   0.5880   -0.1419
H   0.0285   -0.6373   -1.5285
H   -0.8974   -0.8014   1.1832
H   0.5989   0.9811   0.3943
H   -2.6675   -1.9720   0.2658
H   -1.8826   -2.2546   -1.1922
H   -0.4291   2.8215   0.7141
H   -1.0179   1.4381   1.7823
H   2.6043   0.2089   1.6816
H   1.6500   1.0101   -1.8814
H   2.5101   -1.3981   0.9214
H   1.2104   -0.8375   1.9935
H   2.9126   1.2246   -0.6585
H   2.7039   -0.3549   -1.4416
22
Frame 86: 86
C   -0.8676   -1.1210   0.1449
C   1.2064   0.0888   0.0378
C   -0.8014   1.8041   0.7773
C   1.9272   -0.5240   1.2300
C   2.1734   0.5196   -1.0519
N   0.2437   -0.9006   -0.5569
N   -2.0081   -1.5940   -0.4188
O   -1.6073   1.4744   -0.2763
H   -1.9701   0.5878   -0.1413
H   0.0288   -0.6373   -1.5286
H   -0.8976   -0.8018   1.1837
H   0.5987   0.9809   0.3937
H   -2.6675   -1.9721   0.2652
H   -1.8827   -2.2546   -1.1924
H   -0.4290   2.8213   0.7142
H   -1.0181   1.4389   1.7828
H   2.6044   0.2089   1.6812
H   1.6501   1.0093   -1.8816
H   2.5099   -1.3982   0.9215
H   1.2102   -0.8369   1.9936
H   2.9119   1.2254   -0.6585
H   2.7045   -0.3551   -1.4412
22
Frame 87: 87
C   -0.8675   -1.1212   0.1451
C   1.2063   0.0888   0.0375
C   -0.8012   1.8039   0.7777
C   1.9270   -0.5237   1.2299
C   2.1735   0.5194   -1.0520
N   0.2437   -0.9006   -0.5570
N   -2.0081   -1.5937   -0.4191
O   -1.6073   1.4743   -0.2757
H   -1.9698   0.5875   -0.1411
H   0.0290   -0.6370   -1.5287
H   -0.8978   -0.8021   1.1842
H   0.5986   0.9809   0.3930
H   -2.6675   -1.9721   0.2647
H   -1.8829   -2.2544   -1.1927
H   -0.4288   2.8210   0.7145
H   -1.0181   1.4392   1.7832
H   2.6046   0.2089   1.6809
H   1.6503   1.0084   -1.8818
H   2.5096   -1.3981   0.9217
H   1.2101   -0.8362   1.9938
H   2.9111   1.2261   -0.6587
H   2.7050   -0.3554   -1.4407
