22
Frame 1: 1
C   -0.7781   -1.0676   0.3211
C   1.3026   0.0521   -0.0283
C   -0.9720   1.4562   0.8237
C   1.9812   -0.4184   1.2502
C   2.2640   0.4352   -1.1331
N   0.2912   -0.8768   -0.5004
N   -2.0192   -1.3720   -0.2331
O   -1.6647   1.6302   -0.4018
H   -2.2586   0.8701   -0.4759
H   0.0278   -0.6783   -1.4585
H   -0.6098   -1.3679   1.3412
H   0.6813   0.9183   0.2869
H   -2.5733   -2.0574   0.2574
H   -2.0524   -1.5045   -1.2338
H   -0.3690   2.3514   0.9917
H   -1.6396   1.2942   1.6747
H   2.7644   0.2915   1.5228
H   1.7251   0.7307   -2.0378
H   2.4356   -1.4061   1.1342
H   1.2730   -0.4472   2.0806
H   2.8503   1.2987   -0.8143
H   2.9600   -0.3688   -1.3889
22
Frame 2: 2
C   -0.7602   -1.1633   0.2744
C   1.2815   0.0685   -0.0088
C   -0.9344   1.4955   0.8042
C   1.9785   -0.4089   1.2575
C   2.2474   0.4464   -1.1176
N   0.2971   -0.9092   -0.5134
N   -2.0045   -1.3979   -0.2377
O   -1.6266   1.6130   -0.4157
H   -2.2438   0.8685   -0.4710
H   -0.0085   -0.6469   -1.4540
H   -0.6026   -1.3459   1.3336
H   0.6356   0.9295   0.3111
H   -2.5911   -2.0456   0.2782
H   -2.0739   -1.5099   -1.2469
H   -0.3663   2.3999   0.9821
H   -1.5726   1.2433   1.6625
H   2.7626   0.3000   1.5297
H   1.7170   0.7381   -2.0295
H   2.4321   -1.3955   1.1260
H   1.2717   -0.4504   2.0880
H   2.8473   1.3040   -0.8068
H   2.9335   -0.3696   -1.3677
22
Frame 3: 3
C   -0.7504   -1.2495   0.2406
C   1.2641   0.0770   0.0080
C   -0.9231   1.5673   0.7860
C   1.9743   -0.4088   1.2637
C   2.2330   0.4527   -1.1038
N   0.2928   -0.9357   -0.5265
N   -2.0134   -1.3930   -0.2422
O   -1.6137   1.6232   -0.4217
H   -2.2104   0.8601   -0.4651
H   -0.0371   -0.6264   -1.4529
H   -0.5956   -1.3703   1.3136
H   0.6152   0.9432   0.3285
H   -2.5814   -2.0481   0.2943
H   -2.0736   -1.5479   -1.2547
H   -0.3848   2.4881   0.9691
H   -1.4959   1.2124   1.6600
H   2.7565   0.3028   1.5385
H   1.7079   0.7441   -2.0198
H   2.4332   -1.3911   1.1168
H   1.2684   -0.4653   2.0943
H   2.8464   1.3040   -0.7983
H   2.9073   -0.3751   -1.3499
22
Frame 4: 4
C   -0.7635   -1.2594   0.2155
C   1.2480   0.0887   0.0215
C   -0.9100   1.6015   0.7672
C   1.9699   -0.4102   1.2665
C   2.2193   0.4611   -1.0904
N   0.2822   -0.9440   -0.5390
N   -2.0254   -1.3911   -0.2496
O   -1.5845   1.6084   -0.4280
H   -2.1525   0.8242   -0.4532
H   -0.0556   -0.6040   -1.4555
H   -0.6134   -1.3243   1.2971
H   0.6051   0.9627   0.3381
H   -2.5852   -2.0364   0.3140
H   -2.0801   -1.6049   -1.2587
H   -0.4092   2.5430   0.9683
H   -1.3974   1.1404   1.6407
H   2.7480   0.3050   1.5494
H   1.6966   0.7567   -2.0071
H   2.4368   -1.3861   1.1000
H   1.2674   -0.4858   2.1003
H   2.8498   1.3021   -0.7868
H   2.8738   -0.3838   -1.3319
22
Frame 5: 5
C   -0.7832   -1.2275   0.2075
C   1.2392   0.0957   0.0260
C   -0.8926   1.6109   0.7622
C   1.9650   -0.4146   1.2654
C   2.2117   0.4668   -1.0834
N   0.2694   -0.9299   -0.5442
N   -2.0393   -1.3973   -0.2579
O   -1.5457   1.5693   -0.4388
H   -2.0910   0.7697   -0.4424
H   -0.0637   -0.5831   -1.4595
H   -0.6465   -1.2441   1.2916
H   0.6040   0.9776   0.3448
H   -2.5956   -2.0255   0.3268
H   -2.0909   -1.6524   -1.2574
H   -0.4448   2.5772   0.9765
H   -1.3147   1.0757   1.6188
H   2.7375   0.3041   1.5572
H   1.6894   0.7726   -1.9972
H   2.4402   -1.3840   1.0842
H   1.2664   -0.5073   2.1015
H   2.8535   1.2981   -0.7759
H   2.8515   -0.3882   -1.3272
22
Frame 6: 6
C   -0.8009   -1.2033   0.2041
C   1.2314   0.1001   0.0274
C   -0.8761   1.6289   0.7654
C   1.9586   -0.4220   1.2614
C   2.2046   0.4724   -1.0790
N   0.2574   -0.9149   -0.5465
N   -2.0457   -1.4183   -0.2766
O   -1.5211   1.5395   -0.4344
H   -2.0105   0.7012   -0.4289
H   -0.0624   -0.5688   -1.4661
H   -0.6826   -1.1695   1.2888
H   0.6045   0.9884   0.3492
H   -2.6165   -2.0089   0.3318
H   -2.0936   -1.7190   -1.2617
H   -0.4821   2.6189   0.9773
H   -1.2444   1.0626   1.6202
H   2.7219   0.3015   1.5675
H   1.6816   0.7959   -1.9864
H   2.4466   -1.3820   1.0639
H   1.2615   -0.5386   2.0962
H   2.8591   1.2908   -0.7632
H   2.8284   -0.3912   -1.3320
22
Frame 7: 7
C   -0.8115   -1.1928   0.2038
C   1.2256   0.1033   0.0282
C   -0.8595   1.6508   0.7698
C   1.9518   -0.4310   1.2566
C   2.1980   0.4785   -1.0763
N   0.2494   -0.9042   -0.5462
N   -2.0466   -1.4363   -0.2990
O   -1.5074   1.5088   -0.4224
H   -1.9438   0.6413   -0.4084
H   -0.0608   -0.5594   -1.4687
H   -0.7157   -1.1123   1.2875
H   0.6049   0.9960   0.3527
H   -2.6409   -1.9843   0.3263
H   -2.0798   -1.7940   -1.2647
H   -0.5138   2.6622   0.9624
H   -1.1864   1.0823   1.6378
H   2.7038   0.2964   1.5813
H   1.6740   0.8266   -1.9740
H   2.4530   -1.3803   1.0412
H   1.2535   -0.5757   2.0861
H   2.8677   1.2801   -0.7492
H   2.8045   -0.3922   -1.3462
22
Frame 8: 8
C   -0.8144   -1.1929   0.2039
C   1.2236   0.1038   0.0302
C   -0.8509   1.6667   0.7690
C   1.9491   -0.4394   1.2541
C   2.1941   0.4829   -1.0742
N   0.2474   -0.9011   -0.5445
N   -2.0420   -1.4520   -0.3130
O   -1.5054   1.4979   -0.4154
H   -1.9318   0.6278   -0.3938
H   -0.0621   -0.5546   -1.4663
H   -0.7342   -1.0840   1.2853
H   0.6064   0.9985   0.3568
H   -2.6522   -1.9709   0.3205
H   -2.0599   -1.8489   -1.2620
H   -0.5234   2.6865   0.9430
H   -1.1574   1.1074   1.6502
H   2.6915   0.2908   1.5941
H   1.6688   0.8520   -1.9627
H   2.4607   -1.3798   1.0256
H   1.2487   -0.6059   2.0774
H   2.8761   1.2705   -0.7387
H   2.7870   -0.3916   -1.3610
22
Frame 9: 9
C   -0.8180   -1.1893   0.2034
C   1.2226   0.1035   0.0325
C   -0.8459   1.6794   0.7669
C   1.9484   -0.4470   1.2524
C   2.1913   0.4865   -1.0721
N   0.2459   -0.8991   -0.5430
N   -2.0383   -1.4650   -0.3236
O   -1.5084   1.4914   -0.4103
H   -1.9301   0.6194   -0.3789
H   -0.0615   -0.5524   -1.4653
H   -0.7485   -1.0619   1.2833
H   0.6076   0.9993   0.3614
H   -2.6579   -1.9647   0.3157
H   -2.0425   -1.8909   -1.2592
H   -0.5235   2.7035   0.9231
H   -1.1413   1.1321   1.6594
H   2.6828   0.2853   1.6048
H   1.6650   0.8731   -1.9526
H   2.4689   -1.3799   1.0136
H   1.2465   -0.6315   2.0705
H   2.8835   1.2623   -0.7300
H   2.7732   -0.3904   -1.3736
22
Frame 10: 10
C   -0.8218   -1.1851   0.2023
C   1.2218   0.1029   0.0346
C   -0.8424   1.6904   0.7648
C   1.9483   -0.4540   1.2510
C   2.1891   0.4897   -1.0700
N   0.2446   -0.8975   -0.5420
N   -2.0355   -1.4763   -0.3325
O   -1.5132   1.4882   -0.4054
H   -1.9320   0.6151   -0.3655
H   -0.0598   -0.5518   -1.4656
H   -0.7611   -1.0425   1.2808
H   0.6085   0.9993   0.3662
H   -2.6605   -1.9625   0.3119
H   -2.0272   -1.9276   -1.2559
H   -0.5193   2.7166   0.9049
H   -1.1310   1.1552   1.6671
H   2.6760   0.2798   1.6137
H   1.6621   0.8909   -1.9435
H   2.4765   -1.3803   1.0034
H   1.2456   -0.6537   2.0646
H   2.8896   1.2554   -0.7224
H   2.7618   -0.3889   -1.3839
22
Frame 11: 11
C   -0.8253   -1.1809   0.2009
C   1.2211   0.1021   0.0366
C   -0.8398   1.6999   0.7628
C   1.9485   -0.4606   1.2496
C   2.1871   0.4926   -1.0680
N   0.2435   -0.8963   -0.5412
N   -2.0331   -1.4861   -0.3399
O   -1.5185   1.4861   -0.4009
H   -1.9355   0.6127   -0.3531
H   -0.0573   -0.5523   -1.4666
H   -0.7722   -1.0248   1.2780
H   0.6090   0.9988   0.3707
H   -2.6616   -1.9625   0.3086
H   -2.0137   -1.9582   -1.2523
H   -0.5139   2.7272   0.8881
H   -1.1238   1.1767   1.6737
H   2.6706   0.2744   1.6212
H   1.6597   0.9062   -1.9354
H   2.4832   -1.3810   0.9945
H   1.2452   -0.6732   2.0594
H   2.8945   1.2498   -0.7156
H   2.7523   -0.3870   -1.3924
22
Frame 12: 12
C   -0.8285   -1.1768   0.1993
C   1.2204   0.1013   0.0384
C   -0.8377   1.7084   0.7610
C   1.9486   -0.4666   1.2483
C   2.1854   0.4954   -1.0660
N   0.2428   -0.8956   -0.5408
N   -2.0311   -1.4948   -0.3461
O   -1.5236   1.4846   -0.3967
H   -1.9394   0.6110   -0.3417
H   -0.0544   -0.5537   -1.4681
H   -0.7821   -1.0083   1.2748
H   0.6092   0.9979   0.3748
H   -2.6617   -1.9637   0.3060
H   -2.0019   -1.9846   -1.2487
H   -0.5080   2.7360   0.8726
H   -1.1183   1.1967   1.6798
H   2.6660   0.2691   1.6275
H   1.6577   0.9195   -1.9282
H   2.4888   -1.3819   0.9865
H   1.2450   -0.6906   2.0546
H   2.8984   1.2453   -0.7095
H   2.7444   -0.3848   -1.3995
22
Frame 13: 13
C   -0.8314   -1.1728   0.1974
C   1.2197   0.1004   0.0398
C   -0.8358   1.7160   0.7596
C   1.9486   -0.4721   1.2471
C   2.1838   0.4980   -1.0641
N   0.2422   -0.8952   -0.5407
N   -2.0293   -1.5027   -0.3515
O   -1.5285   1.4834   -0.3925
H   -1.9434   0.6098   -0.3307
H   -0.0510   -0.5558   -1.4701
H   -0.7911   -0.9927   1.2713
H   0.6091   0.9968   0.3786
H   -2.6613   -1.9655   0.3038
H   -1.9914   -2.0079   -1.2452
H   -0.5022   2.7437   0.8585
H   -1.1138   1.2153   1.6855
H   2.6620   0.2639   1.6330
H   1.6560   0.9309   -1.9218
H   2.4936   -1.3830   0.9793
H   1.2447   -0.7060   2.0503
H   2.9014   1.2417   -0.7039
H   2.7379   -0.3825   -1.4053
22
Frame 14: 14
C   -0.8340   -1.1690   0.1954
C   1.2190   0.0995   0.0410
C   -0.8341   1.7227   0.7585
C   1.9485   -0.4772   1.2459
C   2.1825   0.5004   -1.0624
N   0.2419   -0.8950   -0.5408
N   -2.0276   -1.5098   -0.3561
O   -1.5331   1.4823   -0.3884
H   -1.9471   0.6089   -0.3204
H   -0.0474   -0.5585   -1.4724
H   -0.7993   -0.9779   1.2676
H   0.6089   0.9956   0.3819
H   -2.6606   -1.9672   0.3021
H   -1.9821   -2.0285   -1.2416
H   -0.4968   2.7502   0.8458
H   -1.1099   1.2320   1.6905
H   2.6584   0.2590   1.6378
H   1.6547   0.9409   -1.9162
H   2.4975   -1.3842   0.9730
H   1.2443   -0.7196   2.0462
H   2.9038   1.2390   -0.6989
H   2.7325   -0.3800   -1.4101
22
Frame 15: 15
C   -0.8362   -1.1657   0.1935
C   1.2184   0.0988   0.0419
C   -0.8326   1.7287   0.7577
C   1.9482   -0.4818   1.2448
C   2.1814   0.5026   -1.0608
N   0.2418   -0.8949   -0.5410
N   -2.0260   -1.5162   -0.3602
O   -1.5378   1.4817   -0.3842
H   -1.9507   0.6083   -0.3108
H   -0.0434   -0.5619   -1.4749
H   -0.8068   -0.9646   1.2638
H   0.6086   0.9946   0.3846
H   -2.6600   -1.9688   0.3006
H   -1.9738   -2.0466   -1.2382
H   -0.4918   2.7559   0.8345
H   -1.1063   1.2472   1.6954
H   2.6553   0.2544   1.6420
H   1.6536   0.9495   -1.9114
H   2.5005   -1.3853   0.9674
H   1.2437   -0.7315   2.0425
H   2.9056   1.2369   -0.6944
H   2.7282   -0.3776   -1.4142
22
Frame 16: 16
C   -0.8383   -1.1625   0.1912
C   1.2177   0.0980   0.0426
C   -0.8312   1.7343   0.7574
C   1.9478   -0.4858   1.2437
C   2.1805   0.5046   -1.0595
N   0.2418   -0.8951   -0.5413
N   -2.0246   -1.5222   -0.3641
O   -1.5424   1.4811   -0.3796
H   -1.9538   0.6075   -0.3012
H   -0.0392   -0.5658   -1.4778
H   -0.8138   -0.9517   1.2597
H   0.6082   0.9935   0.3869
H   -2.6594   -1.9702   0.2990
H   -1.9663   -2.0633   -1.2351
H   -0.4871   2.7611   0.8243
H   -1.1027   1.2614   1.7003
H   2.6523   0.2502   1.6456
H   1.6528   0.9569   -1.9073
H   2.5030   -1.3864   0.9624
H   1.2430   -0.7420   2.0391
H   2.9069   1.2354   -0.6904
H   2.7247   -0.3753   -1.4175
22
Frame 17: 17
C   -0.8405   -1.1593   0.1888
C   1.2170   0.0973   0.0431
C   -0.8296   1.7396   0.7576
C   1.9472   -0.4894   1.2427
C   2.1796   0.5065   -1.0583
N   0.2419   -0.8953   -0.5418
N   -2.0232   -1.5282   -0.3680
O   -1.5468   1.4806   -0.3745
H   -1.9564   0.6067   -0.2915
H   -0.0346   -0.5701   -1.4809
H   -0.8209   -0.9389   1.2552
H   0.6076   0.9924   0.3888
H   -2.6590   -1.9717   0.2974
H   -1.9594   -2.0790   -1.2322
H   -0.4826   2.7659   0.8152
H   -1.0989   1.2749   1.7054
H   2.6495   0.2464   1.6487
H   1.6521   0.9632   -1.9038
H   2.5049   -1.3874   0.9580
H   1.2420   -0.7513   2.0359
H   2.9079   1.2342   -0.6869
H   2.7218   -0.3731   -1.4202
22
Frame 18: 18
C   -0.8426   -1.1562   0.1860
C   1.2163   0.0966   0.0433
C   -0.8280   1.7446   0.7584
C   1.9464   -0.4927   1.2417
C   2.1789   0.5081   -1.0573
N   0.2422   -0.8958   -0.5425
N   -2.0218   -1.5340   -0.3721
O   -1.5513   1.4801   -0.3687
H   -1.9586   0.6056   -0.2813
H   -0.0297   -0.5750   -1.4843
H   -0.8280   -0.9260   1.2502
H   0.6069   0.9914   0.3902
H   -2.6586   -1.9732   0.2954
H   -1.9527   -2.0942   -1.2296
H   -0.4782   2.7705   0.8068
H   -1.0948   1.2880   1.7110
H   2.6468   0.2429   1.6515
H   1.6516   0.9686   -1.9009
H   2.5064   -1.3883   0.9541
H   1.2407   -0.7595   2.0328
H   2.9086   1.2333   -0.6838
H   2.7195   -0.3711   -1.4225
22
Frame 19: 19
C   -0.8448   -1.1530   0.1828
C   1.2155   0.0959   0.0433
C   -0.8263   1.7495   0.7597
C   1.9454   -0.4955   1.2407
C   2.1782   0.5095   -1.0564
N   0.2425   -0.8963   -0.5433
N   -2.0205   -1.5398   -0.3763
O   -1.5559   1.4795   -0.3622
H   -1.9606   0.6043   -0.2706
H   -0.0243   -0.5804   -1.4880
H   -0.8353   -0.9128   1.2447
H   0.6061   0.9903   0.3912
H   -2.6584   -1.9745   0.2931
H   -1.9461   -2.1091   -1.2272
H   -0.4740   2.7749   0.7990
H   -1.0903   1.3009   1.7171
H   2.6439   0.2398   1.6541
H   1.6513   0.9732   -1.8985
H   2.5075   -1.3891   0.9507
H   1.2393   -0.7669   2.0298
H   2.9090   1.2326   -0.6810
H   2.7177   -0.3693   -1.4244
22
Frame 20: 20
C   -0.8470   -1.1496   0.1793
C   1.2147   0.0952   0.0431
C   -0.8244   1.7543   0.7616
C   1.9443   -0.4982   1.2398
C   2.1776   0.5107   -1.0557
N   0.2430   -0.8970   -0.5442
N   -2.0191   -1.5457   -0.3809
O   -1.5608   1.4788   -0.3548
H   -1.9623   0.6027   -0.2591
H   -0.0185   -0.5863   -1.4920
H   -0.8429   -0.8990   1.2385
H   0.6052   0.9893   0.3918
H   -2.6584   -1.9756   0.2904
H   -1.9395   -2.1241   -1.2249
H   -0.4698   2.7792   0.7916
H   -1.0854   1.3136   1.7238
H   2.6410   0.2370   1.6564
H   1.6511   0.9771   -1.8966
H   2.5082   -1.3898   0.9476
H   1.2375   -0.7736   2.0269
H   2.9092   1.2321   -0.6785
H   2.7163   -0.3677   -1.4259
22
Frame 21: 21
C   -0.8495   -1.1460   0.1754
C   1.2138   0.0946   0.0427
C   -0.8225   1.7591   0.7639
C   1.9429   -0.5005   1.2388
C   2.1772   0.5118   -1.0552
N   0.2435   -0.8977   -0.5453
N   -2.0177   -1.5516   -0.3858
O   -1.5660   1.4780   -0.3465
H   -1.9637   0.6008   -0.2468
H   -0.0122   -0.5927   -1.4963
H   -0.8510   -0.8848   1.2318
H   0.6042   0.9883   0.3922
H   -2.6586   -1.9765   0.2873
H   -1.9327   -2.1393   -1.2225
H   -0.4657   2.7835   0.7846
H   -1.0799   1.3265   1.7310
H   2.6380   0.2345   1.6586
H   1.6511   0.9804   -1.8951
H   2.5087   -1.3904   0.9448
H   1.2355   -0.7798   2.0241
H   2.9093   1.2318   -0.6763
H   2.7152   -0.3662   -1.4271
22
Frame 22: 22
C   -0.8519   -1.1423   0.1712
C   1.2129   0.0939   0.0421
C   -0.8204   1.7638   0.7667
C   1.9414   -0.5027   1.2379
C   2.1768   0.5127   -1.0547
N   0.2440   -0.8985   -0.5465
N   -2.0162   -1.5575   -0.3910
O   -1.5717   1.4773   -0.3374
H   -1.9650   0.5987   -0.2339
H   -0.0056   -0.5994   -1.5008
H   -0.8591   -0.8706   1.2246
H   0.6031   0.9874   0.3921
H   -2.6590   -1.9770   0.2838
H   -1.9257   -2.1548   -1.2201
H   -0.4616   2.7876   0.7778
H   -1.0738   1.3393   1.7387
H   2.6347   0.2323   1.6607
H   1.6512   0.9833   -1.8939
H   2.5090   -1.3909   0.9423
H   1.2332   -0.7854   2.0211
H   2.9093   1.2315   -0.6743
H   2.7144   -0.3649   -1.4281
22
Frame 23: 23
C   -0.8544   -1.1387   0.1670
C   1.2121   0.0934   0.0415
C   -0.8185   1.7681   0.7695
C   1.9398   -0.5045   1.2371
C   2.1765   0.5135   -1.0544
N   0.2446   -0.8992   -0.5477
N   -2.0149   -1.5631   -0.3960
O   -1.5773   1.4764   -0.3281
H   -1.9666   0.5965   -0.2210
H   0.0009   -0.6062   -1.5052
H   -0.8668   -0.8571   1.2174
H   0.6021   0.9865   0.3918
H   -2.6599   -1.9774   0.2800
H   -1.9189   -2.1693   -1.2177
H   -0.4578   2.7914   0.7713
H   -1.0674   1.3515   1.7462
H   2.6315   0.2304   1.6627
H   1.6515   0.9856   -1.8930
H   2.5093   -1.3912   0.9401
H   1.2309   -0.7906   2.0184
H   2.9093   1.2313   -0.6725
H   2.7139   -0.3638   -1.4289
22
Frame 24: 24
C   -0.8566   -1.1353   0.1630
C   1.2112   0.0930   0.0408
C   -0.8167   1.7722   0.7722
C   1.9383   -0.5061   1.2363
C   2.1763   0.5142   -1.0541
N   0.2451   -0.8998   -0.5488
N   -2.0135   -1.5681   -0.4008
O   -1.5828   1.4757   -0.3193
H   -1.9679   0.5946   -0.2090
H   0.0069   -0.6125   -1.5092
H   -0.8736   -0.8454   1.2109
H   0.6012   0.9859   0.3913
H   -2.6608   -1.9774   0.2762
H   -1.9125   -2.1827   -1.2154
H   -0.4544   2.7948   0.7653
H   -1.0612   1.3626   1.7532
H   2.6282   0.2288   1.6646
H   1.6519   0.9876   -1.8924
H   2.5095   -1.3912   0.9382
H   1.2285   -0.7953   2.0158
H   2.9092   1.2312   -0.6710
H   2.7136   -0.3629   -1.4295
22
Frame 25: 25
C   -0.8586   -1.1325   0.1594
C   1.2105   0.0926   0.0401
C   -0.8151   1.7758   0.7746
C   1.9367   -0.5073   1.2356
C   2.1762   0.5147   -1.0540
N   0.2455   -0.9003   -0.5500
N   -2.0123   -1.5726   -0.4051
O   -1.5879   1.4753   -0.3112
H   -1.9690   0.5929   -0.1981
H   0.0121   -0.6180   -1.5129
H   -0.8793   -0.8359   1.2052
H   0.6003   0.9854   0.3907
H   -2.6618   -1.9771   0.2727
H   -1.9067   -2.1948   -1.2132
H   -0.4514   2.7979   0.7600
H   -1.0552   1.3724   1.7594
H   2.6250   0.2276   1.6665
H   1.6524   0.9891   -1.8920
H   2.5096   -1.3911   0.9367
H   1.2262   -0.7993   2.0133
H   2.9091   1.2310   -0.6697
H   2.7134   -0.3622   -1.4299
22
Frame 26: 26
C   -0.8603   -1.1302   0.1563
C   1.2098   0.0923   0.0394
C   -0.8136   1.7791   0.7767
C   1.9353   -0.5084   1.2351
C   2.1762   0.5151   -1.0539
N   0.2457   -0.9006   -0.5510
N   -2.0112   -1.5765   -0.4089
O   -1.5925   1.4751   -0.3038
H   -1.9699   0.5914   -0.1885
H   0.0165   -0.6226   -1.5160
H   -0.8839   -0.8283   1.2003
H   0.5996   0.9850   0.3900
H   -2.6628   -1.9766   0.2695
H   -1.9017   -2.2054   -1.2111
H   -0.4488   2.8007   0.7554
H   -1.0496   1.3809   1.7648
H   2.6220   0.2267   1.6682
H   1.6529   0.9903   -1.8918
H   2.5098   -1.3909   0.9354
H   1.2240   -0.8029   2.0111
H   2.9091   1.2309   -0.6686
H   2.7134   -0.3616   -1.4301
22
Frame 27: 27
C   -0.8616   -1.1283   0.1535
C   1.2092   0.0922   0.0388
C   -0.8123   1.7821   0.7785
C   1.9339   -0.5092   1.2346
C   2.1762   0.5153   -1.0538
N   0.2459   -0.9009   -0.5521
N   -2.0102   -1.5798   -0.4122
O   -1.5967   1.4750   -0.2973
H   -1.9705   0.5901   -0.1801
H   0.0202   -0.6263   -1.5188
H   -0.8877   -0.8222   1.1962
H   0.5989   0.9848   0.3893
H   -2.6637   -1.9762   0.2668
H   -1.8973   -2.2146   -1.2092
H   -0.4466   2.8031   0.7513
H   -1.0445   1.3883   1.7694
H   2.6191   0.2261   1.6698
H   1.6535   0.9912   -1.8917
H   2.5098   -1.3906   0.9344
H   1.2218   -0.8060   2.0090
H   2.9091   1.2307   -0.6677
H   2.7134   -0.3613   -1.4303
22
Frame 28: 28
C   -0.8628   -1.1267   0.1512
C   1.2086   0.0921   0.0382
C   -0.8112   1.7846   0.7800
C   1.9325   -0.5098   1.2342
C   2.1763   0.5155   -1.0538
N   0.2460   -0.9010   -0.5530
N   -2.0094   -1.5827   -0.4150
O   -1.6003   1.4749   -0.2917
H   -1.9709   0.5890   -0.1728
H   0.0231   -0.6292   -1.5211
H   -0.8908   -0.8175   1.1928
H   0.5984   0.9848   0.3885
H   -2.6645   -1.9757   0.2644
H   -1.8936   -2.2224   -1.2076
H   -0.4448   2.8053   0.7479
H   -1.0398   1.3943   1.7732
H   2.6164   0.2256   1.6713
H   1.6542   0.9919   -1.8918
H   2.5099   -1.3902   0.9336
H   1.2198   -0.8086   2.0072
H   2.9092   1.2306   -0.6669
H   2.7136   -0.3610   -1.4303
22
Frame 29: 29
C   -0.8637   -1.1255   0.1492
C   1.2082   0.0920   0.0376
C   -0.8102   1.7867   0.7813
C   1.9313   -0.5103   1.2338
C   2.1765   0.5156   -1.0538
N   0.2461   -0.9010   -0.5539
N   -2.0086   -1.5851   -0.4174
O   -1.6035   1.4748   -0.2868
H   -1.9712   0.5879   -0.1666
H   0.0254   -0.6314   -1.5230
H   -0.8932   -0.8138   1.1901
H   0.5980   0.9848   0.3877
H   -2.6651   -1.9753   0.2623
H   -1.8905   -2.2289   -1.2062
H   -0.4434   2.8071   0.7449
H   -1.0356   1.3994   1.7764
H   2.6139   0.2253   1.6726
H   1.6548   0.9923   -1.8919
H   2.5099   -1.3898   0.9330
H   1.2179   -0.8108   2.0056
H   2.9093   1.2304   -0.6663
H   2.7138   -0.3609   -1.4303
22
Frame 30: 30
C   -0.8645   -1.1246   0.1475
C   1.2078   0.0920   0.0370
C   -0.8094   1.7885   0.7824
C   1.9302   -0.5106   1.2336
C   2.1767   0.5157   -1.0538
N   0.2461   -0.9010   -0.5547
N   -2.0080   -1.5871   -0.4193
O   -1.6062   1.4748   -0.2826
H   -1.9714   0.5870   -0.1613
H   0.0271   -0.6330   -1.5247
H   -0.8951   -0.8111   1.1878
H   0.5977   0.9849   0.3870
H   -2.6657   -1.9751   0.2606
H   -1.8879   -2.2343   -1.2050
H   -0.4422   2.8087   0.7424
H   -1.0319   1.4037   1.7792
H   2.6116   0.2251   1.6738
H   1.6555   0.9927   -1.8920
H   2.5099   -1.3893   0.9325
H   1.2162   -0.8126   2.0042
H   2.9095   1.2302   -0.6658
H   2.7140   -0.3609   -1.4302
22
Frame 31: 31
C   -0.8650   -1.1239   0.1461
C   1.2075   0.0920   0.0365
C   -0.8087   1.7901   0.7833
C   1.9292   -0.5109   1.2333
C   2.1769   0.5157   -1.0538
N   0.2460   -0.9009   -0.5555
N   -2.0075   -1.5888   -0.4210
O   -1.6086   1.4748   -0.2789
H   -1.9716   0.5862   -0.1568
H   0.0285   -0.6343   -1.5261
H   -0.8965   -0.8090   1.1859
H   0.5974   0.9850   0.3863
H   -2.6661   -1.9749   0.2592
H   -1.8858   -2.2388   -1.2041
H   -0.4413   2.8101   0.7403
H   -1.0287   1.4073   1.7815
H   2.6096   0.2250   1.6749
H   1.6562   0.9928   -1.8922
H   2.5099   -1.3889   0.9322
H   1.2146   -0.8141   2.0029
H   2.9097   1.2300   -0.6654
H   2.7142   -0.3610   -1.4301
22
Frame 32: 32
C   -0.8655   -1.1234   0.1449
C   1.2072   0.0920   0.0361
C   -0.8081   1.7914   0.7841
C   1.9283   -0.5111   1.2331
C   2.1771   0.5156   -1.0538
N   0.2460   -0.9008   -0.5562
N   -2.0071   -1.5903   -0.4223
O   -1.6106   1.4748   -0.2758
H   -1.9716   0.5856   -0.1530
H   0.0295   -0.6351   -1.5272
H   -0.8976   -0.8074   1.1844
H   0.5972   0.9852   0.3856
H   -2.6664   -1.9748   0.2580
H   -1.8841   -2.2424   -1.2034
H   -0.4405   2.8112   0.7385
H   -1.0258   1.4104   1.7834
H   2.6078   0.2250   1.6758
H   1.6569   0.9929   -1.8925
H   2.5098   -1.3885   0.9319
H   1.2132   -0.8154   2.0019
H   2.9099   1.2298   -0.6651
H   2.7145   -0.3611   -1.4300
22
Frame 33: 33
C   -0.8658   -1.1230   0.1439
C   1.2069   0.0921   0.0356
C   -0.8075   1.7926   0.7847
C   1.9275   -0.5112   1.2330
C   2.1773   0.5155   -1.0539
N   0.2460   -0.9007   -0.5568
N   -2.0067   -1.5915   -0.4234
O   -1.6124   1.4748   -0.2731
H   -1.9717   0.5850   -0.1497
H   0.0302   -0.6358   -1.5282
H   -0.8984   -0.8062   1.1831
H   0.5970   0.9854   0.3849
H   -2.6666   -1.9749   0.2570
H   -1.8826   -2.2454   -1.2028
H   -0.4399   2.8123   0.7370
H   -1.0234   1.4129   1.7851
H   2.6061   0.2250   1.6766
H   1.6575   0.9930   -1.8927
H   2.5097   -1.3881   0.9318
H   1.2119   -0.8164   2.0009
H   2.9101   1.2296   -0.6648
H   2.7147   -0.3612   -1.4298
22
Frame 34: 34
C   -0.8661   -1.1227   0.1431
C   1.2067   0.0922   0.0353
C   -0.8071   1.7935   0.7853
C   1.9267   -0.5112   1.2329
C   2.1776   0.5154   -1.0539
N   0.2459   -0.9006   -0.5574
N   -2.0064   -1.5925   -0.4243
O   -1.6139   1.4748   -0.2708
H   -1.9717   0.5844   -0.1469
H   0.0308   -0.6362   -1.5291
H   -0.8991   -0.8054   1.1821
H   0.5968   0.9856   0.3843
H   -2.6667   -1.9750   0.2562
H   -1.8815   -2.2479   -1.2024
H   -0.4394   2.8131   0.7357
H   -1.0212   1.4151   1.7865
H   2.6047   0.2251   1.6773
H   1.6582   0.9929   -1.8930
H   2.5096   -1.3878   0.9317
H   1.2108   -0.8172   2.0001
H   2.9103   1.2294   -0.6646
H   2.7150   -0.3614   -1.4296
22
Frame 35: 35
C   -0.8663   -1.1225   0.1424
C   1.2065   0.0922   0.0349
C   -0.8067   1.7944   0.7858
C   1.9260   -0.5113   1.2328
C   2.1778   0.5153   -1.0540
N   0.2459   -0.9005   -0.5579
N   -2.0061   -1.5934   -0.4251
O   -1.6153   1.4747   -0.2688
H   -1.9718   0.5840   -0.1444
H   0.0312   -0.6365   -1.5298
H   -0.8995   -0.8047   1.1812
H   0.5967   0.9857   0.3837
H   -2.6668   -1.9752   0.2556
H   -1.8805   -2.2498   -1.2021
H   -0.4390   2.8139   0.7346
H   -1.0193   1.4169   1.7876
H   2.6035   0.2252   1.6779
H   1.6588   0.9928   -1.8932
H   2.5095   -1.3875   0.9316
H   1.2098   -0.8178   1.9995
H   2.9105   1.2292   -0.6644
H   2.7152   -0.3616   -1.4295
22
Frame 36: 36
C   -0.8664   -1.1223   0.1418
C   1.2064   0.0923   0.0346
C   -0.8064   1.7951   0.7862
C   1.9254   -0.5113   1.2327
C   2.1780   0.5152   -1.0540
N   0.2458   -0.9003   -0.5584
N   -2.0059   -1.5941   -0.4257
O   -1.6164   1.4747   -0.2670
H   -1.9718   0.5836   -0.1423
H   0.0314   -0.6366   -1.5304
H   -0.8999   -0.8043   1.1805
H   0.5966   0.9859   0.3832
H   -2.6667   -1.9754   0.2550
H   -1.8797   -2.2514   -1.2019
H   -0.4387   2.8145   0.7337
H   -1.0177   1.4184   1.7887
H   2.6024   0.2253   1.6784
H   1.6593   0.9927   -1.8935
H   2.5093   -1.3872   0.9316
H   1.2088   -0.8183   1.9989
H   2.9107   1.2290   -0.6643
H   2.7154   -0.3618   -1.4293
22
Frame 37: 37
C   -0.8666   -1.1222   0.1413
C   1.2062   0.0924   0.0343
C   -0.8061   1.7957   0.7865
C   1.9249   -0.5112   1.2326
C   2.1782   0.5151   -1.0541
N   0.2458   -0.9002   -0.5588
N   -2.0057   -1.5947   -0.4262
O   -1.6174   1.4747   -0.2655
H   -1.9718   0.5832   -0.1405
H   0.0316   -0.6367   -1.5309
H   -0.9002   -0.8040   1.1799
H   0.5965   0.9861   0.3827
H   -2.6667   -1.9757   0.2546
H   -1.8791   -2.2527   -1.2018
H   -0.4385   2.8151   0.7330
H   -1.0163   1.4196   1.7895
H   2.6014   0.2254   1.6789
H   1.6598   0.9926   -1.8937
H   2.5091   -1.3869   0.9316
H   1.2080   -0.8187   1.9984
H   2.9109   1.2288   -0.6642
H   2.7157   -0.3620   -1.4291
22
Frame 38: 38
C   -0.8667   -1.1221   0.1408
C   1.2061   0.0925   0.0340
C   -0.8059   1.7962   0.7868
C   1.9244   -0.5112   1.2325
C   2.1784   0.5150   -1.0542
N   0.2457   -0.9001   -0.5592
N   -2.0055   -1.5953   -0.4266
O   -1.6183   1.4747   -0.2642
H   -1.9718   0.5829   -0.1389
H   0.0317   -0.6367   -1.5313
H   -0.9004   -0.8038   1.1794
H   0.5965   0.9863   0.3823
H   -2.6666   -1.9759   0.2542
H   -1.8785   -2.2538   -1.2017
H   -0.4383   2.8156   0.7323
H   -1.0150   1.4207   1.7903
H   2.6005   0.2255   1.6792
H   1.6603   0.9925   -1.8939
H   2.5090   -1.3867   0.9317
H   1.2073   -0.8190   1.9980
H   2.9111   1.2286   -0.6641
H   2.7159   -0.3623   -1.4289
