22
Iteration 149  Energy = -72.4801123814
C  -0.7238558650 -1.5897469673  0.0097752939
C   1.4024361498 -0.2985922359 -0.2058438496
C  -0.7838111373  2.6659154647  0.5943088388
C   1.8154270104 -0.5094034029  1.2066201331
C   2.1919330236  0.4553357197 -1.2054050190
N   0.2276222880 -0.8505857812 -0.6594954784
N  -1.8455584622 -1.8837834580 -0.6195462456
O  -1.5445344412  1.6340848347 -0.1116722186
H  -1.8562662566  0.9820226875  0.5354687927
H  -0.0450427409 -0.5887346474 -1.6073041056
H  -0.5909859288 -1.9478206756  1.0277820567
H   0.1061613928  2.2562694782  1.0865179770
H  -2.5596305535 -2.4131905666 -0.1363788248
H  -2.0016769335 -1.6056709340 -1.5806722296
H  -0.4746972407  3.3763249614 -0.1742965292
H  -1.3935549902  3.1851789330  1.3407419187
H   2.7586272471  0.0181403982  1.4149309004
H   1.6305783978  1.3137592352 -1.6183312275
H   1.9746095900 -1.5762812004  1.4454609066
H   1.0625105240 -0.1409271614  1.9256997549
H   3.1284325250  0.8375812950 -0.7712426114
H   2.4492686361 -0.1666153446 -2.0821594610
