7
Iter 0 Image 0  Energy = -29.6796137011
C   0.8260657415  0.5508603911 -0.1261794589
H   0.4554445983  1.2417513435 -0.8784317668
O   0.5680753083  1.0246514429  1.1187434847
C   1.4411098584 -0.5873603774 -0.4363613732
H   0.9099091373  0.3932317500  1.7666320721
H   1.5916834696 -0.8592929697 -1.4741885892
H   1.8089534565 -1.2734747403  0.3237244514
7
Iter 0 Image 1  Energy = -29.6790224975
C   0.8494444638  0.5846899870 -0.1616141380
H   0.5339702440  1.3048630661 -0.9174622087
O   0.5928301345  1.0201722176  1.1288119707
C   1.4488402532 -0.5808801428 -0.4311426436
H   0.7458297162  0.2813420898  1.7527819655
H   1.3973210901 -1.0323162641 -1.4119564085
H   2.0330057070 -1.0875040770  0.3345202299
7
Iter 0 Image 2  Energy = -29.6709705508
C   0.8724301739  0.6338753446 -0.1891807779
H   0.6331194282  1.4226986975 -0.9117501629
O   0.5613523738  0.9665819199  1.1244974433
C   1.4433402127 -0.5631684964 -0.4157647793
H   0.6679925643  0.1287916750  1.6266212831
H   1.2452341990 -1.2043750028 -1.2608546646
H   2.1777726087 -0.8940372172  0.3203704073
7
Iter 0 Image 3  Energy = -29.6480536675
C   0.8850740282  0.7069656769 -0.2032732093
H   0.6836222397  1.5285445785 -0.9068736803
O   0.5485241803  0.9127071710  1.1264839653
C   1.4103219238 -0.5424023606 -0.3503530818
H   0.7013534559 -0.0554142285  1.3624030550
H   1.1272032331 -1.2991213992 -1.0639704107
H   2.2451425216 -0.7609125491  0.3295221031
7
Iter 0 Image 4  Energy = -29.6075551277
C   0.8732735238  0.7855741918 -0.1572639066
H   0.6891674962  1.5538523339 -0.9219131208
O   0.5280260471  0.9921749240  1.1180157557
C   1.3473532356 -0.5585306696 -0.1829609865
H   0.7893398461 -0.2591710945  1.0561148735
H   1.0767766002 -1.2904107662 -0.9585514769
H   2.2973048201 -0.7331219901  0.3404976232
7
Iter 0 Image 5  Energy = -29.6690882361
C   0.8473340062  0.8538764555 -0.0927767390
H   0.7052866195  1.5409931199 -0.9452767633
O   0.5164472468  1.2026966175  1.0552221725
C   1.3115263849 -0.5661687543 -0.0680748735
H   0.8182579065 -0.5809580409  0.9490462184
H   1.0647372996 -1.2533095609 -0.8990957999
H   2.3376521021 -0.7067629530  0.2948945676
7
Iter 0 Image 6  Energy = -29.7054606891
C   0.8277032473  0.8834138507 -0.0367096873
H   0.7533702067  1.4625519719 -0.9819519612
O   0.5241330628  1.4147022287  1.0219069917
C   1.2892552954 -0.5607688367  0.0090176240
H   0.7902899350 -0.8974230476  0.9197192421
H   1.0547393192 -1.1675596309 -0.8692879507
H   2.3617505125 -0.6445495741  0.2312445054
7
Iter 0 Image 7  Energy = -29.7099828190
C   0.7825734148  0.8750061699 -0.0391081428
H   0.8054065030  1.3009999688 -1.0683573441
O   0.3932883327  1.5562838832  0.8936619755
C   1.2994713112 -0.5514720737  0.1051488087
H   0.9207463180 -0.9976880085  1.0296077835
H   1.0042933907 -1.1480034470 -0.7587517959
H   2.3954622398 -0.5447596574  0.1317375713
7
Iter 0 Image 8  Energy = -29.7096971637
C   0.7840367852  0.8656586589 -0.0371164025
H   0.9809293880  1.3403901038 -1.0231241499
O   0.1875804579  1.4681235287  0.8223429327
C   1.3100769769 -0.5359012779  0.1153731248
H   1.0639489065 -0.9236344469  1.1059940899
H   0.8779311114 -1.1816924395 -0.6582837811
H   2.3967379442 -0.5425772870 -0.0312469938
7
Iter 1 Image 0  Energy = -29.6796137011
C   0.8260657415  0.5508603911 -0.1261794589
H   0.4554445983  1.2417513435 -0.8784317668
O   0.5680753083  1.0246514429  1.1187434847
C   1.4411098584 -0.5873603774 -0.4363613732
H   0.9099091373  0.3932317500  1.7666320721
H   1.5916834696 -0.8592929697 -1.4741885892
H   1.8089534565 -1.2734747403  0.3237244514
7
Iter 1 Image 1  Energy = -29.6790264314
C   0.8497404975  0.5842132479 -0.1604151036
H   0.5347912004  1.3023033448 -0.9167754851
O   0.5918196171  1.0215788161  1.1290781557
C   1.4496419823 -0.5797977161 -0.4316187759
H   0.7454307959  0.2810636561  1.7509220573
H   1.3976890702 -1.0325997520 -1.4124832848
H   2.0321286158 -1.0863948617  0.3352311311
7
Iter 1 Image 2  Energy = -29.6709017968
C   0.8709423109  0.6339887743 -0.1877134849
H   0.6328129572  1.4217958941 -0.9105306794
O   0.5629585118  0.9690594888  1.1263533542
C   1.4438582087 -0.5619763995 -0.4165205141
H   0.6673080591  0.1274380648  1.6223424292
H   1.2460254513 -1.2064190284 -1.2604459755
H   2.1773362681 -0.8935200441  0.3204534223
7
Iter 1 Image 3  Energy = -29.6486035055
C   0.8858235092  0.7058608878 -0.2020295619
H   0.6845741914  1.5268972687 -0.9070858603
O   0.5484796742  0.9115890603  1.1283750625
C   1.4114886417 -0.5400725849 -0.3549715123
H   0.7011046572 -0.0529774966  1.3655540948
H   1.1280244984 -1.3014562019 -1.0668114097
H   2.2417464637 -0.7594738299  0.3309074010
7
Iter 1 Image 4  Energy = -29.6073522335
C   0.8772970219  0.7788732100 -0.1646787287
H   0.6894566186  1.5516940585 -0.9196301878
O   0.5282957630  0.9761403144  1.1266480035
C   1.3510763694 -0.5561903317 -0.1992982764
H   0.7829135229 -0.2304189036  1.0756898740
H   1.0795324965 -1.2960265779 -0.9667041864
H   2.2926698435 -0.7337051650  0.3419128646
7
Iter 1 Image 5  Energy = -29.6675680196
C   0.8492556649  0.8512354882 -0.0925916235
H   0.7051623925  1.5428670105 -0.9428632065
O   0.5185857749  1.1998664221  1.0534775970
C   1.3102837610 -0.5682595744 -0.0703972344
H   0.8156083553 -0.5735113715  0.9530599354
H   1.0656741800 -1.2561917980 -0.9029726140
H   2.3366715826 -0.7056392192  0.2962254216
7
Iter 1 Image 6  Energy = -29.7052806383
C   0.8300398279  0.8823089349 -0.0375072672
H   0.7513637558  1.4647762989 -0.9802732023
O   0.5226615611  1.4112247680  1.0205361018
C   1.2895909783 -0.5610462892  0.0083995289
H   0.7910392510 -0.8945765985  0.9206247081
H   1.0543920601 -1.1688005027 -0.8687634507
H   2.3621540393 -0.6435193397  0.2309221466
7
Iter 1 Image 7  Energy = -29.7099884218
C   0.7840057029  0.8734469677 -0.0402949611
H   0.8062211162  1.3017447019 -1.0680090394
O   0.3936955522  1.5546412199  0.8942693570
C   1.2983237950 -0.5519947590  0.1047513817
H   0.9205431130 -0.9959388435  1.0305403225
H   1.0042510319 -1.1500315916 -0.7585256777
H   2.3942015528 -0.5415008844  0.1312072671
7
Iter 1 Image 8  Energy = -29.7096971637
C   0.7840367852  0.8656586589 -0.0371164025
H   0.9809293880  1.3403901038 -1.0231241499
O   0.1875804579  1.4681235287  0.8223429327
C   1.3100769769 -0.5359012779  0.1153731248
H   1.0639489065 -0.9236344469  1.1059940899
H   0.8779311114 -1.1816924395 -0.6582837811
H   2.3967379442 -0.5425772870 -0.0312469938
7
Iter 2 Image 0  Energy = -29.6796136862
C   0.8260657415  0.5508603911 -0.1261794589
H   0.4554445983  1.2417513435 -0.8784317668
O   0.5680753083  1.0246514429  1.1187434847
C   1.4411098584 -0.5873603774 -0.4363613732
H   0.9099091373  0.3932317500  1.7666320721
H   1.5916834696 -0.8592929697 -1.4741885892
H   1.8089534565 -1.2734747403  0.3237244514
7
Iter 2 Image 1  Energy = -29.6790249562
C   0.8494564883  0.5848988741 -0.1606589047
H   0.5347964745  1.3021964930 -0.9169970222
O   0.5919043380  1.0210017564  1.1293410628
C   1.4500769732 -0.5803862264 -0.4314885051
H   0.7451764645  0.2813348413  1.7506649683
H   1.3977572614 -1.0324658456 -1.4122158507
H   2.0320737903 -1.0862131637  0.3352929432
7
Iter 2 Image 2  Energy = -29.6709107226
C   0.8710801814  0.6341361787 -0.1878985433
H   0.6324478078  1.4218824396 -0.9105781349
O   0.5634381667  0.9689020605  1.1261535222
C   1.4437882942 -0.5621972966 -0.4165409042
H   0.6670481063  0.1273675654  1.6226962076
H   1.2463313741 -1.2062774537 -1.2603490489
H   2.1771078463 -0.8934467412  0.3204554279
7
Iter 2 Image 3  Energy = -29.6489417321
C   0.8850873567  0.7075288484 -0.2033362424
H   0.6846140814  1.5262758923 -0.9063265094
O   0.5486776200  0.9109898289  1.1284431458
C   1.4126135248 -0.5430136781 -0.3571404134
H   0.7005275244 -0.0511343882  1.3686888050
H   1.1289754524 -1.3006898279 -1.0672662271
H   2.2407460812 -0.7595896090  0.3308757278
7
Iter 2 Image 4  Energy = -29.6072996026
C   0.8770280199  0.7821858758 -0.1631280595
H   0.6902423489  1.5527478842 -0.9210018482
O   0.5299201679  0.9740499781  1.1236048730
C   1.3491202675 -0.5563272801 -0.1955145344
H   0.7825978573 -0.2360194827  1.0711524519
H   1.0782988852 -1.2947993765 -0.9619437897
H   2.2940340931 -0.7314710230  0.3407703147
7
Iter 2 Image 5  Energy = -29.6667265064
C   0.8502749213  0.8510492851 -0.0993008453
H   0.7055194579  1.5419313341 -0.9420657718
O   0.5177581204  1.1986883436  1.0590715886
C   1.3105848034 -0.5680471619 -0.0699953303
H   0.8157830742 -0.5702984150  0.9537434532
H   1.0660015541 -1.2569855378 -0.9038725328
H   2.3353197747 -0.7059709541  0.2963578849
7
Iter 2 Image 6  Energy = -29.7052237457
C   0.8298936930  0.8821234998 -0.0385412418
H   0.7512496414  1.4651567424 -0.9800841374
O   0.5223558677  1.4108538883  1.0214760799
C   1.2899741821 -0.5613701942  0.0080755319
H   0.7911461711 -0.8935027595  0.9209230388
H   1.0544320451 -1.1693438401 -0.8688710516
H   2.3621898764 -0.6435500605  0.2309603182
7
Iter 2 Image 7  Energy = -29.7099818355
C   0.7829353781  0.8748667899 -0.0382720003
H   0.8064975237  1.3020022569 -1.0682359559
O   0.3947071412  1.5528834015  0.8926025261
C   1.2983396788 -0.5520936337  0.1044473694
H   0.9204283946 -0.9956015337  1.0306796204
H   1.0043049553 -1.1505429301 -0.7584582331
H   2.3940288145 -0.5411475408  0.1311753093
7
Iter 2 Image 8  Energy = -29.7096971637
C   0.7840367852  0.8656586589 -0.0371164025
H   0.9809293880  1.3403901038 -1.0231241499
O   0.1875804579  1.4681235287  0.8223429327
C   1.3100769769 -0.5359012779  0.1153731248
H   1.0639489065 -0.9236344469  1.1059940899
H   0.8779311114 -1.1816924395 -0.6582837811
H   2.3967379442 -0.5425772870 -0.0312469938
7
Iter 3 Image 0  Energy = -29.6796137011
C   0.8260657415  0.5508603911 -0.1261794589
H   0.4554445983  1.2417513435 -0.8784317668
O   0.5680753083  1.0246514429  1.1187434847
C   1.4411098584 -0.5873603774 -0.4363613732
H   0.9099091373  0.3932317500  1.7666320721
H   1.5916834696 -0.8592929697 -1.4741885892
H   1.8089534565 -1.2734747403  0.3237244514
7
Iter 3 Image 1  Energy = -29.6790255076
C   0.8495582538  0.5847131161 -0.1609479254
H   0.5346260084  1.3026708073 -0.9172246591
O   0.5920320720  1.0208018239  1.1292519933
C   1.4498404561 -0.5802797370 -0.4312894970
H   0.7451791815  0.2813015989  1.7510052524
H   1.3977357571 -1.0324523256 -1.4121314851
H   2.0322700205 -1.0863885218  0.3352750300
7
Iter 3 Image 2  Energy = -29.6709304816
C   0.8713584019  0.6341131261 -0.1882056621
H   0.6323664284  1.4220286961 -0.9107801682
O   0.5633295800  0.9685547657  1.1257592661
C   1.4437180788 -0.5624242784 -0.4164240783
H   0.6670663364  0.1275536706  1.6236393305
H   1.2463271215 -1.2059201650 -1.2605022558
H   2.1770757802 -0.8935390175  0.3204521371
7
Iter 3 Image 3  Energy = -29.6489407486
C   0.8852250285  0.7067226562 -0.2033550633
H   0.6843965034  1.5267700247 -0.9063907096
O   0.5487466750  0.9114014830  1.1277255631
C   1.4123288256 -0.5426405479 -0.3564367253
H   0.7004278239 -0.0514534475  1.3690502145
H   1.1289861200 -1.3005213824 -1.0672382843
H   2.2411306512 -0.7599117905  0.3305834642
7
Iter 3 Image 4  Energy = -29.6072516358
C   0.8765704452  0.7836755663 -0.1620512681
H   0.6904691241  1.5535131013 -0.9217099627
O   0.5299006640  0.9767524520  1.1222357250
C   1.3484014083 -0.5567402322 -0.1919550951
H   0.7835442400 -0.2425341671  1.0665613249
H   1.0772697878 -1.2937330467 -0.9592954183
H   2.2950859557 -0.7305670243  0.3401539592
7
Iter 3 Image 5  Energy = -29.6668221718
C   0.8497427291  0.8512782377 -0.0968747563
H   0.7054918452  1.5421268169 -0.9431016580
O   0.5181493381  1.1973592612  1.0576493278
C   1.3102191803 -0.5673353582 -0.0699645260
H   0.8161985333 -0.5701239234  0.9529766006
H   1.0659344339 -1.2567462482 -0.9030754284
H   2.3355056053 -0.7061919372  0.2963290917
7
Iter 3 Image 6  Energy = -29.7052271879
C   0.8294017675  0.8823315515 -0.0382342826
H   0.7515118837  1.4649949148 -0.9803684242
O   0.5226130780  1.4109527114  1.0216002739
C   1.2898726578 -0.5613231648  0.0079663482
H   0.7910888370 -0.8934321708  0.9208817295
H   1.0545387388 -1.1693847336 -0.8689727118
H   2.3622145441 -0.6437719153  0.2310656489
7
Iter 3 Image 7  Energy = -29.7099935478
C   0.7831124003  0.8743798178 -0.0392005672
H   0.8064255637  1.3019798254 -1.0681925769
O   0.3943336358  1.5536931356  0.8935782696
C   1.2984131995 -0.5520195174  0.1044898127
H   0.9204158623 -0.9957475996  1.0304955846
H   1.0043307702 -1.1503640751 -0.7584986411
H   2.3942103705 -0.5415547709  0.1312668026
7
Iter 3 Image 8  Energy = -29.7096971637
C   0.7840367852  0.8656586589 -0.0371164025
H   0.9809293880  1.3403901038 -1.0231241499
O   0.1875804579  1.4681235287  0.8223429327
C   1.3100769769 -0.5359012779  0.1153731248
H   1.0639489065 -0.9236344469  1.1059940899
H   0.8779311114 -1.1816924395 -0.6582837811
H   2.3967379442 -0.5425772870 -0.0312469938
7
Iter 4 Image 0  Energy = -29.6796137011
C   0.8260657415  0.5508603911 -0.1261794589
H   0.4554445983  1.2417513435 -0.8784317668
O   0.5680753083  1.0246514429  1.1187434847
C   1.4411098584 -0.5873603774 -0.4363613732
H   0.9099091373  0.3932317500  1.7666320721
H   1.5916834696 -0.8592929697 -1.4741885892
H   1.8089534565 -1.2734747403  0.3237244514
7
Iter 4 Image 1  Energy = -29.6790255225
C   0.8496496172  0.5845795317 -0.1608963914
H   0.5346348896  1.3025241397 -0.9173524075
O   0.5919030525  1.0209977020  1.1290566494
C   1.4498812674 -0.5800823121 -0.4312894977
H   0.7450557851  0.2810885087  1.7510042780
H   1.3978514733 -1.0324551752 -1.4120731895
H   2.0322656618 -1.0862856279  0.3354892673
7
Iter 4 Image 2  Energy = -29.6709420151
C   0.8713527620  0.6339894829 -0.1882287264
H   0.6321068060  1.4219579373 -0.9107245138
O   0.5637262796  0.9686591560  1.1258775968
C   1.4437287290 -0.5623049148 -0.4165473478
H   0.6668189039  0.1276412120  1.6237331650
H   1.2466267172 -1.2060139754 -1.2606854478
H   2.1768815214 -0.8935620910  0.3205138456
7
Iter 4 Image 3  Energy = -29.6490755594
C   0.8855118566  0.7056839983 -0.2032489849
H   0.6844443023  1.5268472292 -0.9064740243
O   0.5488611453  0.9115520355  1.1273990627
C   1.4123262977 -0.5417077050 -0.3567104775
H   0.7001611139 -0.0512127080  1.3704126280
H   1.1292568908 -1.3009029637 -1.0679522271
H   2.2406800191 -0.7598929335  0.3305125747
7
Iter 4 Image 4  Energy = -29.6072649425
C   0.8773307780  0.7831579390 -0.1629806432
H   0.6909163982  1.5540583811 -0.9219751886
O   0.5296065367  0.9762287325  1.1234790578
C   1.3488671845 -0.5563869274 -0.1923254310
H   0.7828987178 -0.2429788233  1.0663324170
H   1.0764966981 -1.2943318365 -0.9583627957
H   2.2951253096 -0.7293808119  0.3397718379
7
Iter 4 Image 5  Energy = -29.6664191848
C   0.8498768218  0.8512127604 -0.0960123660
H   0.7055680754  1.5427090397 -0.9433426473
O   0.5188698357  1.1950170080  1.0569627496
C   1.3098251036 -0.5675641188 -0.0704920257
H   0.8159714855 -0.5679445291  0.9528961802
H   1.0659225078 -1.2571231811 -0.9026949824
H   2.3352078222 -0.7059401716  0.2966218817
7
Iter 4 Image 6  Energy = -29.7051597750
C   0.8294169004  0.8822304049 -0.0381821994
H   0.7512499939  1.4655163806 -0.9802303982
O   0.5225140406  1.4098529661  1.0214729662
C   1.2898898227 -0.5612989065  0.0076778313
H   0.7912818993 -0.8921617673  0.9210775654
H   1.0545898734 -1.1699636569 -0.8690050453
H   2.3622989862 -0.6438082523  0.2311278674
7
Iter 4 Image 7  Energy = -29.7099959320
C   0.7832344886  0.8740877213 -0.0395235871
H   0.8066002362  1.3022602420 -1.0681373678
O   0.3944676184  1.5534257149  0.8939771362
C   1.2982041967 -0.5520647533  0.1043383282
H   0.9203009997 -0.9953757458  1.0305307537
H   1.0043784778 -1.1508226773 -0.7584922767
H   2.3940557794 -0.5411436840  0.1312457041
7
Iter 4 Image 8  Energy = -29.7096971637
C   0.7840367852  0.8656586589 -0.0371164025
H   0.9809293880  1.3403901038 -1.0231241499
O   0.1875804579  1.4681235287  0.8223429327
C   1.3100769769 -0.5359012779  0.1153731248
H   1.0639489065 -0.9236344469  1.1059940899
H   0.8779311114 -1.1816924395 -0.6582837811
H   2.3967379442 -0.5425772870 -0.0312469938
