7
Image 0  Energy = -29.67961370
C   0.8260657415  0.5508603911 -0.1261794589
H   0.4554445983  1.2417513435 -0.8784317668
O   0.5680753083  1.0246514429  1.1187434847
C   1.4411098584 -0.5873603774 -0.4363613732
H   0.9099091373  0.3932317500  1.7666320721
H   1.5916834696 -0.8592929697 -1.4741885892
H   1.8089534565 -1.2734747403  0.3237244514
7
Image 1  Energy = -29.67902552
C   0.8496496172  0.5845795317 -0.1608963914
H   0.5346348896  1.3025241397 -0.9173524075
O   0.5919030525  1.0209977020  1.1290566494
C   1.4498812674 -0.5800823121 -0.4312894977
H   0.7450557851  0.2810885087  1.7510042780
H   1.3978514733 -1.0324551752 -1.4120731895
H   2.0322656618 -1.0862856279  0.3354892673
7
Image 2  Energy = -29.67094202
C   0.8713527620  0.6339894829 -0.1882287264
H   0.6321068060  1.4219579373 -0.9107245138
O   0.5637262796  0.9686591560  1.1258775968
C   1.4437287290 -0.5623049148 -0.4165473478
H   0.6668189039  0.1276412120  1.6237331650
H   1.2466267172 -1.2060139754 -1.2606854478
H   2.1768815214 -0.8935620910  0.3205138456
7
Image 3  Energy = -29.64907556
C   0.8855118566  0.7056839983 -0.2032489849
H   0.6844443023  1.5268472292 -0.9064740243
O   0.5488611453  0.9115520355  1.1273990627
C   1.4123262977 -0.5417077050 -0.3567104775
H   0.7001611139 -0.0512127080  1.3704126280
H   1.1292568908 -1.3009029637 -1.0679522271
H   2.2406800191 -0.7598929335  0.3305125747
7
Image 4  Energy = -29.60726494
C   0.8773307780  0.7831579390 -0.1629806432
H   0.6909163982  1.5540583811 -0.9219751886
O   0.5296065367  0.9762287325  1.1234790578
C   1.3488671845 -0.5563869274 -0.1923254310
H   0.7828987178 -0.2429788233  1.0663324170
H   1.0764966981 -1.2943318365 -0.9583627957
H   2.2951253096 -0.7293808119  0.3397718379
7
Image 5  Energy = -29.60735152
C   0.8617041032  0.7712090442 -0.1728184158
H   0.6613493114  1.5336595371 -0.9376103354
O   0.5523912670  0.9876175159  1.1207212852
C   1.3421360726 -0.5673774351 -0.1822347641
H   0.8186769159 -0.2250479463  1.0870537473
H   1.0222516706 -1.3466674022 -0.8856972210
H   2.3216789848 -0.7021695976  0.2974721100
7
Image 6  Energy = -29.66641918
C   0.8498768218  0.8512127604 -0.0960123660
H   0.7055680754  1.5427090397 -0.9433426473
O   0.5188698357  1.1950170080  1.0569627496
C   1.3098251036 -0.5675641188 -0.0704920257
H   0.8159714855 -0.5679445291  0.9528961802
H   1.0659225078 -1.2571231811 -0.9026949824
H   2.3352078222 -0.7059401716  0.2966218817
7
Image 7  Energy = -29.70515978
C   0.8294169004  0.8822304049 -0.0381821994
H   0.7512499939  1.4655163806 -0.9802303982
O   0.5225140406  1.4098529661  1.0214729662
C   1.2898898227 -0.5612989065  0.0076778313
H   0.7912818993 -0.8921617673  0.9210775654
H   1.0545898734 -1.1699636569 -0.8690050453
H   2.3622989862 -0.6438082523  0.2311278674
7
Image 8  Energy = -29.70999593
C   0.7832344886  0.8740877213 -0.0395235871
H   0.8066002362  1.3022602420 -1.0681373678
O   0.3944676184  1.5534257149  0.8939771362
C   1.2982041967 -0.5520647533  0.1043383282
H   0.9203009997 -0.9953757458  1.0305307537
H   1.0043784778 -1.1508226773 -0.7584922767
H   2.3940557794 -0.5411436840  0.1312457041
7
Image 9  Energy = -29.70969716
C   0.7840367852  0.8656586589 -0.0371164025
H   0.9809293880  1.3403901038 -1.0231241499
O   0.1875804579  1.4681235287  0.8223429327
C   1.3100769769 -0.5359012779  0.1153731248
H   1.0639489065 -0.9236344469  1.1059940899
H   0.8779311114 -1.1816924395 -0.6582837811
H   2.3967379442 -0.5425772870 -0.0312469938
