7
Iter 0 Image 0  Energy = -29.6796137011
C   0.8260657415  0.5508603911 -0.1261794589
H   0.4554445983  1.2417513435 -0.8784317668
O   0.5680753083  1.0246514429  1.1187434847
C   1.4411098584 -0.5873603774 -0.4363613732
H   0.9099091373  0.3932317500  1.7666320721
H   1.5916834696 -0.8592929697 -1.4741885892
H   1.8089534565 -1.2734747403  0.3237244514
7
Iter 0 Image 1  Energy = -29.6537447935
C   0.8209821759  0.5902017763 -0.1159852948
H   0.5215467954  1.2543689367 -0.8971267702
O   0.5209094565  1.0788776751  1.0835664050
C   1.4237386213 -0.5795691082 -0.3680049193
H   0.9284543025  0.2290400429  1.6828869740
H   1.5017702259 -0.9000539442 -1.3719048124
H   1.8838399925 -1.1824985384  0.2805072377
7
Iter 0 Image 2  Energy = -29.5941842264
C   0.8159258520  0.6294181933 -0.1049529479
H   0.5873873816  1.2669142410 -0.9156133154
O   0.4731147023  1.1343603533  1.0467764828
C   1.4058079080 -0.5719055657 -0.3003494272
H   0.9476321344  0.0642368867  1.6005737172
H   1.4121623288 -0.9406427506 -1.2700317109
H   1.9592112628 -1.0920145180  0.2375360211
7
Iter 0 Image 3  Energy = -29.5360012269
C   0.8105997335  0.6690046049 -0.0933611172
H   0.6528449949  1.2793731305 -0.9339228944
O   0.4253762892  1.1901324651  1.0094078961
C   1.3875544417 -0.5650395240 -0.2317370967
H   0.9671975317 -0.1004995544  1.5181929286
H   1.3230571333 -0.9810271904 -1.1687532651
H   2.0346114461 -1.0015770914  0.1941123688
7
Iter 0 Image 4  Energy = -29.5208989000
C   0.8051193993  0.7086939661 -0.0817902033
H   0.7178129316  1.2916448199 -0.9518491184
O   0.3777109380  1.2466183108  0.9714288167
C   1.3698109640 -0.5591082470 -0.1615425788
H   0.9871604759 -0.2654571894  1.4361719900
H   1.2346601354 -1.0210731823 -1.0679515822
H   2.1089667258 -0.9109516383  0.1494714959
7
Iter 0 Image 5  Energy = -29.5679703495
C   0.7996982201  0.7483923465 -0.0706328830
H   0.7831365490  1.3037925830 -0.9696468238
O   0.3305345417  1.3017477334  0.9340075482
C   1.3537375454 -0.5536653477 -0.0908018871
H   1.0063452582 -0.4295776146  1.3534955994
H   1.1458246463 -1.0612168864 -0.9662371900
H   2.1819648100 -0.8191059742  0.1037544564
7
Iter 0 Image 6  Energy = -29.6361806309
C   0.7945025353  0.7874492173 -0.0595177361
H   0.8488506761  1.3159891178 -0.9874934065
O   0.2831086106  1.3568544831  0.8969652893
C   1.3390284487 -0.5481655985 -0.0206620862
H   1.0255135351 -0.5935993315  1.2702460357
H   1.0566834313 -1.1014181624 -0.8638273382
H   2.2535543329 -0.7267428857  0.0582280623
7
Iter 0 Image 7  Energy = -29.6899499661
C   0.7893425187  0.8264822811 -0.0485018182
H   0.9148655143  1.3282222616 -1.0053782205
O   0.2352917502  1.4124985507  0.8598839611
C   1.3248028982 -0.5424204440  0.0478957202
H   1.0447500738 -0.7583543706  1.1878249246
H   0.9673729149 -1.1415665658 -0.7610331876
H   2.3248158998 -0.6344948730  0.0132474403
7
Iter 0 Image 8  Energy = -29.7096971637
C   0.7840367852  0.8656586589 -0.0371164025
H   0.9809293880  1.3403901038 -1.0231241499
O   0.1875804579  1.4681235287  0.8223429327
C   1.3100769769 -0.5359012779  0.1153731248
H   1.0639489065 -0.9236344469  1.1059940899
H   0.8779311114 -1.1816924395 -0.6582837811
H   2.3967379442 -0.5425772870 -0.0312469938
7
Iter 1 Image 0  Energy = -29.6796137011
C   0.8260657415  0.5508603911 -0.1261794589
H   0.4554445983  1.2417513435 -0.8784317668
O   0.5680753083  1.0246514429  1.1187434847
C   1.4411098584 -0.5873603774 -0.4363613732
H   0.9099091373  0.3932317500  1.7666320721
H   1.5916834696 -0.8592929697 -1.4741885892
H   1.8089534565 -1.2734747403  0.3237244514
7
Iter 1 Image 1  Energy = -29.6690157270
C   0.8226734086  0.5932727678 -0.1325012246
H   0.5291695970  1.2615593676 -0.9105999747
O   0.5310980812  1.0500204347  1.1214728328
C   1.4065938717 -0.5573518820 -0.3789388745
H   0.9121675630  0.2414754788  1.6604542812
H   1.4876035677 -0.9099836526 -1.3693868668
H   1.9119354897 -1.1886256634  0.3034386611
7
Iter 1 Image 2  Energy = -29.6295514917
C   0.8191803297  0.6338833772 -0.1253110523
H   0.5973308154  1.2786011262 -0.9366550357
O   0.4807969633  1.1020983046  1.0930454162
C   1.3727872794 -0.5414121058 -0.3231152515
H   0.9277860879  0.0786436667  1.5832839995
H   1.3902286797 -0.9568569842 -1.2743216852
H   2.0131314485 -1.1045905384  0.2770124536
7
Iter 1 Image 3  Energy = -29.5804788908
C   0.8108164968  0.6808970650 -0.1078667342
H   0.6587766878  1.2937742660 -0.9594014587
O   0.4284148251  1.1667573283  1.0511974345
C   1.3414825741 -0.5405977387 -0.2494912354
H   0.9543646857 -0.0909530720  1.5026573818
H   1.3019020028 -0.9986812116 -1.1851744571
H   2.1054842897 -1.0208298051  0.2420178625
7
Iter 1 Image 4  Energy = -29.5654768115
C   0.8001205464  0.7284194527 -0.0883543175
H   0.7093506661  1.3046007540 -0.9748099712
O   0.3757669912  1.2519307964  0.9923779777
C   1.3160128607 -0.5461124475 -0.1553434264
H   0.9919415045 -0.2711506098  1.4313066586
H   1.2308316677 -1.0315366789 -1.1048286728
H   2.1772173616 -0.9457843970  0.1935905639
7
Iter 1 Image 5  Energy = -29.6099926597
C   0.7937727481  0.7720594240 -0.0758821634
H   0.7684913699  1.3134083643 -0.9878545774
O   0.3344914764  1.3041028111  0.9466752704
C   1.2910369669 -0.5441577661 -0.0610480814
H   1.0096439167 -0.4302243950  1.3438915309
H   1.1486436679 -1.0688816192 -1.0047185115
H   2.2551613803 -0.8559399780  0.1328753650
7
Iter 1 Image 6  Energy = -29.6648994154
C   0.7919286056  0.8018935953 -0.0633859319
H   0.8349644559  1.3227648123 -1.0008497100
O   0.2900056901  1.3518927980  0.9084858372
C   1.2841219479 -0.5437283019  0.0251206232
H   1.0271816005 -0.5826967718  1.2455677836
H   1.0611263342 -1.1079853148 -0.8926896808
H   2.3119129196 -0.7517739967  0.0716899013
7
Iter 1 Image 7  Energy = -29.6985551184
C   0.7891906166  0.8320817775 -0.0525178952
H   0.9074914092  1.3323347172 -1.0138626057
O   0.2383308558  1.4093361521  0.8694141807
C   1.2953443282 -0.5452825305  0.0796826646
H   1.0455046341 -0.7474420578  1.1700136131
H   0.9707949824 -1.1456311537 -0.7747346430
H   2.3545847338 -0.6450300720  0.0159435377
7
Iter 1 Image 8  Energy = -29.7096971637
C   0.7840367852  0.8656586589 -0.0371164025
H   0.9809293880  1.3403901038 -1.0231241499
O   0.1875804579  1.4681235287  0.8223429327
C   1.3100769769 -0.5359012779  0.1153731248
H   1.0639489065 -0.9236344469  1.1059940899
H   0.8779311114 -1.1816924395 -0.6582837811
H   2.3967379442 -0.5425772870 -0.0312469938
7
Iter 2 Image 0  Energy = -29.6796137011
C   0.8260657415  0.5508603911 -0.1261794589
H   0.4554445983  1.2417513435 -0.8784317668
O   0.5680753083  1.0246514429  1.1187434847
C   1.4411098584 -0.5873603774 -0.4363613732
H   0.9099091373  0.3932317500  1.7666320721
H   1.5916834696 -0.8592929697 -1.4741885892
H   1.8089534565 -1.2734747403  0.3237244514
7
Iter 2 Image 1  Energy = -29.6734754956
C   0.8200716451  0.6032634501 -0.1396094441
H   0.5340454986  1.2713613157 -0.9241593597
O   0.5415088158  1.0222444084  1.1496089299
C   1.4026689889 -0.5547125916 -0.3833139633
H   0.8964637565  0.2548422934  1.6462175090
H   1.4744847037 -0.9200442583 -1.3739956035
H   1.9319981764 -1.1865877635  0.3191907705
7
Iter 2 Image 2  Energy = -29.6490477389
C   0.8155741605  0.6508656993 -0.1360961599
H   0.6072484177  1.2944344392 -0.9578605654
O   0.4948578052  1.0563247451  1.1344739191
C   1.3643842799 -0.5412732338 -0.3263551532
H   0.9024590541  0.1021558404  1.5610806137
H   1.3641346252 -0.9756237890 -1.2806736849
H   2.0525832650 -1.0965168519  0.2993698728
7
Iter 2 Image 3  Energy = -29.5955572641
C   0.8061114708  0.7007681859 -0.1175066730
H   0.6643420256  1.3113443570 -0.9837366796
O   0.4351756684  1.1384828821  1.0872430630
C   1.3260616957 -0.5448475803 -0.2480055952
H   0.9391951965 -0.0793489724  1.4836154607
H   1.2781451760 -1.0163755117 -1.1985587681
H   2.1522103318 -1.0196565221  0.2708879810
7
Iter 2 Image 4  Energy = -29.5769318929
C   0.7915844051  0.7529092387 -0.0922854717
H   0.6988689217  1.3195805934 -0.9982873483
O   0.3773669245  1.2546592853  1.0111154104
C   1.2876373380 -0.5533272165 -0.1442713297
H   0.9961271487 -0.2754918315  1.4224417550
H   1.2286682080 -1.0366965448 -1.1360163246
H   2.2209886607 -0.9712666472  0.2312421165
7
Iter 2 Image 5  Energy = -29.6213435149
C   0.7858777549  0.7971273629 -0.0806033643
H   0.7516613329  1.3257104287 -1.0084518978
O   0.3388563579  1.3099840468  0.9611079195
C   1.2691531905 -0.5575485035 -0.0291821150
H   1.0128323516 -0.4324680053  1.3275578569
H   1.1536672766 -1.0692662452 -1.0346114683
H   2.2891932599 -0.8831722368  0.1581219073
7
Iter 2 Image 6  Energy = -29.6712871856
C   0.7872873618  0.8182526011 -0.0671664008
H   0.8203532238  1.3312986751 -1.0164435109
O   0.2956910711  1.3526446262  0.9214019092
C   1.2653626908 -0.5531792968  0.0608329854
H   1.0266390656 -0.5778497079  1.2202692794
H   1.0661292396 -1.1089131000 -0.9106609778
H   2.3397788905 -0.7718869796  0.0857055412
7
Iter 2 Image 7  Energy = -29.6998117185
C   0.7868346069  0.8391833958 -0.0533079527
H   0.9008548967  1.3372815964 -1.0238735832
O   0.2411720194  1.4088279233  0.8773085150
C   1.2838045357 -0.5500607577  0.1002070450
H   1.0435767565 -0.7432104619  1.1548178973
H   0.9730015345 -1.1484998828 -0.7810540148
H   2.3719972070 -0.6531549831  0.0198409534
7
Iter 2 Image 8  Energy = -29.7096971637
C   0.7840367852  0.8656586589 -0.0371164025
H   0.9809293880  1.3403901038 -1.0231241499
O   0.1875804579  1.4681235287  0.8223429327
C   1.3100769769 -0.5359012779  0.1153731248
H   1.0639489065 -0.9236344469  1.1059940899
H   0.8779311114 -1.1816924395 -0.6582837811
H   2.3967379442 -0.5425772870 -0.0312469938
7
Iter 3 Image 0  Energy = -29.6796137160
C   0.8260657415  0.5508603911 -0.1261794589
H   0.4554445983  1.2417513435 -0.8784317668
O   0.5680753083  1.0246514429  1.1187434847
C   1.4411098584 -0.5873603774 -0.4363613732
H   0.9099091373  0.3932317500  1.7666320721
H   1.5916834696 -0.8592929697 -1.4741885892
H   1.8089534565 -1.2734747403  0.3237244514
7
Iter 3 Image 1  Energy = -29.6754732645
C   0.8234276344  0.5992554115 -0.1364637702
H   0.5319263686  1.2935216409 -0.9413656056
O   0.5439673271  1.0157452101  1.1531428049
C   1.4087611219 -0.5588206704 -0.3898735983
H   0.8864562794  0.2528040057  1.6662646912
H   1.4603974241 -0.9342439074 -1.3960033149
H   1.9463054319 -1.1778948364  0.3382376323
7
Iter 3 Image 2  Energy = -29.6593834674
C   0.8220791085  0.6481653185 -0.1362973946
H   0.6197068868  1.3335213937 -0.9891247554
O   0.5159517478  0.9905516985  1.1711677845
C   1.3581188920 -0.5388948059 -0.3250510222
H   0.8616771066  0.1329758325  1.5362529728
H   1.3144733145 -1.0102958711 -1.2885913222
H   2.1092345424 -1.0656567100  0.3255825583
7
Iter 3 Image 3  Energy = -29.6068119770
C   0.8052836291  0.7109991629 -0.1203262878
H   0.6702401075  1.3480654465 -1.0176247194
O   0.4509976040  1.0943737651  1.1210611329
C   1.3084669123 -0.5519818974 -0.2323095057
H   0.9127252960 -0.0648967775  1.4466264684
H   1.2370588076 -1.0420272162 -1.2038314368
H   2.2164692235 -1.0041656202  0.3003431376
7
Iter 3 Image 4  Energy = -29.5819925284
C   0.7778833532  0.7811473946 -0.0900948708
H   0.6794609489  1.3483462168 -1.0322056654
O   0.3902067910  1.2510201237  1.0308872250
C   1.2806271722 -0.5785986375 -0.1269021946
H   0.9982893219 -0.2810022116  1.3980129232
H   1.2252098042 -1.0370335513 -1.1683121985
H   2.2495642264 -0.9935124495  0.2825535755
7
Iter 3 Image 5  Energy = -29.6288643247
C   0.7781346786  0.8135495517 -0.0716713841
H   0.7200360388  1.3509355915 -1.0431350420
O   0.3504893803  1.3243569042  0.9767791111
C   1.2545815320 -0.5762218679  0.0003863567
H   1.0162344200 -0.4418021011  1.2840249625
H   1.1632715141 -1.0585126594 -1.0596526553
H   2.3184939957 -0.9219385617  0.2072074709
7
Iter 3 Image 6  Energy = -29.6751970714
C   0.7807393569  0.8319824545 -0.0596408384
H   0.7945172143  1.3486067171 -1.0448053284
O   0.3051275234  1.3662107171  0.9359347367
C   1.2719620845 -0.5681224404  0.0705236666
H   1.0180298892 -0.5885019833  1.1884436487
H   1.0720074187 -1.1015229873 -0.9110578057
H   2.3588580486 -0.7982856468  0.1145407509
7
Iter 3 Image 7  Energy = -29.7009123033
C   0.7827494037  0.8473353350 -0.0519012844
H   0.8877638548  1.3452304336 -1.0393009117
O   0.2457653145  1.4151437509  0.8894744496
C   1.2972390510 -0.5540453178  0.0901943377
H   1.0312271883 -0.7495934039  1.1493315857
H   0.9766953151 -1.1487799669 -0.7757803663
H   2.3798014219 -0.6649240009  0.0319210471
7
Iter 3 Image 8  Energy = -29.7096971637
C   0.7840367852  0.8656586589 -0.0371164025
H   0.9809293880  1.3403901038 -1.0231241499
O   0.1875804579  1.4681235287  0.8223429327
C   1.3100769769 -0.5359012779  0.1153731248
H   1.0639489065 -0.9236344469  1.1059940899
H   0.8779311114 -1.1816924395 -0.6582837811
H   2.3967379442 -0.5425772870 -0.0312469938
7
Iter 4 Image 0  Energy = -29.6796137011
C   0.8260657415  0.5508603911 -0.1261794589
H   0.4554445983  1.2417513435 -0.8784317668
O   0.5680753083  1.0246514429  1.1187434847
C   1.4411098584 -0.5873603774 -0.4363613732
H   0.9099091373  0.3932317500  1.7666320721
H   1.5916834696 -0.8592929697 -1.4741885892
H   1.8089534565 -1.2734747403  0.3237244514
7
Iter 4 Image 1  Energy = -29.6761810100
C   0.8197814121  0.6138794303 -0.1532602500
H   0.5377914396  1.3014878069 -0.9388501811
O   0.5487184949  1.0034556045  1.1566131557
C   1.4215259540 -0.5754526075 -0.4008158924
H   0.8723019771  0.2539269686  1.6859123619
H   1.4418786292 -0.9473331459 -1.4046122350
H   1.9592436799 -1.1595972044  0.3489518764
7
Iter 4 Image 2  Energy = -29.6624310678
C   0.8192288439  0.6659640957 -0.1561641451
H   0.6260330553  1.3523909914 -0.9808142046
O   0.5220089314  0.9785913270  1.1721705430
C   1.3871469057 -0.5760950750 -0.3532492228
H   0.8373216897  0.1351954526  1.5631062951
H   1.2788794037 -1.0325842429 -1.2910962340
H   2.1306227522 -1.0330956922  0.3399857708
7
Iter 4 Image 3  Energy = -29.6115356600
C   0.8008407132  0.7341752905 -0.1472078550
H   0.6697777610  1.3722703087 -1.0224083245
O   0.4673619607  1.0667913534  1.1368247037
C   1.3205684277 -0.5845487842 -0.2234212882
H   0.8924985995 -0.0613361386  1.4247115473
H   1.2072205136 -1.0541865620 -1.1915423437
H   2.2429736326 -0.9827985841  0.3169823616
7
Iter 4 Image 4  Energy = -29.5826740778
C   0.7777194004  0.7807863349 -0.1003139987
H   0.6630408371  1.3706900564 -1.0422537338
O   0.4088944852  1.2403711898  1.0438595747
C   1.2769107744 -0.5766519257 -0.1196179240
H   0.9918506419 -0.2859475432  1.3656471553
H   1.2187257337 -1.0370140704 -1.1767634815
H   2.2640997507 -1.0018671656  0.3233811861
7
Iter 4 Image 5  Energy = -29.6345825559
C   0.7716360281  0.8345782595 -0.0875872939
H   0.6913048618  1.3608539850 -1.0469707568
O   0.3679246987  1.3338153675  0.9885857886
C   1.2726747438 -0.5907103259  0.0121615214
H   1.0137818898 -0.4595053315  1.2374823196
H   1.1696470178 -1.0430157418 -1.0643271686
H   2.3142723653 -0.9456493385  0.2545943823
7
Iter 4 Image 6  Energy = -29.6781089073
C   0.7811506140  0.8446971890 -0.0687290626
H   0.7638989190  1.3571754242 -1.0530350994
O   0.3183611848  1.3826910338  0.9466856424
C   1.2869591807 -0.5656056710  0.0639539133
H   1.0045707037 -0.6115798326  1.1627710659
H   1.0758949932 -1.0938467320 -0.9084930016
H   2.3704059442 -0.8231645665  0.1507853802
7
Iter 4 Image 7  Energy = -29.7018047488
C   0.7808820257  0.8580451674 -0.0531928119
H   0.8686865212  1.3518387361 -1.0475819793
O   0.2568779038  1.4192660669  0.8940747116
C   1.3021974903 -0.5488941077  0.0981764752
H   1.0198697720 -0.7602551249  1.1307242988
H   0.9785057127 -1.1517950827 -0.7754245435
H   2.3942221189 -0.6778388195  0.0471626985
7
Iter 4 Image 8  Energy = -29.7096971637
C   0.7840367852  0.8656586589 -0.0371164025
H   0.9809293880  1.3403901038 -1.0231241499
O   0.1875804579  1.4681235287  0.8223429327
C   1.3100769769 -0.5359012779  0.1153731248
H   1.0639489065 -0.9236344469  1.1059940899
H   0.8779311114 -1.1816924395 -0.6582837811
H   2.3967379442 -0.5425772870 -0.0312469938
7
Iter 5 Image 0  Energy = -29.6796137011
C   0.8260657415  0.5508603911 -0.1261794589
H   0.4554445983  1.2417513435 -0.8784317668
O   0.5680753083  1.0246514429  1.1187434847
C   1.4411098584 -0.5873603774 -0.4363613732
H   0.9099091373  0.3932317500  1.7666320721
H   1.5916834696 -0.8592929697 -1.4741885892
H   1.8089534565 -1.2734747403  0.3237244514
7
Iter 5 Image 1  Energy = -29.6773565775
C   0.8263455166  0.6055728173 -0.1580408641
H   0.5399886845  1.3104137089 -0.9381392831
O   0.5498737005  1.0005362523  1.1513982888
C   1.4240870091 -0.5736610190 -0.4053684661
H   0.8638047970  0.2516469208  1.7016745537
H   1.4298892336 -0.9582558874 -1.4109145315
H   1.9672526445 -1.1458859458  0.3533291331
7
Iter 5 Image 2  Energy = -29.6664284831
C   0.8299992169  0.6482886170 -0.1633620439
H   0.6265595092  1.3678581322 -0.9741491647
O   0.5230378711  0.9823268406  1.1614313148
C   1.4003201931 -0.5743805884 -0.3565727841
H   0.8249821230  0.1302529471  1.5854313952
H   1.2590437171 -1.0524469864 -1.3011056074
H   2.1372989420 -1.0115321055  0.3422656812
7
Iter 5 Image 3  Energy = -29.6154849446
C   0.8068319115  0.7226009244 -0.1495675881
H   0.6649411301  1.3901252163 -1.0250525584
O   0.4797166516  1.0527971352  1.1344020008
C   1.3278817884 -0.5839160990 -0.2150619949
H   0.8811270942 -0.0594719711  1.4106675157
H   1.1938559512 -1.0630397071 -1.1852314406
H   2.2468870991 -0.9687286033  0.3237828742
7
Iter 5 Image 4  Energy = -29.5851152903
C   0.7780763956  0.7814066181 -0.1056081834
H   0.6541409739  1.3821521185 -1.0409594715
O   0.4247536411  1.2275738665  1.0466785974
C   1.2883924882 -0.5807687337 -0.1150895456
H   0.9838309148 -0.2867347427  1.3402456717
H   1.2133260505 -1.0366551804 -1.1718623450
H   2.2587211588 -0.9966070791  0.3405340448
7
Iter 5 Image 5  Energy = -29.6380714393
C   0.7709833517  0.8375671209 -0.0846149985
H   0.6736138855  1.3692408977 -1.0494122072
O   0.3834623541  1.3343607661  0.9873235649
C   1.2876589918 -0.5903317260  0.0111226615
H   1.0083570829 -0.4714731264  1.2073788620
H   1.1726462359 -1.0343399500 -1.0602942098
H   2.3045197336 -0.9546570987  0.2824351052
7
Iter 5 Image 6  Energy = -29.6803828096
C   0.7804453667  0.8548740962 -0.0686549505
H   0.7429724001  1.3619806527 -1.0553514945
O   0.3318118453  1.3903660500  0.9454149785
C   1.3041769538 -0.5621758870  0.0574178059
H   0.9940189059 -0.6297927412  1.1450738399
H   1.0783308192 -1.0883942350 -0.9056897339
H   2.3694852585 -0.8364910791  0.1757283910
7
Iter 5 Image 7  Energy = -29.7026250726
C   0.7820816979  0.8631637061 -0.0559352672
H   0.8549592886  1.3557464688 -1.0511344683
O   0.2638114897  1.4251524183  0.8973817237
C   1.3100918721 -0.5458218200  0.0948106417
H   1.0106995371 -0.7714132428  1.1212327066
H   0.9799835296 -1.1516297864 -0.7712468071
H   2.3996141285 -0.6848309041  0.0588303143
7
Iter 5 Image 8  Energy = -29.7096971637
C   0.7840367852  0.8656586589 -0.0371164025
H   0.9809293880  1.3403901038 -1.0231241499
O   0.1875804579  1.4681235287  0.8223429327
C   1.3100769769 -0.5359012779  0.1153731248
H   1.0639489065 -0.9236344469  1.1059940899
H   0.8779311114 -1.1816924395 -0.6582837811
H   2.3967379442 -0.5425772870 -0.0312469938
7
Iter 6 Image 0  Energy = -29.6796137011
C   0.8260657415  0.5508603911 -0.1261794589
H   0.4554445983  1.2417513435 -0.8784317668
O   0.5680753083  1.0246514429  1.1187434847
C   1.4411098584 -0.5873603774 -0.4363613732
H   0.9099091373  0.3932317500  1.7666320721
H   1.5916834696 -0.8592929697 -1.4741885892
H   1.8089534565 -1.2734747403  0.3237244514
7
Iter 6 Image 1  Energy = -29.6784496224
C   0.8404660760  0.5903828457 -0.1646427144
H   0.5458770257  1.3276177074 -0.9302998756
O   0.5569993630  0.9869914826  1.1379196856
C   1.4346397435 -0.5750008582 -0.4222354733
H   0.8381191223  0.2557303367  1.7378379304
H   1.4020584243 -0.9857561809 -1.4232643588
H   1.9830818257 -1.1095984776  0.3586236282
7
Iter 6 Image 2  Energy = -29.6690152353
C   0.8537149351  0.6203732833 -0.1762518726
H   0.6298692505  1.3955845667 -0.9516563320
O   0.5331996299  0.9756957637  1.1345071650
C   1.4219661924 -0.5717903945 -0.3717987374
H   0.7907294453  0.1277236946  1.6205479489
H   1.2150493569 -1.0980079090 -1.3041169010
H   2.1567127454 -0.9592121386  0.3427074995
7
Iter 6 Image 3  Energy = -29.6228502607
C   0.8233284330  0.7008868889 -0.1582535213
H   0.6488983635  1.4181163680 -1.0138236165
O   0.5128688932  1.0215937050  1.1195845123
C   1.3451973850 -0.5751042100 -0.2135473494
H   0.8563069593 -0.0574035881  1.3770587120
H   1.1741906301 -1.0799139785 -1.1614796432
H   2.2404509839 -0.9378082587  0.3443997156
7
Iter 6 Image 4  Energy = -29.5913435733
C   0.7876079947  0.7771048887 -0.1179900552
H   0.6350542687  1.4066596931 -1.0275337045
O   0.4680761257  1.1858531150  1.0530337315
C   1.3179676249 -0.5860364599 -0.1003492093
H   0.9575839171 -0.2827150040  1.2608827287
H   1.1987588435 -1.0411397188 -1.1451722602
H   2.2361928564 -0.9693596676  0.3710675166
7
Iter 6 Image 5  Energy = -29.6449209070
C   0.7839198125  0.8327060353 -0.0884014018
H   0.6336949003  1.3892740317 -1.0468857388
O   0.4229982854  1.3302015854  0.9915008044
C   1.3120883310 -0.5755610175 -0.0018070957
H   0.9845676156 -0.5020266869  1.1350943914
H   1.1762780074 -1.0194715091 -1.0395607962
H   2.2876947392 -0.9647555357  0.3439985874
7
Iter 6 Image 6  Energy = -29.6844457454
C   0.7891854625  0.8701877180 -0.0704425953
H   0.6884703118  1.3748159373 -1.0585879772
O   0.3678273682  1.4109397430  0.9444388574
C   1.3375359929 -0.5483405006  0.0454326265
H   0.9649939807 -0.6782244046  1.0918798987
H   1.0859706042 -1.0743240589 -0.8995473846
H   2.3672578667 -0.8646875476  0.2407653923
7
Iter 6 Image 7  Energy = -29.7042186475
C   0.7864445725  0.8760956173 -0.0577650557
H   0.8181116839  1.3655181803 -1.0586151727
O   0.2854632635  1.4412904372  0.8993654427
C   1.3300595020 -0.5387858530  0.0821945159
H   0.9859086229 -0.8058292673  1.0958770963
H   0.9841791370 -1.1487888315 -0.7579833594
H   2.4110747637 -0.6991334325  0.0908653554
7
Iter 6 Image 8  Energy = -29.7096971637
C   0.7840367852  0.8656586589 -0.0371164025
H   0.9809293880  1.3403901038 -1.0231241499
O   0.1875804579  1.4681235287  0.8223429327
C   1.3100769769 -0.5359012779  0.1153731248
H   1.0639489065 -0.9236344469  1.1059940899
H   0.8779311114 -1.1816924395 -0.6582837811
H   2.3967379442 -0.5425772870 -0.0312469938
7
Iter 7 Image 0  Energy = -29.6796137011
C   0.8260657415  0.5508603911 -0.1261794589
H   0.4554445983  1.2417513435 -0.8784317668
O   0.5680753083  1.0246514429  1.1187434847
C   1.4411098584 -0.5873603774 -0.4363613732
H   0.9099091373  0.3932317500  1.7666320721
H   1.5916834696 -0.8592929697 -1.4741885892
H   1.8089534565 -1.2734747403  0.3237244514
7
Iter 7 Image 1  Energy = -29.6782786018
C   0.8507510597  0.5813849485 -0.1662901004
H   0.5508675601  1.3345521362 -0.9183982322
O   0.5620157639  0.9803813836  1.1282544264
C   1.4419119221 -0.5756279017 -0.4370037326
H   0.8176916114  0.2611741627  1.7609823010
H   1.3842423214 -1.0083168598 -1.4309681895
H   1.9937613340 -1.0831810185  0.3573623334
7
Iter 7 Image 2  Energy = -29.6702888972
C   0.8671129471  0.6145776017 -0.1816311859
H   0.6310357094  1.4033585428 -0.9301860682
O   0.5469520869  0.9602108516  1.1230367107
C   1.4334966061 -0.5727863594 -0.3906030116
H   0.7625065110  0.1402292772  1.6336951082
H   1.1952166693 -1.1298097649 -1.2990216481
H   2.1649210258 -0.9254132775  0.3386488484
7
Iter 7 Image 3  Energy = -29.6287590480
C   0.8386897831  0.6929270994 -0.1666659421
H   0.6336342236  1.4259910102 -0.9945846315
O   0.5398619547  0.9954549778  1.1174927725
C   1.3611029703 -0.5648699473 -0.2247531178
H   0.8368478639 -0.0485040936  1.3431195856
H   1.1719089281 -1.0947903475 -1.1450897275
H   2.2191959454 -0.9158417815  0.3644198627
7
Iter 7 Image 4  Energy = -29.5965262717
C   0.8071212861  0.7721332895 -0.1232169081
H   0.6246706672  1.4203604476 -1.0087707174
O   0.5008771093  1.1523912703  1.0591512476
C   1.3203091577 -0.5802002622 -0.1069488463
H   0.9324414238 -0.2812552315  1.1924094888
H   1.1875762363 -1.0552084576 -1.1078137898
H   2.2282457429 -0.9378542179  0.3891282674
7
Iter 7 Image 5  Energy = -29.6500178790
C   0.7982412912  0.8374404681 -0.0812062338
H   0.6129005684  1.4017637151 -1.0354987065
O   0.4626972971  1.3092141118  0.9862626586
C   1.3298679110 -0.5613794132 -0.0115490222
H   0.9486179010 -0.5233507653  1.0788718834
H   1.1712354819 -1.0247587148 -1.0165170606
H   2.2776812662 -0.9485625036  0.3735752050
7
Iter 7 Image 6  Energy = -29.6872906154
C   0.8038292682  0.8783117368 -0.0703734927
H   0.6491382764  1.3827914745 -1.0560777965
O   0.4021491804  1.4235098229  0.9432901498
C   1.3498555011 -0.5378028128  0.0330914707
H   0.9345945832 -0.7190137801  1.0448892362
H   1.0941398851 -1.0638439824 -0.8904410282
H   2.3675349377 -0.8735855491  0.2895602630
7
Iter 7 Image 7  Energy = -29.7049450046
C   0.7974899524  0.8802897203 -0.0664686302
H   0.7877126181  1.3716617463 -1.0612364042
O   0.3028395356  1.4608332821  0.9048128228
C   1.3387327347 -0.5343049870  0.0822207091
H   0.9668938669 -0.8374493317  1.0679084793
H   0.9872411974 -1.1462550486 -0.7512637264
H   2.4203316359 -0.7044085238  0.1179655643
7
Iter 7 Image 8  Energy = -29.7096971637
C   0.7840367852  0.8656586589 -0.0371164025
H   0.9809293880  1.3403901038 -1.0231241499
O   0.1875804579  1.4681235287  0.8223429327
C   1.3100769769 -0.5359012779  0.1153731248
H   1.0639489065 -0.9236344469  1.1059940899
H   0.8779311114 -1.1816924395 -0.6582837811
H   2.3967379442 -0.5425772870 -0.0312469938
7
Iter 8 Image 0  Energy = -29.6796137011
C   0.8260657415  0.5508603911 -0.1261794589
H   0.4554445983  1.2417513435 -0.8784317668
O   0.5680753083  1.0246514429  1.1187434847
C   1.4411098584 -0.5873603774 -0.4363613732
H   0.9099091373  0.3932317500  1.7666320721
H   1.5916834696 -0.8592929697 -1.4741885892
H   1.8089534565 -1.2734747403  0.3237244514
7
Iter 8 Image 1  Energy = -29.6771231806
C   0.8641563962  0.5752952087 -0.1685212246
H   0.5599979731  1.3378419364 -0.8911615217
O   0.5724084491  0.9686964091  1.1205139599
C   1.4557455007 -0.5817183950 -0.4641341307
H   0.7794918332  0.2788198270  1.7913212470
H   1.3586486632 -1.0477559966 -1.4421483149
H   2.0107927452 -1.0408121563  0.3480687567
7
Iter 8 Image 2  Energy = -29.6695217109
C   0.8913376477  0.6031682789 -0.1881627647
H   0.6288111903  1.4083635469 -0.8898664940
O   0.5693601665  0.9505097016  1.1034731996
C   1.4479375597 -0.5679075005 -0.4269556836
H   0.7164855158  0.1564860656  1.6592762925
H   1.1769106054 -1.1860765753 -1.2892473381
H   2.1703988700 -0.8741766386  0.3254215132
7
Iter 8 Image 3  Energy = -29.6354848510
C   0.8734936704  0.6815562961 -0.1785528680
H   0.6042436781  1.4321472039 -0.9522543095
O   0.5868038696  0.9540266625  1.1218779523
C   1.3848487107 -0.5414107336 -0.2729221591
H   0.7988802636 -0.0300153356  1.2856341996
H   1.1791207578 -1.1305219445 -1.1170101569
H   2.1738507476 -0.8754152803  0.4071661158
7
Iter 8 Image 4  Energy = -29.6031168914
C   0.8507097983  0.7689368147 -0.1343317174
H   0.6112098356  1.4385488568 -0.9645307732
O   0.5623168346  1.0861283778  1.0807280808
C   1.3224403677 -0.5658680543 -0.1192052656
H   0.8761952439 -0.2742894851  1.0508216394
H   1.1631078496 -1.0982548827 -1.0321190229
H   2.2152616720 -0.8648348036  0.4125758022
7
Iter 8 Image 5  Energy = -29.6601731247
C   0.8467522764  0.8336023471 -0.1114004302
H   0.5889401179  1.4213198170 -1.0023219168
O   0.5256964340  1.2846965320  1.0228883224
C   1.3486300052 -0.5334040032 -0.0366086578
H   0.8664017115 -0.5693332896  0.9745164564
H   1.1522631896 -1.0558274659 -0.9640878340
H   2.2725579929 -0.8906870568  0.4109527389
7
Iter 8 Image 6  Energy = -29.6913396186
C   0.8361969475  0.8913644134 -0.0759025983
H   0.5859418578  1.3929715419 -1.0434387017
O   0.4726140097  1.4445889455  0.9480376174
C   1.3714221333 -0.5208711622  0.0212651571
H   0.8652344296 -0.7979800149  0.9523880061
H   1.1079049986 -1.0542508958 -0.8780044786
H   2.3619273448 -0.8654558821  0.3695937664
7
Iter 8 Image 7  Energy = -29.7052959269
C   0.8089313851  0.8974558534 -0.0546481598
H   0.7338240277  1.3804451101 -1.0665192978
O   0.3504894284  1.4880939484  0.8911650891
C   1.3513609935 -0.5285059493  0.0794611298
H   0.9285385047 -0.9027054822  1.0166216709
H   0.9938609777 -1.1410655019 -0.7402712904
H   2.4342362262 -0.7033511046  0.1681296659
7
Iter 8 Image 8  Energy = -29.7096971637
C   0.7840367852  0.8656586589 -0.0371164025
H   0.9809293880  1.3403901038 -1.0231241499
O   0.1875804579  1.4681235287  0.8223429327
C   1.3100769769 -0.5359012779  0.1153731248
H   1.0639489065 -0.9236344469  1.1059940899
H   0.8779311114 -1.1816924395 -0.6582837811
H   2.3967379442 -0.5425772870 -0.0312469938
7
Iter 9 Image 0  Energy = -29.6796137011
C   0.8260657415  0.5508603911 -0.1261794589
H   0.4554445983  1.2417513435 -0.8784317668
O   0.5680753083  1.0246514429  1.1187434847
C   1.4411098584 -0.5873603774 -0.4363613732
H   0.9099091373  0.3932317500  1.7666320721
H   1.5916834696 -0.8592929697 -1.4741885892
H   1.8089534565 -1.2734747403  0.3237244514
7
Iter 9 Image 1  Energy = -29.6777460045
C   0.8614850788  0.5776253936 -0.1636977651
H   0.5581894423  1.3281804070 -0.8852058798
O   0.5729549381  0.9756689621  1.1283830650
C   1.4519361909 -0.5799393022 -0.4635092187
H   0.7784522184  0.2861225994  1.7797874591
H   1.3690718050 -1.0464203632 -1.4388927610
H   2.0091518879 -1.0508708708  0.3370738625
7
Iter 9 Image 2  Energy = -29.6710335082
C   0.8813659340  0.6215210431 -0.1822376249
H   0.6230462083  1.3940643485 -0.8883625564
O   0.5723627091  0.9639193435  1.1107670002
C   1.4418638211 -0.5740283470 -0.4313415896
H   0.7193491222  0.1564493177  1.6511066672
H   1.2037437133 -1.1828066282 -1.2802885943
H   2.1595100594 -0.8887521998  0.3142954225
7
Iter 9 Image 3  Energy = -29.6400601631
C   0.8773104415  0.7004501964 -0.1816457629
H   0.6005971615  1.4183837210 -0.9355585967
O   0.5866628634  0.9674497566  1.1286142382
C   1.3971340787 -0.5404698447 -0.3025483971
H   0.7934383870 -0.0338755363  1.3026837497
H   1.1962445916 -1.1516375413 -1.1296232218
H   2.1498541559 -0.8699339171  0.4120167394
7
Iter 9 Image 4  Energy = -29.6046747482
C   0.8646577578  0.7796438524 -0.1344209351
H   0.6179223616  1.4351244524 -0.9508103255
O   0.5658164564  1.0816565392  1.0979641902
C   1.3301855292 -0.5613940369 -0.1266769432
H   0.8553927166 -0.2727298967  1.0354292835
H   1.1520805005 -1.1360937223 -1.0275468232
H   2.2151862678 -0.8358403596  0.4000003150
7
Iter 9 Image 5  Energy = -29.6641524202
C   0.8594294796  0.8433594781 -0.0844746688
H   0.6084754470  1.4237020305 -0.9901738083
O   0.5426564022  1.2637398476  1.0170921724
C   1.3287824601 -0.5309824163 -0.0478587829
H   0.8365700843 -0.5717556055  0.9678378295
H   1.1380567601 -1.0966978401 -0.9552503708
H   2.2872710433 -0.8409986366  0.3867663208
7
Iter 9 Image 6  Energy = -29.6949901497
C   0.8451906977  0.8886847602 -0.0758406223
H   0.5962514170  1.3866364168 -1.0337546610
O   0.4894367925  1.4482310752  0.9552547875
C   1.3623229121 -0.5249864958  0.0334370801
H   0.8401838937 -0.8147970761  0.9363331028
H   1.1093272544 -1.0672727034 -0.8814901751
H   2.3585287746 -0.8261290383  0.3599992368
7
Iter 9 Image 7  Energy = -29.7061912781
C   0.8164482671  0.8889291973 -0.0657974236
H   0.7347616390  1.3731937187 -1.0607361657
O   0.3564327336  1.5041308389  0.8999597529
C   1.3476119784 -0.5344891478  0.0824325999
H   0.9219378326 -0.9174321555  1.0128188873
H   0.9956506384 -1.1395964499 -0.7453317743
H   2.4283984594 -0.6843691282  0.1705929350
7
Iter 9 Image 8  Energy = -29.7096971637
C   0.7840367852  0.8656586589 -0.0371164025
H   0.9809293880  1.3403901038 -1.0231241499
O   0.1875804579  1.4681235287  0.8223429327
C   1.3100769769 -0.5359012779  0.1153731248
H   1.0639489065 -0.9236344469  1.1059940899
H   0.8779311114 -1.1816924395 -0.6582837811
H   2.3967379442 -0.5425772870 -0.0312469938
7
Iter 10 Image 0  Energy = -29.6796137011
C   0.8260657415  0.5508603911 -0.1261794589
H   0.4554445983  1.2417513435 -0.8784317668
O   0.5680753083  1.0246514429  1.1187434847
C   1.4411098584 -0.5873603774 -0.4363613732
H   0.9099091373  0.3932317500  1.7666320721
H   1.5916834696 -0.8592929697 -1.4741885892
H   1.8089534565 -1.2734747403  0.3237244514
7
Iter 10 Image 1  Energy = -29.6785268551
C   0.8546480214  0.5824787666 -0.1572212418
H   0.5534524314  1.3188883391 -0.8867785953
O   0.5706484741  0.9895295781  1.1334966438
C   1.4457094618 -0.5780033462 -0.4564309738
H   0.7869212426  0.2853151079  1.7660201017
H   1.3851633697 -1.0358068905 -1.4342342864
H   2.0046985617 -1.0720347324  0.3290871118
7
Iter 10 Image 2  Energy = -29.6716833478
C   0.8709953120  0.6300893620 -0.1765191823
H   0.6155123532  1.3843693891 -0.9007149902
O   0.5719195879  0.9762896605  1.1275410000
C   1.4289867164 -0.5684523126 -0.4227041712
H   0.7308241446  0.1554914128  1.6345034800
H   1.2328848240 -1.1710474278 -1.2781528625
H   2.1501186431 -0.9163732094  0.3099854579
7
Iter 10 Image 3  Energy = -29.6419263548
C   0.8787185236  0.7100514048 -0.1776753123
H   0.6019312522  1.4133186525 -0.9358691951
O   0.5791862105  0.9803147592  1.1361935930
C   1.3982075518 -0.5350875053 -0.3124796613
H   0.7930492368 -0.0379771788  1.3242440656
H   1.2080238786 -1.1688128575 -1.1487713567
H   2.1421249996 -0.8714404636  0.4082966039
7
Iter 10 Image 4  Energy = -29.6058389312
C   0.8708000745  0.7865451368 -0.1239840394
H   0.6251231542  1.4342641438 -0.9524590042
O   0.5572729062  1.0905958154  1.1078319211
C   1.3263621161 -0.5561331766 -0.1433000565
H   0.8458895095 -0.2728469918  1.0538751487
H   1.1466844314 -1.1655693871 -1.0380108143
H   2.2291093919 -0.8264887029  0.3899856300
7
Iter 10 Image 5  Energy = -29.6661574608
C   0.8625957024  0.8523084907 -0.0842186286
H   0.6343989280  1.4230272969 -0.9819777357
O   0.5406930713  1.2598025547  1.0327140924
C   1.3111953736 -0.5459148476 -0.0436451689
H   0.8271139933 -0.5652235503  0.9781001849
H   1.1263505558 -1.1321104251 -0.9605581246
H   2.2988939975 -0.8015226848  0.3535241008
7
Iter 10 Image 6  Energy = -29.6980720228
C   0.8460708030  0.8840986939 -0.0663629239
H   0.6213084657  1.3795298695 -1.0299517797
O   0.4938795743  1.4467232852  0.9596864217
C   1.3411395518 -0.5343546946  0.0363688631
H   0.8257674858 -0.8173560233  0.9431629687
H   1.1093924018 -1.0816754641 -0.8830264242
H   2.3636834593 -0.7865987412  0.3340616137
7
Iter 10 Image 7  Energy = -29.7072813577
C   0.8133314078  0.8851207551 -0.0600964224
H   0.7485236846  1.3641242134 -1.0575053395
O   0.3602882931  1.5054446602  0.8971234806
C   1.3369531324 -0.5401670697  0.0881709543
H   0.9233321880 -0.9190440724  1.0192764254
H   0.9961716356 -1.1410665546 -0.7544720685
H   2.4226412104 -0.6640450591  0.1614417861
7
Iter 10 Image 8  Energy = -29.7096971637
C   0.7840367852  0.8656586589 -0.0371164025
H   0.9809293880  1.3403901038 -1.0231241499
O   0.1875804579  1.4681235287  0.8223429327
C   1.3100769769 -0.5359012779  0.1153731248
H   1.0639489065 -0.9236344469  1.1059940899
H   0.8779311114 -1.1816924395 -0.6582837811
H   2.3967379442 -0.5425772870 -0.0312469938
7
Iter 11 Image 0  Energy = -29.6796137011
C   0.8260657415  0.5508603911 -0.1261794589
H   0.4554445983  1.2417513435 -0.8784317668
O   0.5680753083  1.0246514429  1.1187434847
C   1.4411098584 -0.5873603774 -0.4363613732
H   0.9099091373  0.3932317500  1.7666320721
H   1.5916834696 -0.8592929697 -1.4741885892
H   1.8089534565 -1.2734747403  0.3237244514
7
Iter 11 Image 1  Energy = -29.6789515680
C   0.8486577317  0.5850898426 -0.1515140874
H   0.5453119433  1.3136228941 -0.8896562691
O   0.5717560544  1.0079881499  1.1367403955
C   1.4417567875 -0.5775881010 -0.4492045309
H   0.7882189245  0.2850312996  1.7628577018
H   1.3991528962 -1.0295774781 -1.4343359508
H   2.0063872233 -1.0941997974  0.3190514888
7
Iter 11 Image 2  Energy = -29.6720992541
C   0.8624735025  0.6357275379 -0.1712801729
H   0.5989766179  1.3855157528 -0.9161526430
O   0.5805354208  0.9950064886  1.1413236460
C   1.4256308492 -0.5601375737 -0.4108393680
H   0.7322636805  0.1492689439  1.6252478581
H   1.2610156607 -1.1763584735 -1.2853417121
H   2.1403458676 -0.9386558120  0.3109811212
7
Iter 11 Image 3  Energy = -29.6460484332
C   0.8931084075  0.7139610473 -0.1711435045
H   0.5966008733  1.4368726744 -0.9417680795
O   0.5912845853  0.9569219335  1.1517667358
C   1.3977974539 -0.5372665276 -0.3357996882
H   0.7666653601 -0.0275023805  1.3256502978
H   1.2107349910 -1.2037885449 -1.1492093541
H   2.1450499430 -0.8488314169  0.4144423249
7
Iter 11 Image 4  Energy = -29.6062584585
C   0.8824255127  0.7994414286 -0.1171778075
H   0.6251627491  1.4548781012 -0.9506005132
O   0.5699688617  1.0732029944  1.1308883506
C   1.3322789515 -0.5534241759 -0.1619988855
H   0.8144730604 -0.2635358710  1.0397510045
H   1.1301886400 -1.2207766075 -1.0394517473
H   2.2467437983 -0.7994190217  0.3925284007
7
Iter 11 Image 5  Energy = -29.6677503651
C   0.8723974588  0.8506238373 -0.0654605446
H   0.6560477735  1.4484671322 -0.9762322727
O   0.5638227172  1.2494542445  1.0615373189
C   1.2959203708 -0.5614934494 -0.0585108754
H   0.7959887376 -0.5660223895  0.9549288340
H   1.1044954515 -1.1922444836 -0.9529300652
H   2.3125690513 -0.7384180756  0.3306063634
7
Iter 11 Image 6  Energy = -29.7025469011
C   0.8512835883  0.8801826058 -0.0589723034
H   0.6452328542  1.3777860822 -1.0258830743
O   0.5249878781  1.4571000101  0.9844056989
C   1.3207304970 -0.5479283973  0.0245920202
H   0.7745566295 -0.8523845225  0.9306639882
H   1.1110168084 -1.1068524002 -0.8785206844
H   2.3734334908 -0.7175364673  0.3176530713
7
Iter 11 Image 7  Energy = -29.7086200780
C   0.8090372854  0.8818656105 -0.0506265202
H   0.7580748464  1.3508886187 -1.0603590772
O   0.3798019507  1.5214833915  0.8993131024
C   1.3240431817 -0.5451793543  0.0901829995
H   0.9095104186 -0.9475083136  1.0186043755
H   1.0001132800 -1.1431366679 -0.7631720786
H   2.4206605860 -0.6280464129  0.1599960244
7
Iter 11 Image 8  Energy = -29.7096971637
C   0.7840367852  0.8656586589 -0.0371164025
H   0.9809293880  1.3403901038 -1.0231241499
O   0.1875804579  1.4681235287  0.8223429327
C   1.3100769769 -0.5359012779  0.1153731248
H   1.0639489065 -0.9236344469  1.1059940899
H   0.8779311114 -1.1816924395 -0.6582837811
H   2.3967379442 -0.5425772870 -0.0312469938
7
Iter 12 Image 0  Energy = -29.6796137011
C   0.8260657415  0.5508603911 -0.1261794589
H   0.4554445983  1.2417513435 -0.8784317668
O   0.5680753083  1.0246514429  1.1187434847
C   1.4411098584 -0.5873603774 -0.4363613732
H   0.9099091373  0.3932317500  1.7666320721
H   1.5916834696 -0.8592929697 -1.4741885892
H   1.8089534565 -1.2734747403  0.3237244514
7
Iter 12 Image 1  Energy = -29.6791754729
C   0.8457841802  0.5843353349 -0.1511486529
H   0.5369493401  1.3144927430 -0.8981351679
O   0.5770242958  1.0110462850  1.1427824996
C   1.4396200204 -0.5782995315 -0.4434436464
H   0.7868425505  0.2898741495  1.7607671790
H   1.4063209802 -1.0206785664 -1.4334363196
H   2.0087001941 -1.1104036062  0.3165528508
7
Iter 12 Image 2  Energy = -29.6720038420
C   0.8585410012  0.6407456282 -0.1728639656
H   0.5863653877  1.3906356362 -0.9260114513
O   0.5909804737  0.9942320185  1.1478758177
C   1.4256352638 -0.5630752666 -0.4121147751
H   0.7292007525  0.1494107665  1.6180734817
H   1.2735210286 -1.1733388219 -1.2861289524
H   2.1369977039 -0.9482431081  0.3251085725
7
Iter 12 Image 3  Energy = -29.6473954684
C   0.8958107558  0.7134184250 -0.1857290788
H   0.6014587313  1.4588849005 -0.9386683755
O   0.6013743187  0.9429595901  1.1556306205
C   1.4040388360 -0.5378540252 -0.3312312987
H   0.7414908546 -0.0297994976  1.3327240798
H   1.1990020633 -1.2313099428 -1.1452741616
H   2.1580660341 -0.8259326669  0.4064869630
7
Iter 12 Image 4  Energy = -29.6061012662
C   0.8830501511  0.8052587349 -0.1266331238
H   0.6221696472  1.4781826176 -0.9478872995
O   0.5828458659  1.0516855033  1.1402714671
C   1.3426385393 -0.5610354640 -0.1746910287
H   0.7945294627 -0.2548884344  1.0357815629
H   1.1218665681 -1.2413220951 -1.0302984761
H   2.2541413355 -0.7875140116  0.3973957111
7
Iter 12 Image 5  Energy = -29.6687462843
C   0.8630681144  0.8612187437 -0.0797073497
H   0.6647801314  1.4689579649 -0.9631124275
O   0.5827544182  1.2454186094  1.0838063376
C   1.3032722142 -0.5707751467 -0.0627485456
H   0.7855245981 -0.5745578399  0.9373861293
H   1.0918984780 -1.2233771933 -0.9492525490
H   2.3099435865 -0.7165183151  0.3275671907
7
Iter 12 Image 6  Energy = -29.7041945374
C   0.8398834847  0.8882704959 -0.0345144743
H   0.6659862011  1.3846088450 -1.0254094104
O   0.5577770873  1.4509018864  0.9857879826
C   1.3110653891 -0.5548292014  0.0344085626
H   0.7475510387 -0.8755558780  0.9133885768
H   1.1078411035 -1.1343285331 -0.8832719850
H   2.3711374293 -0.6687007230  0.3035494534
7
Iter 12 Image 7  Energy = -29.7093440062
C   0.8003766413  0.8819835626 -0.0475724803
H   0.7707070293  1.3379928945 -1.0634926626
O   0.3920602845  1.5344744948  0.9045461846
C   1.3178342497 -0.5500017874  0.0938821903
H   0.9024102643 -0.9694857845  1.0187006243
H   1.0027677677 -1.1453944714 -0.7664096003
H   2.4150853048 -0.5992020388  0.1542845796
7
Iter 12 Image 8  Energy = -29.7096971637
C   0.7840367852  0.8656586589 -0.0371164025
H   0.9809293880  1.3403901038 -1.0231241499
O   0.1875804579  1.4681235287  0.8223429327
C   1.3100769769 -0.5359012779  0.1153731248
H   1.0639489065 -0.9236344469  1.1059940899
H   0.8779311114 -1.1816924395 -0.6582837811
H   2.3967379442 -0.5425772870 -0.0312469938
7
Iter 13 Image 0  Energy = -29.6796137011
C   0.8260657415  0.5508603911 -0.1261794589
H   0.4554445983  1.2417513435 -0.8784317668
O   0.5680753083  1.0246514429  1.1187434847
C   1.4411098584 -0.5873603774 -0.4363613732
H   0.9099091373  0.3932317500  1.7666320721
H   1.5916834696 -0.8592929697 -1.4741885892
H   1.8089534565 -1.2734747403  0.3237244514
7
Iter 13 Image 1  Energy = -29.6792576826
C   0.8446759765  0.5856169255 -0.1526622839
H   0.5352251948  1.3156630724 -0.9017185745
O   0.5784682632  1.0103569426  1.1407872892
C   1.4404336266 -0.5801475425 -0.4416957919
H   0.7878727288  0.2879552248  1.7628271395
H   1.4058997664 -1.0165866319 -1.4325929031
H   2.0086660056 -1.1124911793  0.3189938689
7
Iter 13 Image 2  Energy = -29.6721328563
C   0.8609837571  0.6361030386 -0.1768211721
H   0.5852458208  1.3942610291 -0.9272204060
O   0.5923138909  0.9920098799  1.1445394847
C   1.4270387577 -0.5613985129 -0.4096116344
H   0.7286417324  0.1463440238  1.6188933496
H   1.2697255586 -1.1709915143 -1.2877452712
H   2.1372920932 -0.9459610942  0.3319043776
7
Iter 13 Image 3  Energy = -29.6473850524
C   0.8923205106  0.7100275411 -0.1889183948
H   0.6067178335  1.4654724805 -0.9392750934
O   0.6011016218  0.9451772289  1.1502119627
C   1.4020845817 -0.5410930015 -0.3285746993
H   0.7374503847 -0.0363563696  1.3370828729
H   1.1914735512 -1.2302026762 -1.1381333075
H   2.1700931075 -0.8226584065  0.4015454222
7
Iter 13 Image 4  Energy = -29.6062259442
C   0.8799017773  0.7988971512 -0.1314861468
H   0.6205131498  1.4853911057 -0.9501179049
O   0.5834132431  1.0480200615  1.1354084138
C   1.3427902253 -0.5602836662 -0.1742059613
H   0.7962879267 -0.2544006688  1.0434218374
H   1.1234181706 -1.2338523052 -1.0285223748
H   2.2549170802 -0.7934048271  0.3994409496
7
Iter 13 Image 5  Energy = -29.6690893239
C   0.8562046933  0.8605994850 -0.0803551925
H   0.6602117554  1.4754864103 -0.9644641644
O   0.5833421495  1.2471249016  1.0789389392
C   1.3056297268 -0.5701267616 -0.0642864916
H   0.7931660479 -0.5763464679  0.9390985777
H   1.0945251696 -1.2169031091 -0.9495979951
H   2.3081620076 -0.7294676270  0.3346051176
7
Iter 13 Image 6  Energy = -29.7050807244
C   0.8366241802  0.8833755518 -0.0456225509
H   0.6716204427  1.3882239235 -1.0243324024
O   0.5569720316  1.4554211939  0.9980998861
C   1.3095066335 -0.5573861551  0.0327788564
H   0.7511228244 -0.8757518769  0.9146934192
H   1.1061899141 -1.1371229212 -0.8816428269
H   2.3692056951 -0.6663928294  0.2999643278
7
Iter 13 Image 7  Energy = -29.7094616061
C   0.7951484274  0.8837110246 -0.0434806976
H   0.7763446076  1.3352785683 -1.0651315008
O   0.3923756332  1.5328013322  0.9024938638
C   1.3161377500 -0.5499444617  0.0949284647
H   0.9049838503 -0.9696955380  1.0206723283
H   1.0028698008 -1.1462333577 -0.7653633249
H   2.4133814687 -0.5955506999  0.1498197049
7
Iter 13 Image 8  Energy = -29.7096971637
C   0.7840367852  0.8656586589 -0.0371164025
H   0.9809293880  1.3403901038 -1.0231241499
O   0.1875804579  1.4681235287  0.8223429327
C   1.3100769769 -0.5359012779  0.1153731248
H   1.0639489065 -0.9236344469  1.1059940899
H   0.8779311114 -1.1816924395 -0.6582837811
H   2.3967379442 -0.5425772870 -0.0312469938
7
Iter 14 Image 0  Energy = -29.6796137011
C   0.8260657415  0.5508603911 -0.1261794589
H   0.4554445983  1.2417513435 -0.8784317668
O   0.5680753083  1.0246514429  1.1187434847
C   1.4411098584 -0.5873603774 -0.4363613732
H   0.9099091373  0.3932317500  1.7666320721
H   1.5916834696 -0.8592929697 -1.4741885892
H   1.8089534565 -1.2734747403  0.3237244514
7
Iter 14 Image 1  Energy = -29.6792833722
C   0.8446849685  0.5854905528 -0.1556324317
H   0.5328410904  1.3170571474 -0.9055353070
O   0.5816158054  1.0086693481  1.1377648443
C   1.4415279891 -0.5813771942 -0.4396956645
H   0.7871784438  0.2863117094  1.7666651162
H   1.4039992840 -1.0122570102 -1.4318851963
H   2.0093939815 -1.1135277382  0.3222573859
7
Iter 14 Image 2  Energy = -29.6721717483
C   0.8645208135  0.6321197515 -0.1836022274
H   0.5839760190  1.3984883519 -0.9253436277
O   0.5961467722  0.9878160699  1.1371161574
C   1.4318827992 -0.5620453538 -0.4085232246
H   0.7247782133  0.1419047174  1.6213529707
H   1.2632623340 -1.1695427855 -1.2882229288
H   2.1366746565 -0.9383739036  0.3411616113
7
Iter 14 Image 3  Energy = -29.6471012300
C   0.8883582772  0.7052829680 -0.1938578357
H   0.6144338021  1.4757499848 -0.9367325148
O   0.6030348264  0.9446614331  1.1415480156
C   1.4008002570 -0.5446963006 -0.3281979624
H   0.7282628069 -0.0444992378  1.3400336003
H   1.1793478148 -1.2316554671 -1.1240246677
H   2.1870038039 -0.8144765665  0.3951701470
7
Iter 14 Image 4  Energy = -29.6062727040
C   0.8776336428  0.7898600952 -0.1424531160
H   0.6181819012  1.4971784227 -0.9492243320
O   0.5872794885  1.0377525294  1.1297530846
C   1.3445738950 -0.5578836682 -0.1726125871
H   0.7953578374 -0.2532829285  1.0472795598
H   1.1236990245 -1.2261628274 -1.0212739156
H   2.2545157872 -0.7970947701  0.4024701174
7
Iter 14 Image 5  Energy = -29.6695626742
C   0.8501946095  0.8578273459 -0.0811301561
H   0.6508233762  1.4883426554 -0.9647780115
O   0.5882216519  1.2465126680  1.0707626862
C   1.3082998932 -0.5652474152 -0.0690017666
H   0.7995824869 -0.5818060870  0.9368708090
H   1.0976898263 -1.2086509550 -0.9467668149
H   2.3064297210 -0.7466113665  0.3479820522
7
Iter 14 Image 6  Energy = -29.7053128845
C   0.8306555706  0.8819713689 -0.0485102728
H   0.6775079093  1.3964403209 -1.0219175071
O   0.5643026436  1.4553405584  1.0049628056
C   1.3063505709 -0.5590832853  0.0266497898
H   0.7528595656 -0.8805303160  0.9120007888
H   1.1041491821 -1.1423297670 -0.8779326850
H   2.3654162618 -0.6614419991  0.2986857945
7
Iter 14 Image 7  Energy = -29.7096187836
C   0.7904991681  0.8827379547 -0.0428477432
H   0.7828827373  1.3304995849 -1.0668157713
O   0.3934048098  1.5360966754  0.9040809267
C   1.3132635770 -0.5494600121  0.0963520668
H   0.9069742417 -0.9744316829  1.0209503421
H   1.0036064772 -1.1470558612 -0.7629641172
H   2.4106105223 -0.5880197916  0.1451831372
7
Iter 14 Image 8  Energy = -29.7096971637
C   0.7840367852  0.8656586589 -0.0371164025
H   0.9809293880  1.3403901038 -1.0231241499
O   0.1875804579  1.4681235287  0.8223429327
C   1.3100769769 -0.5359012779  0.1153731248
H   1.0639489065 -0.9236344469  1.1059940899
H   0.8779311114 -1.1816924395 -0.6582837811
H   2.3967379442 -0.5425772870 -0.0312469938
7
Iter 15 Image 0  Energy = -29.6796137011
C   0.8260657415  0.5508603911 -0.1261794589
H   0.4554445983  1.2417513435 -0.8784317668
O   0.5680753083  1.0246514429  1.1187434847
C   1.4411098584 -0.5873603774 -0.4363613732
H   0.9099091373  0.3932317500  1.7666320721
H   1.5916834696 -0.8592929697 -1.4741885892
H   1.8089534565 -1.2734747403  0.3237244514
7
Iter 15 Image 1  Energy = -29.6793247080
C   0.8446452604  0.5853018397 -0.1573394452
H   0.5300902885  1.3139305162 -0.9068554309
O   0.5853200705  1.0097001474  1.1373783189
C   1.4413404211 -0.5807677978 -0.4370891733
H   0.7859780383  0.2863234362  1.7651802023
H   1.4047059523 -1.0076341415 -1.4302865107
H   2.0091615335 -1.1164871752  0.3229507844
7
Iter 15 Image 2  Energy = -29.6720801210
C   0.8650687071  0.6339039151 -0.1880504001
H   0.5826572612  1.3979252555 -0.9226464557
O   0.6015447790  0.9849078000  1.1326626866
C   1.4358109717 -0.5640920308 -0.4093427904
H   0.7197974169  0.1383809820  1.6189524183
H   1.2636762516 -1.1681679866 -1.2849693321
H   2.1326862257 -0.9324910951  0.3473326065
7
Iter 15 Image 3  Energy = -29.6472886270
C   0.8865740424  0.7057968851 -0.1973999211
H   0.6226582051  1.4838856657 -0.9309106547
O   0.6039424288  0.9393391021  1.1372848087
C   1.4037728541 -0.5442566815 -0.3318764825
H   0.7166326470 -0.0479463620  1.3420717451
H   1.1691580925 -1.2426627003 -1.1123875024
H   2.1985033078 -0.8037890838  0.3871568016
7
Iter 15 Image 4  Energy = -29.6063052481
C   0.8792713724  0.7885801784 -0.1525401940
H   0.6197609454  1.5070481859 -0.9432274406
O   0.5895101831  1.0270900755  1.1285788290
C   1.3476236539 -0.5555576086 -0.1757043082
H   0.7892272318 -0.2528351551  1.0482189718
H   1.1198373734 -1.2325912373 -1.0130006078
H   2.2560108174 -0.7913675853  0.4016135624
7
Iter 15 Image 5  Energy = -29.6695624805
C   0.8536099541  0.8551666694 -0.0883168655
H   0.6453299214  1.5023361526 -0.9598999169
O   0.5944400644  1.2408335957  1.0689135528
C   1.3069195839 -0.5609552185 -0.0704469195
H   0.7969034121 -0.5867975853  0.9340215963
H   1.0969782516 -1.2106796729 -0.9434102633
H   2.3070603846 -0.7495370839  0.3530776277
7
Iter 15 Image 6  Energy = -29.7057742095
C   0.8289162974  0.8789217061 -0.0482667954
H   0.6865482600  1.4063449962 -1.0154501009
O   0.5776071320  1.4542464539  1.0109283187
C   1.2960264456 -0.5591590471  0.0204731540
H   0.7489087598 -0.8920727115  0.9063262000
H   1.1018465173 -1.1516812241 -0.8749821773
H   2.3613882763 -0.6462333030  0.2949101205
7
Iter 15 Image 7  Energy = -29.7098330027
C   0.7875004587  0.8793198373 -0.0409393034
H   0.7910887070  1.3225399273 -1.0665218151
O   0.3975172448  1.5423744432  0.9043476985
C   1.3065168450 -0.5495344437  0.0984899884
H   0.9078690054 -0.9837296903  1.0208379657
H   1.0050400328 -1.1480288242 -0.7623766827
H   2.4057092356 -0.5725743814  0.1401009973
7
Iter 15 Image 8  Energy = -29.7096971637
C   0.7840367852  0.8656586589 -0.0371164025
H   0.9809293880  1.3403901038 -1.0231241499
O   0.1875804579  1.4681235287  0.8223429327
C   1.3100769769 -0.5359012779  0.1153731248
H   1.0639489065 -0.9236344469  1.1059940899
H   0.8779311114 -1.1816924395 -0.6582837811
H   2.3967379442 -0.5425772870 -0.0312469938
7
Iter 16 Image 0  Energy = -29.6796137011
C   0.8260657415  0.5508603911 -0.1261794589
H   0.4554445983  1.2417513435 -0.8784317668
O   0.5680753083  1.0246514429  1.1187434847
C   1.4411098584 -0.5873603774 -0.4363613732
H   0.9099091373  0.3932317500  1.7666320721
H   1.5916834696 -0.8592929697 -1.4741885892
H   1.8089534565 -1.2734747403  0.3237244514
7
Iter 16 Image 1  Energy = -29.6793599492
C   0.8454145276  0.5848271665 -0.1558008094
H   0.5268912932  1.3078762812 -0.9073811864
O   0.5901604401  1.0139360242  1.1349986117
C   1.4418281299 -0.5799986666 -0.4350939279
H   0.7839859272  0.2840781585  1.7608105003
H   1.4051599020 -1.0032552738 -1.4271913737
H   2.0078013461 -1.1170968531  0.3235969231
7
Iter 16 Image 2  Energy = -29.6716625160
C   0.8710790420  0.6257331632 -0.1906672946
H   0.5825707310  1.3983267389 -0.9197725878
O   0.6071538684  0.9831949969  1.1277708991
C   1.4365160361 -0.5555215663 -0.4093195967
H   0.7111597348  0.1325770990  1.6135070720
H   1.2646741998 -1.1713797852 -1.2807045753
H   2.1280880047 -0.9225638099  0.3531248303
7
Iter 16 Image 3  Energy = -29.6477808422
C   0.8884919044  0.7041966576 -0.1997026605
H   0.6335070058  1.4938311287 -0.9224357201
O   0.6004396278  0.9332794840  1.1348016807
C   1.4092374729 -0.5392205215 -0.3411233520
H   0.7029208186 -0.0510365398  1.3447753940
H   1.1571765548 -1.2604175226 -1.0974213057
H   2.2094681765 -0.7902658357  0.3750447776
7
Iter 16 Image 4  Energy = -29.6064648992
C   0.8846095803  0.7865970201 -0.1565108620
H   0.6253524404  1.5193724625 -0.9352609847
O   0.5881224172  1.0152189988  1.1256651632
C   1.3497525250 -0.5521825594 -0.1836787916
H   0.7818346325 -0.2533393981  1.0471028333
H   1.1129179283 -1.2470234411 -1.0000466952
H   2.2586520545 -0.7782762286  0.3966681473
7
Iter 16 Image 5  Energy = -29.6691318816
C   0.8615928180  0.8566788824 -0.0914615735
H   0.6397908662  1.5178195014 -0.9519550917
O   0.6013288661  1.2288062038  1.0593319928
C   1.3078452283 -0.5613704111 -0.0721111450
H   0.7892676202 -0.5904835730  0.9328097715
H   1.0960010060 -1.2133861379 -0.9370236785
H   2.3054151774 -0.7476975996  0.3543485573
7
Iter 16 Image 6  Energy = -29.7062367266
C   0.8277627927  0.8805009134 -0.0416055055
H   0.6973812137  1.4220782421 -1.0041164348
O   0.5974776700  1.4473343100  1.0098931545
C   1.2861521903 -0.5588720578  0.0156015055
H   0.7454499550 -0.9092083239  0.8988158799
H   1.0975085728 -1.1634041542 -0.8737107965
H   2.3495092651 -0.6280620768  0.2890609260
7
Iter 16 Image 7  Energy = -29.7099802560
C   0.7844357336  0.8756803003 -0.0376458301
H   0.8019169116  1.3109539114 -1.0638947321
O   0.4041776430  1.5497401391  0.9024504405
C   1.2986412277 -0.5507061518  0.1006290006
H   0.9092895453 -0.9960059403  1.0210369697
H   1.0071220668 -1.1491776865 -0.7624530502
H   2.3956583915 -0.5501177069  0.1338160618
7
Iter 16 Image 8  Energy = -29.7096971935
C   0.7840367852  0.8656586589 -0.0371164025
H   0.9809293880  1.3403901038 -1.0231241499
O   0.1875804579  1.4681235287  0.8223429327
C   1.3100769769 -0.5359012779  0.1153731248
H   1.0639489065 -0.9236344469  1.1059940899
H   0.8779311114 -1.1816924395 -0.6582837811
H   2.3967379442 -0.5425772870 -0.0312469938
7
Iter 17 Image 0  Energy = -29.6796137011
C   0.8260657415  0.5508603911 -0.1261794589
H   0.4554445983  1.2417513435 -0.8784317668
O   0.5680753083  1.0246514429  1.1187434847
C   1.4411098584 -0.5873603774 -0.4363613732
H   0.9099091373  0.3932317500  1.7666320721
H   1.5916834696 -0.8592929697 -1.4741885892
H   1.8089534565 -1.2734747403  0.3237244514
7
Iter 17 Image 1  Energy = -29.6793610668
C   0.8460713374  0.5844727438 -0.1550843707
H   0.5270386086  1.3063199107 -0.9065789146
O   0.5907123979  1.0146573940  1.1360008902
C   1.4418527730 -0.5790822058 -0.4351058778
H   0.7831643171  0.2839230143  1.7579624789
H   1.4050001051 -1.0045206840 -1.4268577397
H   2.0074020271 -1.1154033369  0.3236022696
7
Iter 17 Image 2  Energy = -29.6718039429
C   0.8683037241  0.6322635614 -0.1894338842
H   0.5844216534  1.3961833627 -0.9186282026
O   0.6069677996  0.9827240351  1.1291470064
C   1.4387334860 -0.5604752436 -0.4115866485
H   0.7094487076  0.1330078709  1.6118667177
H   1.2659514790 -1.1723964365 -1.2785987170
H   2.1274147667 -0.9209403109  0.3511724792
7
Iter 17 Image 3  Energy = -29.6480688220
C   0.8898061736  0.7064846634 -0.1987096443
H   0.6342101970  1.4931998280 -0.9210889433
O   0.5977844499  0.9323915525  1.1363428171
C   1.4112578737 -0.5392435091 -0.3443658756
H   0.7031589227 -0.0496083521  1.3453985457
H   1.1579856323 -1.2630665049 -1.0971885651
H   2.2070383103 -0.7897908256  0.3735504783
7
Iter 17 Image 4  Energy = -29.6066196328
C   0.8858306215  0.7891647428 -0.1549622223
H   0.6285659118  1.5184513704 -0.9336116323
O   0.5850550856  1.0158922418  1.1271719444
C   1.3498653092 -0.5531080391 -0.1850398426
H   0.7817921921 -0.2539755200  1.0456505104
H   1.1110885720 -1.2521418615 -0.9988716416
H   2.2590438843 -0.7739160789  0.3936016938
7
Iter 17 Image 5  Energy = -29.6691531605
C   0.8653161424  0.8563812873 -0.0944153742
H   0.6418928829  1.5166496130 -0.9505787648
O   0.5988847629  1.2289830430  1.0625153906
C   1.3072486974 -0.5631374498 -0.0708489518
H   0.7870282480 -0.5894717616  0.9327844278
H   1.0951433047 -1.2158142396 -0.9363264957
H   2.3057275420 -0.7432236307  0.3508086000
7
Iter 17 Image 6  Energy = -29.7063137656
C   0.8303162867  0.8801768560 -0.0440037313
H   0.6973921801  1.4241961344 -1.0018181391
O   0.5983013224  1.4476752733  1.0115850827
C   1.2854555083 -0.5598071690  0.0157334804
H   0.7458628691 -0.9110223065  0.8985367748
H   1.0967223772 -1.1628506337 -0.8745324548
H   2.3471911108 -0.6280013022  0.2884377186
7
Iter 17 Image 7  Energy = -29.7099863058
C   0.7857544310  0.8745569220 -0.0386114827
H   0.8023074992  1.3100706953 -1.0627233578
O   0.4047747067  1.5507978732  0.9030314063
C   1.2978858225 -0.5514927457  0.1005187790
H   0.9092998927 -0.9966405050  1.0210184687
H   1.0073897225 -1.1492182580 -0.7633257487
H   2.3938294449 -0.5477071166  0.1340307957
7
Iter 17 Image 8  Energy = -29.7096971637
C   0.7840367852  0.8656586589 -0.0371164025
H   0.9809293880  1.3403901038 -1.0231241499
O   0.1875804579  1.4681235287  0.8223429327
C   1.3100769769 -0.5359012779  0.1153731248
H   1.0639489065 -0.9236344469  1.1059940899
H   0.8779311114 -1.1816924395 -0.6582837811
H   2.3967379442 -0.5425772870 -0.0312469938
7
Iter 18 Image 0  Energy = -29.6796137011
C   0.8260657415  0.5508603911 -0.1261794589
H   0.4554445983  1.2417513435 -0.8784317668
O   0.5680753083  1.0246514429  1.1187434847
C   1.4411098584 -0.5873603774 -0.4363613732
H   0.9099091373  0.3932317500  1.7666320721
H   1.5916834696 -0.8592929697 -1.4741885892
H   1.8089534565 -1.2734747403  0.3237244514
7
Iter 18 Image 1  Energy = -29.6793436921
C   0.8465921169  0.5846334152 -0.1544100963
H   0.5273616518  1.3051041332 -0.9059486578
O   0.5912437199  1.0153748650  1.1367644942
C   1.4421910821 -0.5785689800 -0.4354716389
H   0.7822082602  0.2831798900  1.7554116407
H   1.4044310228 -1.0063888960 -1.4264898795
H   2.0072137126 -1.1129675906  0.3240828708
7
Iter 18 Image 2  Energy = -29.6717537111
C   0.8680041746  0.6336511455 -0.1880403345
H   0.5863324970  1.3958937980 -0.9184910717
O   0.6058738854  0.9831382061  1.1307933256
C   1.4388265603 -0.5605569838 -0.4128388699
H   0.7075445371  0.1327632144  1.6106679801
H   1.2664707648 -1.1750948387 -1.2775907013
H   2.1281891954 -0.9194277000  0.3494384263
7
Iter 18 Image 3  Energy = -29.6483030981
C   0.8915392697  0.7078230102 -0.1975916707
H   0.6347277400  1.4929645714 -0.9203113056
O   0.5946047051  0.9317705381  1.1377678238
C   1.4127181963 -0.5385961638 -0.3466220419
H   0.7041583305 -0.0483093683  1.3462068656
H   1.1589364810 -1.2654523767 -1.0977119240
H   2.2045568376 -0.7898333582  0.3722010639
7
Iter 18 Image 4  Energy = -29.6067456520
C   0.8866887257  0.7911250296 -0.1526422305
H   0.6322004005  1.5176221582 -0.9326762942
O   0.5813088790  1.0168567239  1.1285521721
C   1.3494077839 -0.5539867342 -0.1859405503
H   0.7825639721 -0.2545384221  1.0442699983
H   1.1092948825 -1.2568812831 -0.9979544603
H   2.2597769327 -0.7698306173  0.3903301719
7
Iter 18 Image 5  Energy = -29.6690962827
C   0.8677686049  0.8563509338 -0.0942638863
H   0.6448507508  1.5146925816 -0.9500612333
O   0.5957249673  1.2291468213  1.0641263590
C   1.3067303965 -0.5647492641 -0.0699234247
H   0.7856075867 -0.5875640839  0.9328060219
H   1.0942861174 -1.2185294255 -0.9358741037
H   2.3062731561 -0.7389807070  0.3471290950
7
Iter 18 Image 6  Energy = -29.7063197559
C   0.8328128045  0.8805604997 -0.0448280019
H   0.6967075161  1.4264918459 -1.0003744103
O   0.5984738725  1.4475301918  1.0121293198
C   1.2850738006 -0.5608411443  0.0158775776
H   0.7469335928 -0.9121110195  0.8988330706
H   1.0958004223 -1.1614532152 -0.8758431388
H   2.3454396399 -0.6298103057  0.2881443178
7
Iter 18 Image 7  Energy = -29.7099918789
C   0.7865936302  0.8745175610 -0.0381301678
H   0.8023182191  1.3098469740 -1.0620014989
O   0.4057084462  1.5504844501  0.9026071789
C   1.2973347513 -0.5522874068  0.1001238369
H   0.9092623913 -0.9965825307  1.0211189741
H   1.0076105268 -1.1493623452 -0.7644124299
H   2.3924135540 -0.5462498360  0.1346329663
7
Iter 18 Image 8  Energy = -29.7096971637
C   0.7840367852  0.8656586589 -0.0371164025
H   0.9809293880  1.3403901038 -1.0231241499
O   0.1875804579  1.4681235287  0.8223429327
C   1.3100769769 -0.5359012779  0.1153731248
H   1.0639489065 -0.9236344469  1.1059940899
H   0.8779311114 -1.1816924395 -0.6582837811
H   2.3967379442 -0.5425772870 -0.0312469938
7
Iter 19 Image 0  Energy = -29.6796137011
C   0.8260657415  0.5508603911 -0.1261794589
H   0.4554445983  1.2417513435 -0.8784317668
O   0.5680753083  1.0246514429  1.1187434847
C   1.4411098584 -0.5873603774 -0.4363613732
H   0.9099091373  0.3932317500  1.7666320721
H   1.5916834696 -0.8592929697 -1.4741885892
H   1.8089534565 -1.2734747403  0.3237244514
7
Iter 19 Image 1  Energy = -29.6792803919
C   0.8478153083  0.5852972088 -0.1540117875
H   0.5273553513  1.3031966941 -0.9061310848
O   0.5937303799  1.0174237744  1.1371672579
C   1.4431646242 -0.5773539800 -0.4360679311
H   0.7791309536  0.2794541943  1.7510549414
H   1.4021702368 -1.0109208164 -1.4250963537
H   2.0078747116 -1.1067302384  0.3270236903
7
Iter 19 Image 2  Energy = -29.6715918696
C   0.8684482513  0.6356915802 -0.1867802170
H   0.5910149480  1.3978731556 -0.9183596963
O   0.6035135278  0.9832654353  1.1330689644
C   1.4398583537 -0.5600438846 -0.4151678082
H   0.7008410686  0.1304859822  1.6093136592
H   1.2660361727 -1.1828552873 -1.2755731558
H   2.1315292852 -0.9140501370  0.3474370253
7
Iter 19 Image 3  Energy = -29.6486638254
C   0.8947013534  0.7096377574 -0.1965494248
H   0.6386602539  1.4965447150 -0.9178802307
O   0.5868794420  0.9295916434  1.1383721469
C   1.4145726603 -0.5373846928 -0.3509375464
H   0.7043663534 -0.0478978574  1.3494133057
H   1.1579379783 -1.2727984026 -1.0960960008
H   2.2041235167 -0.7873262978  0.3676165671
7
Iter 19 Image 4  Energy = -29.6069583660
C   0.8876207129  0.7924147093 -0.1494866814
H   0.6419004490  1.5204859737 -0.9307113850
O   0.5725379985  1.0148794301  1.1301435170
C   1.3476107092 -0.5545744196 -0.1875547766
H   0.7840970663 -0.2551369694  1.0422157868
H   1.1040597451 -1.2678126818 -0.9931550195
H   2.2634148905 -0.7598891787  0.3824873707
7
Iter 19 Image 5  Energy = -29.6689888901
C   0.8695335701  0.8565269095 -0.0915300547
H   0.6529107303  1.5132389198 -0.9490550855
O   0.5883512435  1.2283073862  1.0656343930
C   1.3056306459 -0.5663158169 -0.0699190581
H   0.7845519049 -0.5838600558  0.9317661567
H   1.0916349054 -1.2263642532 -0.9335150835
H   2.3086285716 -0.7311662257  0.3405575623
7
Iter 19 Image 6  Energy = -29.7063321090
C   0.8374216953  0.8813246555 -0.0450615290
H   0.6967229065  1.4348038298 -0.9970668627
O   0.6011930908  1.4470551317  1.0152330616
C   1.2822163560 -0.5629332702  0.0144503085
H   0.7490157109 -0.9165270929  0.8988864683
H   1.0923349054 -1.1595408142 -0.8795007833
H   2.3423369691 -0.6338155911  0.2869980844
7
Iter 19 Image 7  Energy = -29.7099933690
C   0.7875355872  0.8735181337 -0.0373953614
H   0.8039084772  1.3085332302 -1.0613197325
O   0.4088210718  1.5511172917  0.9036389575
C   1.2944565772 -0.5539289878  0.0993956826
H   0.9089247926 -0.9979786075  1.0213542104
H   1.0084854080 -1.1502645455 -0.7673236639
H   2.3891096044 -0.5406296382  0.1355887697
7
Iter 19 Image 8  Energy = -29.7096971637
C   0.7840367852  0.8656586589 -0.0371164025
H   0.9809293880  1.3403901038 -1.0231241499
O   0.1875804579  1.4681235287  0.8223429327
C   1.3100769769 -0.5359012779  0.1153731248
H   1.0639489065 -0.9236344469  1.1059940899
H   0.8779311114 -1.1816924395 -0.6582837811
H   2.3967379442 -0.5425772870 -0.0312469938
7
Iter 20 Image 0  Energy = -29.6796137011
C   0.8260657415  0.5508603911 -0.1261794589
H   0.4554445983  1.2417513435 -0.8784317668
O   0.5680753083  1.0246514429  1.1187434847
C   1.4411098584 -0.5873603774 -0.4363613732
H   0.9099091373  0.3932317500  1.7666320721
H   1.5916834696 -0.8592929697 -1.4741885892
H   1.8089534565 -1.2734747403  0.3237244514
7
Iter 20 Image 1  Energy = -29.6790765441
C   0.8494451522  0.5884660985 -0.1567112520
H   0.5261754189  1.3013038422 -0.9094120754
O   0.6021481273  1.0177012885  1.1392802528
C   1.4463277595 -0.5763936807 -0.4356990059
H   0.7698469827  0.2728007095  1.7426102970
H   1.3964189844 -1.0209415233 -1.4208919345
H   2.0108791409 -1.0925698932  0.3347624374
7
Iter 20 Image 2  Energy = -29.6712039775
C   0.8716807211  0.6366068058 -0.1877585496
H   0.6015223092  1.4068570548 -0.9179175032
O   0.5982692925  0.9801050600  1.1345847129
C   1.4418064297 -0.5576327897 -0.4189903190
H   0.6830263482  0.1250696282  1.6091285536
H   1.2633602508 -1.1997051457 -1.2696520802
H   2.1415762458 -0.9009337648  0.3445439865
7
Iter 20 Image 3  Energy = -29.6489913529
C   0.8963080464  0.7140026720 -0.1977810585
H   0.6529496047  1.5094985829 -0.9113236488
O   0.5709096555  0.9218906968  1.1359851930
C   1.4155806303 -0.5396568672 -0.3586739698
H   0.7021770250 -0.0496844549  1.3564524208
H   1.1513651988 -1.2883480959 -1.0865259477
H   2.2119513974 -0.7773356532  0.3558058253
7
Iter 20 Image 4  Energy = -29.6071924186
C   0.8847597506  0.7952727541 -0.1517645580
H   0.6654328083  1.5327628642 -0.9246499022
O   0.5541263417  1.0037316833  1.1310101481
C   1.3460888823 -0.5587236983 -0.1909051023
H   0.7862782665 -0.2562726475  1.0430999648
H   1.0913301399 -1.2881470723 -0.9774619574
H   2.2732253791 -0.7382569942  0.3646102078
7
Iter 20 Image 5  Energy = -29.6687794691
C   0.8669557823  0.8568980087 -0.0929878046
H   0.6742677355  1.5169816996 -0.9462698944
O   0.5696278702  1.2250565189  1.0719902332
C   1.3051346077 -0.5682203314 -0.0721202317
H   0.7872248928 -0.5806652040  0.9297969975
H   1.0833968002 -1.2443216769 -0.9235446259
H   2.3146338919 -0.7153621622  0.3270741351
7
Iter 20 Image 6  Energy = -29.7063753372
C   0.8417287243  0.8877773281 -0.0402587610
H   0.7010625164  1.4526151017 -0.9878041373
O   0.6107447945  1.4437217712  1.0206402314
C   1.2779999446 -0.5663892572  0.0100029478
H   0.7511974659 -0.9280107277  0.8973713190
H   1.0825091772 -1.1573642173 -0.8879045847
H   2.3359989621 -0.6419831468  0.2818917681
7
Iter 20 Image 7  Energy = -29.7098221546
C   0.7846344035  0.8755610937 -0.0310674899
H   0.8090123230  1.3053778173 -1.0611097473
O   0.4195478791  1.5495834636  0.9029056117
C   1.2885775599 -0.5571148302  0.0975947795
H   0.9070957923 -1.0032597329  1.0215734911
H   1.0108457952 -1.1527251305 -0.7733474568
H   2.3815277575 -0.5270558148  0.1373896767
7
Iter 20 Image 8  Energy = -29.7096971637
C   0.7840367852  0.8656586589 -0.0371164025
H   0.9809293880  1.3403901038 -1.0231241499
O   0.1875804579  1.4681235287  0.8223429327
C   1.3100769769 -0.5359012779  0.1153731248
H   1.0639489065 -0.9236344469  1.1059940899
H   0.8779311114 -1.1816924395 -0.6582837811
H   2.3967379442 -0.5425772870 -0.0312469938
7
Iter 21 Image 0  Energy = -29.6796137011
C   0.8260657415  0.5508603911 -0.1261794589
H   0.4554445983  1.2417513435 -0.8784317668
O   0.5680753083  1.0246514429  1.1187434847
C   1.4411098584 -0.5873603774 -0.4363613732
H   0.9099091373  0.3932317500  1.7666320721
H   1.5916834696 -0.8592929697 -1.4741885892
H   1.8089534565 -1.2734747403  0.3237244514
7
Iter 21 Image 1  Energy = -29.6789999670
C   0.8509489203  0.5886880319 -0.1581256555
H   0.5250009586  1.3015403693 -0.9122232992
O   0.6068801175  1.0193462049  1.1379904580
C   1.4473424043 -0.5749222991 -0.4356957973
H   0.7645473085  0.2672208856  1.7403789308
H   1.3931661617 -1.0265180531 -1.4180787246
H   2.0133556965 -1.0849882939  0.3396928014
7
Iter 21 Image 2  Energy = -29.6709540850
C   0.8731996575  0.6376182360 -0.1893350759
H   0.6076745866  1.4127299219 -0.9172171297
O   0.5952827016  0.9775471614  1.1339517202
C   1.4436002188 -0.5575126429 -0.4207187846
H   0.6724461489  0.1217407038  1.6099881190
H   1.2612417942 -1.2085179940 -1.2658046688
H   2.1477964830 -0.8932385348  0.3430746374
7
Iter 21 Image 3  Energy = -29.6490642643
C   0.8966623767  0.7128957818 -0.1994287100
H   0.6624169841  1.5188119347 -0.9078702384
O   0.5622981121  0.9174684505  1.1335864887
C   1.4151852963 -0.5386530190 -0.3604031606
H   0.7002600325 -0.0518848884  1.3603352594
H   1.1458360428 -1.2978239413 -1.0805030218
H   2.2185827145 -0.7704474268  0.3482221965
7
Iter 21 Image 4  Energy = -29.6073270506
C   0.8829036715  0.7924544338 -0.1526218190
H   0.6783305904  1.5428177513 -0.9222483463
O   0.5443952487  0.9958539221  1.1293696620
C   1.3446572859 -0.5582751741 -0.1922201587
H   0.7872719276 -0.2567295206  1.0447676518
H   1.0839529929 -1.2987788937 -0.9680095117
H   2.2797298496 -0.7269756195  0.3549013134
7
Iter 21 Image 5  Energy = -29.6689725733
C   0.8627708223  0.8574372561 -0.0881136366
H   0.6865061511  1.5223593541 -0.9456715752
O   0.5599438080  1.2201208610  1.0692563794
C   1.3049101131 -0.5681395542 -0.0738843094
H   0.7902395545 -0.5797985790  0.9293459269
H   1.0782436821 -1.2542700040 -0.9168953714
H   2.3186274550 -0.7073424801  0.3199013845
7
Iter 21 Image 6  Energy = -29.7064221865
C   0.8438869552  0.8889292941 -0.0401064716
H   0.7046947572  1.4623544064 -0.9826034768
O   0.6155324196  1.4440148049  1.0277217541
C   1.2745981362 -0.5678223120  0.0072288318
H   0.7521258600 -0.9345000942  0.8953978609
H   1.0765638047 -1.1563317482 -0.8920506624
H   2.3338396237 -0.6462774989  0.2783509665
7
Iter 21 Image 7  Energy = -29.7099076277
C   0.7849072215  0.8725123386 -0.0340187975
H   0.8119690324  1.3036984462 -1.0607526879
O   0.4236572936  1.5528845913  0.9085913450
C   1.2848328319 -0.5585939421  0.0970768396
H   0.9058938125 -1.0066360663  1.0211030666
H   1.0122149464 -1.1539464633 -0.7763644613
H   2.3777663673 -0.5195520436  0.1383035612
7
Iter 21 Image 8  Energy = -29.7096971637
C   0.7840367852  0.8656586589 -0.0371164025
H   0.9809293880  1.3403901038 -1.0231241499
O   0.1875804579  1.4681235287  0.8223429327
C   1.3100769769 -0.5359012779  0.1153731248
H   1.0639489065 -0.9236344469  1.1059940899
H   0.8779311114 -1.1816924395 -0.6582837811
H   2.3967379442 -0.5425772870 -0.0312469938
7
Iter 22 Image 0  Energy = -29.6796137011
C   0.8260657415  0.5508603911 -0.1261794589
H   0.4554445983  1.2417513435 -0.8784317668
O   0.5680753083  1.0246514429  1.1187434847
C   1.4411098584 -0.5873603774 -0.4363613732
H   0.9099091373  0.3932317500  1.7666320721
H   1.5916834696 -0.8592929697 -1.4741885892
H   1.8089534565 -1.2734747403  0.3237244514
7
Iter 22 Image 1  Energy = -29.6789123780
C   0.8517090023  0.5892689636 -0.1611504501
H   0.5232421636  1.3036394085 -0.9163736335
O   0.6124600141  1.0195230293  1.1356324945
C   1.4484363805 -0.5745538150 -0.4352104956
H   0.7583553870  0.2622907336  1.7408380520
H   1.3901709061 -1.0314910037 -1.4144444974
H   2.0168677152 -1.0783104678  0.3446472348
7
Iter 22 Image 2  Energy = -29.6707246369
C   0.8747929965  0.6377190343 -0.1930831320
H   0.6139353268  1.4205198934 -0.9158051605
O   0.5920915660  0.9730228670  1.1303420491
C   1.4457234649 -0.5584556788 -0.4211139404
H   0.6612597040  0.1187084165  1.6128625240
H   1.2581679123 -1.2153063857 -1.2609483795
H   2.1552706152 -0.8858412953  0.3416848694
7
Iter 22 Image 3  Energy = -29.6488459027
C   0.8930927177  0.7100556322 -0.2031475776
H   0.6750777796  1.5303940730 -0.9043251430
O   0.5553653790  0.9120591050  1.1289979610
C   1.4129068565 -0.5395970607 -0.3595909704
H   0.6971838507 -0.0558056104  1.3636229459
H   1.1376593340 -1.3056362968 -1.0714003139
H   2.2299556435 -0.7611029451  0.3397819098
7
Iter 22 Image 4  Energy = -29.6074011987
C   0.8784201559  0.7868709891 -0.1576796834
H   0.6907757115  1.5565763637 -0.9197710713
O   0.5363250365  0.9848312760  1.1250255722
C   1.3441727736 -0.5573499058 -0.1927772243
H   0.7875039940 -0.2570080402  1.0499334476
H   1.0766789221 -1.3055590098 -0.9567769408
H   2.2873649741 -0.7179947623  0.3459846767
7
Iter 22 Image 5  Energy = -29.6694029933
C   0.8545694917  0.8576769941 -0.0866734700
H   0.6998572220  1.5333571961 -0.9449291881
O   0.5492091083  1.2131354060  1.0650229829
C   1.3054289093 -0.5669777061 -0.0755216459
H   0.7969986501 -0.5831758973  0.9304292177
H   1.0717144955 -1.2628409309 -0.9074949335
H   2.3234637169 -0.7008082140  0.3131058170
7
Iter 22 Image 6  Energy = -29.7065412468
C   0.8426175748  0.8904756942 -0.0361527592
H   0.7110652874  1.4699114212 -0.9776056923
O   0.6205878048  1.4439077859  1.0340515375
C   1.2715740723 -0.5676689429  0.0039700930
H   0.7515763646 -0.9404775660  0.8916474957
H   1.0699077099 -1.1559869851 -0.8949438091
H   2.3339127122 -0.6497945485  0.2729719581
7
Iter 22 Image 7  Energy = -29.7098521060
C   0.7828592640  0.8712517327 -0.0348008687
H   0.8149019281  1.3028551939 -1.0612254171
O   0.4290146489  1.5545391437  0.9126134115
C   1.2815682467 -0.5591537665  0.0966435816
H   0.9040692572 -1.0106767477  1.0198374306
H   1.0136560993 -1.1550247329 -0.7782330843
H   2.3751720553 -0.5134239793  0.1391038115
7
Iter 22 Image 8  Energy = -29.7096971637
C   0.7840367852  0.8656586589 -0.0371164025
H   0.9809293880  1.3403901038 -1.0231241499
O   0.1875804579  1.4681235287  0.8223429327
C   1.3100769769 -0.5359012779  0.1153731248
H   1.0639489065 -0.9236344469  1.1059940899
H   0.8779311114 -1.1816924395 -0.6582837811
H   2.3967379442 -0.5425772870 -0.0312469938
7
Iter 23 Image 0  Energy = -29.6796137011
C   0.8260657415  0.5508603911 -0.1261794589
H   0.4554445983  1.2417513435 -0.8784317668
O   0.5680753083  1.0246514429  1.1187434847
C   1.4411098584 -0.5873603774 -0.4363613732
H   0.9099091373  0.3932317500  1.7666320721
H   1.5916834696 -0.8592929697 -1.4741885892
H   1.8089534565 -1.2734747403  0.3237244514
7
Iter 23 Image 1  Energy = -29.6788331485
C   0.8517460802  0.5895301971 -0.1645890891
H   0.5219359519  1.3058681830 -0.9193848206
O   0.6171194460  1.0184656453  1.1336874376
C   1.4491599811 -0.5748803889 -0.4343265732
H   0.7522766200  0.2605353724  1.7420512046
H   1.3887270688 -1.0357473988 -1.4109954206
H   2.0202764243 -1.0734047583  0.3474959612
7
Iter 23 Image 2  Energy = -29.6705249614
C   0.8754492176  0.6368909570 -0.1963045869
H   0.6206085575  1.4273364119 -0.9134814114
O   0.5877486040  0.9684529875  1.1258321973
C   1.4471262706 -0.5597367004 -0.4204227142
H   0.6519807241  0.1173375886  1.6155623203
H   1.2554061386 -1.2193319164 -1.2557188448
H   2.1629220681 -0.8805824738  0.3384718740
7
Iter 23 Image 3  Energy = -29.6485036677
C   0.8868630925  0.7075381787 -0.2068510708
H   0.6884293765  1.5394435913 -0.9010415277
O   0.5498679987  0.9069338344  1.1249398362
C   1.4110334320 -0.5420899344 -0.3584251871
H   0.6948640258 -0.0590777154  1.3657941320
H   1.1296639343 -1.3107434595 -1.0619236848
H   2.2405197068 -0.7516375880  0.3314463032
7
Iter 23 Image 4  Energy = -29.6073832130
C   0.8729256824  0.7833361230 -0.1647173647
H   0.7015594511  1.5680164650 -0.9164644812
O   0.5291432542  0.9753479034  1.1207226422
C   1.3450297859 -0.5579427531 -0.1931103710
H   0.7873238512 -0.2573248266  1.0559386434
H   1.0704079973 -1.3093184467 -0.9465220765
H   2.2948515506 -0.7117475466  0.3380917608
7
Iter 23 Image 5  Energy = -29.6701658136
C   0.8480141135  0.8562286488 -0.0916992988
H   0.7123985770  1.5468942747 -0.9430356420
O   0.5361561090  1.2064379677  1.0610936157
C   1.3053878115 -0.5666491462 -0.0744104704
H   0.8052039576 -0.5903426394  0.9346896431
H   1.0647071876 -1.2681289235 -0.8970750863
H   2.3293738487 -0.6940733127  0.3043760007
7
Iter 23 Image 6  Energy = -29.7066953546
C   0.8405567828  0.8905921407 -0.0313529274
H   0.7187887967  1.4728159155 -0.9731090389
O   0.6223462552  1.4439920232  1.0393352807
C   1.2701404054 -0.5663410532  0.0020449169
H   0.7503049590 -0.9438000606  0.8868962906
H   1.0637015698 -1.1547702985 -0.8955440609
H   2.3354027329 -0.6521218066  0.2656683787
7
Iter 23 Image 7  Energy = -29.7097871667
C   0.7816744919  0.8697884126 -0.0365065090
H   0.8159862728  1.3035433737 -1.0612543520
O   0.4326655940  1.5558510387  0.9158933896
C   1.2799218542 -0.5587318136  0.0965176766
H   0.9021135387 -1.0138117987  1.0176249910
H   1.0146857030 -1.1552373734 -0.7783403570
H   2.3741940402 -0.5110350109  0.1400040225
7
Iter 23 Image 8  Energy = -29.7096971637
C   0.7840367852  0.8656586589 -0.0371164025
H   0.9809293880  1.3403901038 -1.0231241499
O   0.1875804579  1.4681235287  0.8223429327
C   1.3100769769 -0.5359012779  0.1153731248
H   1.0639489065 -0.9236344469  1.1059940899
H   0.8779311114 -1.1816924395 -0.6582837811
H   2.3967379442 -0.5425772870 -0.0312469938
7
Iter 24 Image 0  Energy = -29.6796137011
C   0.8260657415  0.5508603911 -0.1261794589
H   0.4554445983  1.2417513435 -0.8784317668
O   0.5680753083  1.0246514429  1.1187434847
C   1.4411098584 -0.5873603774 -0.4363613732
H   0.9099091373  0.3932317500  1.7666320721
H   1.5916834696 -0.8592929697 -1.4741885892
H   1.8089534565 -1.2734747403  0.3237244514
7
Iter 24 Image 1  Energy = -29.6787866867
C   0.8509841362  0.5881980519 -0.1664244298
H   0.5216801074  1.3077901315 -0.9200917002
O   0.6195262753  1.0190925201  1.1304157840
C   1.4490854617 -0.5763121306 -0.4341773933
H   0.7454016981  0.2623888468  1.7446034000
H   1.3902309092 -1.0404783806 -1.4073907562
H   2.0243329880 -1.0703121766  0.3470037910
7
Iter 24 Image 2  Energy = -29.6703357464
C   0.8735285392  0.6359049457 -0.1970627417
H   0.6311253271  1.4324633270 -0.9090847689
O   0.5785078897  0.9648797069  1.1209548682
C   1.4475450797 -0.5623713652 -0.4191051254
H   0.6443724565  0.1182634119  1.6170132647
H   1.2525573378 -1.2208871768 -1.2493491327
H   2.1736049397 -0.8778859854  0.3305724685
7
Iter 24 Image 3  Energy = -29.6480808324
C   0.8795325793  0.7013757691 -0.2096871828
H   0.7045743967  1.5456459481 -0.8981283393
O   0.5429881103  0.9024480905  1.1226793150
C   1.4094501142 -0.5407438037 -0.3571340365
H   0.6941242447 -0.0611343789  1.3675853546
H   1.1202751449 -1.3162248717 -1.0524232317
H   2.2502969856 -0.7409998262  0.3210469017
7
Iter 24 Image 4  Energy = -29.6072881138
C   0.8678092042  0.7781010248 -0.1672627306
H   0.7119366199  1.5781570354 -0.9134472920
O   0.5199640477  0.9681250352  1.1149817980
C   1.3471227410 -0.5561661427 -0.1919354104
H   0.7868833206 -0.2570791454  1.0599852774
H   1.0633833895 -1.3131462470 -0.9369416773
H   2.3041422519 -0.7076246425  0.3285587770
7
Iter 24 Image 5  Energy = -29.6712100422
C   0.8415245427  0.8542292258 -0.0905398238
H   0.7264246229  1.5653999335 -0.9396459777
O   0.5172019391  1.1958886907  1.0436483541
C   1.3062154712 -0.5689350383 -0.0695501416
H   0.8157808213 -0.6011662309  0.9464957715
H   1.0555955299 -1.2708831865 -0.8841248727
H   2.3384986766 -0.6841664740  0.2876554285
7
Iter 24 Image 6  Energy = -29.7068706220
C   0.8386385982  0.8899597741 -0.0241671466
H   0.7306650283  1.4687118723 -0.9680341603
O   0.6159717066  1.4419402378  1.0419652852
C   1.2718925709 -0.5642300355  0.0020867359
H   0.7484864186 -0.9425629078  0.8818793440
H   1.0565117200 -1.1509112106 -0.8922098608
H   2.3390754327 -0.6525408798  0.2524186520
7
Iter 24 Image 7  Energy = -29.7096088892
C   0.7788469708  0.8751553987 -0.0289826499
H   0.8135545782  1.3068605793 -1.0613974863
O   0.4361774772  1.5502047343  0.9077650873
C   1.2818915535 -0.5571044060  0.0964621825
H   0.8999443949 -1.0155605226  1.0143123652
H   1.0149609863 -1.1540660808 -0.7754122572
H   2.3758655294 -0.5151228862  0.1411916226
7
Iter 24 Image 8  Energy = -29.7096971637
C   0.7840367852  0.8656586589 -0.0371164025
H   0.9809293880  1.3403901038 -1.0231241499
O   0.1875804579  1.4681235287  0.8223429327
C   1.3100769769 -0.5359012779  0.1153731248
H   1.0639489065 -0.9236344469  1.1059940899
H   0.8779311114 -1.1816924395 -0.6582837811
H   2.3967379442 -0.5425772870 -0.0312469938
7
Iter 25 Image 0  Energy = -29.6796137011
C   0.8260657415  0.5508603911 -0.1261794589
H   0.4554445983  1.2417513435 -0.8784317668
O   0.5680753083  1.0246514429  1.1187434847
C   1.4411098584 -0.5873603774 -0.4363613732
H   0.9099091373  0.3932317500  1.7666320721
H   1.5916834696 -0.8592929697 -1.4741885892
H   1.8089534565 -1.2734747403  0.3237244514
7
Iter 25 Image 1  Energy = -29.6788546658
C   0.8504931546  0.5883040548 -0.1655369831
H   0.5224173635  1.3070085792 -0.9184801168
O   0.6171448696  1.0185802212  1.1317041320
C   1.4487132577 -0.5766321164 -0.4341261732
H   0.7481498996  0.2646771004  1.7445349301
H   1.3914282481 -1.0381240166 -1.4091136202
H   2.0228947818 -1.0734469635  0.3449565316
7
Iter 25 Image 2  Energy = -29.6704815543
C   0.8732928987  0.6352376957 -0.1958357015
H   0.6279553958  1.4293952430 -0.9099540334
O   0.5801334725  0.9668150572  1.1223296769
C   1.4465213035 -0.5613729437 -0.4184452267
H   0.6494089164  0.1193971554  1.6161815929
H   1.2537279330 -1.2179176998 -1.2519068954
H   2.1702016530 -0.8811876454  0.3315694143
7
Iter 25 Image 3  Energy = -29.6482629693
C   0.8804555957  0.7042100217 -0.2081732877
H   0.6988302590  1.5406055093 -0.8996407398
O   0.5465149266  0.9047001871  1.1241540886
C   1.4103147843 -0.5423731052 -0.3578453008
H   0.6952584047 -0.0596379015  1.3662423154
H   1.1239683899 -1.3119907687 -1.0559446812
H   2.2458992138 -0.7451470212  0.3251463894
7
Iter 25 Image 4  Energy = -29.6073729760
C   0.8694157462  0.7815418573 -0.1665880192
H   0.7061996852  1.5719591575 -0.9142923333
O   0.5238759362  0.9727296304  1.1171694077
C   1.3474146387 -0.5575929619 -0.1919132029
H   0.7867355212 -0.2571449618  1.0582434003
H   1.0669034526 -1.3091891264 -0.9415856535
H   2.3006965941 -0.7119366810  0.3329051476
7
Iter 25 Image 5  Energy = -29.6713990933
C   0.8454852539  0.8537632920 -0.0966795895
H   0.7205285900  1.5597205144 -0.9396062680
O   0.5210979052  1.2010981471  1.0508688123
C   1.3059698228 -0.5690087472 -0.0685954899
H   0.8133153155 -0.6002691084  0.9449054125
H   1.0585343496 -1.2671265747 -0.8883893611
H   2.3363103619 -0.6878106059  0.2914352319
7
Iter 25 Image 6  Energy = -29.7068273491
C   0.8388841301  0.8890473040 -0.0259667774
H   0.7278908617  1.4656947842 -0.9706248850
O   0.6137568387  1.4420506163  1.0393970366
C   1.2729038259 -0.5640473279  0.0033276187
H   0.7487446903 -0.9399336330  0.8838431438
H   1.0594911904 -1.1515370914 -0.8910997787
H   2.3395699545 -0.6509078000  0.2550624822
7
Iter 25 Image 7  Energy = -29.7098926669
C   0.7815365785  0.8721616427 -0.0344334167
H   0.8123603479  1.3069899431 -1.0608958684
O   0.4319932245  1.5531954723  0.9113542233
C   1.2831104004 -0.5568742181  0.0969986744
H   0.9007909242 -1.0138501943  1.0148693459
H   1.0142765887 -1.1535622281 -0.7747355875
H   2.3771734298 -0.5176935955  0.1407814921
7
Iter 25 Image 8  Energy = -29.7096971637
C   0.7840367852  0.8656586589 -0.0371164025
H   0.9809293880  1.3403901038 -1.0231241499
O   0.1875804579  1.4681235287  0.8223429327
C   1.3100769769 -0.5359012779  0.1153731248
H   1.0639489065 -0.9236344469  1.1059940899
H   0.8779311114 -1.1816924395 -0.6582837811
H   2.3967379442 -0.5425772870 -0.0312469938
7
Iter 26 Image 0  Energy = -29.6796137011
C   0.8260657415  0.5508603911 -0.1261794589
H   0.4554445983  1.2417513435 -0.8784317668
O   0.5680753083  1.0246514429  1.1187434847
C   1.4411098584 -0.5873603774 -0.4363613732
H   0.9099091373  0.3932317500  1.7666320721
H   1.5916834696 -0.8592929697 -1.4741885892
H   1.8089534565 -1.2734747403  0.3237244514
7
Iter 26 Image 1  Energy = -29.6789144492
C   0.8500494560  0.5877936729 -0.1640113034
H   0.5234483757  1.3060175781 -0.9163731936
O   0.6142623852  1.0191217583  1.1324868779
C   1.4481161475 -0.5769346342 -0.4343560411
H   0.7503067201  0.2673150745  1.7445074384
H   1.3931704385 -1.0364678525 -1.4107462569
H   2.0218880508 -1.0764787397  0.3424311837
7
Iter 26 Image 2  Energy = -29.6706060237
C   0.8723775955  0.6350264404 -0.1937904585
H   0.6264227673  1.4261236394 -0.9103586921
O   0.5799951463  0.9690474783  1.1240313605
C   1.4454184184 -0.5609256047 -0.4180126051
H   0.6541713052  0.1208527276  1.6149306468
H   1.2546834308 -1.2152166096 -1.2540652216
H   2.1681729109 -0.8845412071  0.3312037934
7
Iter 26 Image 3  Energy = -29.6484360760
C   0.8819946158  0.7055508669 -0.2062260516
H   0.6941124780  1.5356307873 -0.9011717551
O   0.5486468571  0.9069756681  1.1260818559
C   1.4111934322 -0.5419215774 -0.3586823740
H   0.6967810160 -0.0578816536  1.3653175993
H   1.1269432053 -1.3092147220 -1.0595519422
H   2.2415699682 -0.7487724496  0.3281714505
7
Iter 26 Image 4  Energy = -29.6074300027
C   0.8715321349  0.7840397344 -0.1639002568
H   0.7013504177  1.5660635484 -0.9153113199
O   0.5261498456  0.9778254108  1.1191612512
C   1.3476644143 -0.5579726090 -0.1915444428
H   0.7867240832 -0.2572110258  1.0555414822
H   1.0695681635 -1.3066553084 -0.9459264783
H   2.2982525127 -0.7157228400  0.3359185227
7
Iter 26 Image 5  Energy = -29.6714006877
C   0.8487061147  0.8534826840 -0.0971262371
H   0.7159246143  1.5551480280 -0.9395999480
O   0.5232246193  1.2044211486  1.0523270123
C   1.3059827299 -0.5695934670 -0.0673998832
H   0.8112897907 -0.5990658772  0.9450965722
H   1.0606839709 -1.2639897450 -0.8918337986
H   2.3354297506 -0.6900358503  0.2924750397
7
Iter 26 Image 6  Energy = -29.7067813939
C   0.8397387295  0.8879955121 -0.0278764997
H   0.7264692274  1.4619227896 -0.9727140728
O   0.6090859306  1.4415134104  1.0369418663
C   1.2745212989 -0.5640430213  0.0049769428
H   0.7492688211 -0.9365419582  0.8862026002
H   1.0616879335 -1.1514216337 -0.8894108537
H   2.3404695637 -0.6490582478  0.2558188477
7
Iter 26 Image 7  Energy = -29.7099273866
C   0.7831013481  0.8722954477 -0.0352284090
H   0.8104475717  1.3076371932 -1.0606541354
O   0.4286084282  1.5531763459  0.9101762558
C   1.2850698986 -0.5565141418  0.0973910737
H   0.9015908041 -1.0119114038  1.0153638787
H   1.0134479252 -1.1528666002 -0.7736152210
H   2.3789755229 -0.5214500133  0.1405054213
7
Iter 26 Image 8  Energy = -29.7096971637
C   0.7840367852  0.8656586589 -0.0371164025
H   0.9809293880  1.3403901038 -1.0231241499
O   0.1875804579  1.4681235287  0.8223429327
C   1.3100769769 -0.5359012779  0.1153731248
H   1.0639489065 -0.9236344469  1.1059940899
H   0.8779311114 -1.1816924395 -0.6582837811
H   2.3967379442 -0.5425772870 -0.0312469938
7
Iter 27 Image 0  Energy = -29.6796137011
C   0.8260657415  0.5508603911 -0.1261794589
H   0.4554445983  1.2417513435 -0.8784317668
O   0.5680753083  1.0246514429  1.1187434847
C   1.4411098584 -0.5873603774 -0.4363613732
H   0.9099091373  0.3932317500  1.7666320721
H   1.5916834696 -0.8592929697 -1.4741885892
H   1.8089534565 -1.2734747403  0.3237244514
7
Iter 27 Image 1  Energy = -29.6789767212
C   0.8493000981  0.5866757025 -0.1620960082
H   0.5250576390  1.3052299313 -0.9138133466
O   0.6101121545  1.0207908090  1.1324049067
C   1.4471585568 -0.5776837534 -0.4346294594
H   0.7515233804  0.2711400418  1.7455524649
H   1.3959720606 -1.0354510427 -1.4124373705
H   2.0221176909 -1.0803348317  0.3389575218
7
Iter 27 Image 2  Energy = -29.6707237726
C   0.8709558901  0.6345583194 -0.1910347139
H   0.6270154788  1.4230838814 -0.9104396913
O   0.5767693774  0.9714651000  1.1256652281
C   1.4438762137 -0.5609194353 -0.4169696631
H   0.6592556072  0.1229418778  1.6141675015
H   1.2548278161 -1.2121116796 -1.2563001874
H   2.1685411951 -0.8886511966  0.3288503433
7
Iter 27 Image 3  Energy = -29.6485754764
C   0.8834113468  0.7059298037 -0.2038464520
H   0.6905971671  1.5310236004 -0.9030989142
O   0.5495563030  0.9093443258  1.1277679929
C   1.4115147208 -0.5407642426 -0.3592062329
H   0.6987950898 -0.0561543587  1.3650528360
H   1.1286808016 -1.3071876658 -1.0628689446
H   2.2386861445 -0.7518245434  0.3301384937
7
Iter 27 Image 4  Energy = -29.6074986821
C   0.8739305584  0.7856154092 -0.1601418954
H   0.6968012322  1.5605507619 -0.9167130320
O   0.5267140304  0.9839210008  1.1208460153
C   1.3479185815 -0.5576864574 -0.1905074198
H   0.7868395024 -0.2577928642  1.0525584600
H   1.0716855018 -1.3040398400 -0.9499202787
H   2.2973521619 -0.7202011123  0.3378169103
7
Iter 27 Image 5  Energy = -29.6716494924
C   0.8504801473  0.8529690071 -0.0950903015
H   0.7131995375  1.5514945685 -0.9398114212
O   0.5211307295  1.2075039956  1.0514655730
C   1.3063015684 -0.5700059281 -0.0658581895
H   0.8113128792 -0.5984664974  0.9468326094
H   1.0616506184 -1.2613912051 -0.8937952955
H   2.3371660991 -0.6917370061  0.2901957805
7
Iter 27 Image 6  Energy = -29.7066981858
C   0.8404331466  0.8862935071 -0.0290043538
H   0.7280906312  1.4566462029 -0.9752916127
O   0.5985591300  1.4393573225  1.0340025605
C   1.2769745279 -0.5636418758  0.0073013186
H   0.7506338356 -0.9308192005  0.8901988308
H   1.0626277518 -1.1510440013 -0.8864646043
H   2.3439224978 -0.6464250996  0.2531966777
7
Iter 27 Image 7  Energy = -29.7099604076
C   0.7853903324  0.8724382631 -0.0369842978
H   0.8071568772  1.3089843589 -1.0607680632
O   0.4228577400  1.5537626979  0.9087980178
C   1.2884316883 -0.5556502952  0.0982375077
H   0.9026456529 -1.0093853489  1.0159082699
H   1.0120355205 -1.1516240346 -0.7714529829
H   2.3827236876 -0.5281588133  0.1402004177
7
Iter 27 Image 8  Energy = -29.7096971637
C   0.7840367852  0.8656586589 -0.0371164025
H   0.9809293880  1.3403901038 -1.0231241499
O   0.1875804579  1.4681235287  0.8223429327
C   1.3100769769 -0.5359012779  0.1153731248
H   1.0639489065 -0.9236344469  1.1059940899
H   0.8779311114 -1.1816924395 -0.6582837811
H   2.3967379442 -0.5425772870 -0.0312469938
7
Iter 28 Image 0  Energy = -29.6796137011
C   0.8260657415  0.5508603911 -0.1261794589
H   0.4554445983  1.2417513435 -0.8784317668
O   0.5680753083  1.0246514429  1.1187434847
C   1.4411098584 -0.5873603774 -0.4363613732
H   0.9099091373  0.3932317500  1.7666320721
H   1.5916834696 -0.8592929697 -1.4741885892
H   1.8089534565 -1.2734747403  0.3237244514
7
Iter 28 Image 1  Energy = -29.6790507352
C   0.8477195958  0.5854836082 -0.1593919371
H   0.5284149639  1.3043680123 -0.9103257188
O   0.6018275176  1.0230254581  1.1325959390
C   1.4458885483 -0.5798914120 -0.4346146279
H   0.7527450381  0.2786422643  1.7478753203
H   1.4005975720 -1.0337380794 -1.4153155771
H   2.0240483588 -1.0875229877  0.3331153250
7
Iter 28 Image 2  Energy = -29.6709148204
C   0.8690798156  0.6344986114 -0.1867763299
H   0.6285726558  1.4186214027 -0.9113786508
O   0.5695658821  0.9745832995  1.1283839396
C   1.4413172049 -0.5617747368 -0.4147508457
H   0.6683105705  0.1267910846  1.6150610393
H   1.2538751918 -1.2065229832 -1.2610185173
H   2.1705202619 -0.8958297954  0.3244181536
7
Iter 28 Image 3  Energy = -29.6487000054
C   0.8858813867  0.7092968705 -0.2007877342
H   0.6836916156  1.5240745492 -0.9064891932
O   0.5506525527  0.9131945819  1.1298798622
C   1.4118006964 -0.5419535675 -0.3588186899
H   0.7022637911 -0.0534172240  1.3651623780
H   1.1313416960 -1.3029512100 -1.0683121198
H   2.2356098373 -0.7578770787  0.3333042668
7
Iter 28 Image 4  Energy = -29.6076177126
C   0.8773545925  0.7897378322 -0.1542291499
H   0.6888286254  1.5509578239 -0.9194703985
O   0.5277952301  0.9942576746  1.1226670471
C   1.3482799313 -0.5581062079 -0.1875336632
H   0.7873326283 -0.2597211493  1.0484482140
H   1.0756587252 -1.2980696367 -0.9567399604
H   2.2959918305 -0.7286894479  0.3407966777
7
Iter 28 Image 5  Energy = -29.6718676603
C   0.8511267116  0.8542518068 -0.0935203226
H   0.7095693863  1.5414840503 -0.9409421866
O   0.5155108503  1.2144697209  1.0557758332
C   1.3084981718 -0.5691545029 -0.0642708252
H   0.8130158390 -0.5956164442  0.9472977752
H   1.0632402520 -1.2582958235 -0.8971100150
H   2.3402803485 -0.6967718585  0.2867085005
7
Iter 28 Image 6  Energy = -29.7064236915
C   0.8401838996  0.8835547455 -0.0315058062
H   0.7334460195  1.4493058435 -0.9811397193
O   0.5741041181  1.4335596808  1.0286229377
C   1.2818004156 -0.5631975099  0.0113889958
H   0.7562030461 -0.9187233532  0.9008159239
H   1.0631101010 -1.1521919385 -0.8811507340
H   2.3523939555 -0.6419405948  0.2469071961
7
Iter 28 Image 7  Energy = -29.7099621660
C   0.7865909566  0.8765394961 -0.0348447689
H   0.8017015271  1.3105990034 -1.0628972673
O   0.4121411433  1.5522263398  0.9013889350
C   1.2950486142 -0.5539140501  0.1000217711
H   0.9058664002 -1.0043702589  1.0185341301
H   1.0089295737 -1.1495687824 -0.7673156734
H   2.3909632875 -0.5411449112  0.1390517423
7
Iter 28 Image 8  Energy = -29.7096971637
C   0.7840367852  0.8656586589 -0.0371164025
H   0.9809293880  1.3403901038 -1.0231241499
O   0.1875804579  1.4681235287  0.8223429327
C   1.3100769769 -0.5359012779  0.1153731248
H   1.0639489065 -0.9236344469  1.1059940899
H   0.8779311114 -1.1816924395 -0.6582837811
H   2.3967379442 -0.5425772870 -0.0312469938
7
Iter 29 Image 0  Energy = -29.6796137011
C   0.8260657415  0.5508603911 -0.1261794589
H   0.4554445983  1.2417513435 -0.8784317668
O   0.5680753083  1.0246514429  1.1187434847
C   1.4411098584 -0.5873603774 -0.4363613732
H   0.9099091373  0.3932317500  1.7666320721
H   1.5916834696 -0.8592929697 -1.4741885892
H   1.8089534565 -1.2734747403  0.3237244514
7
Iter 29 Image 1  Energy = -29.6790583199
C   0.8478482072  0.5850285040 -0.1593188639
H   0.5290733474  1.3047241459 -0.9108045972
O   0.6001881313  1.0229729146  1.1324711471
C   1.4457744031 -0.5800318871 -0.4341893585
H   0.7524211819  0.2796511467  1.7486143806
H   1.4007889882 -1.0334473431 -1.4155059894
H   2.0251473366 -1.0885306139  0.3326720108
7
Iter 29 Image 2  Energy = -29.6709546959
C   0.8694439491  0.6345680619 -0.1866112057
H   0.6288547583  1.4186274783 -0.9119587722
O   0.5681149956  0.9740058571  1.1284994939
C   1.4410052618 -0.5621774866 -0.4146368438
H   0.6694118763  0.1275050439  1.6165117014
H   1.2530682855 -1.2055891707 -1.2617813091
H   2.1713424543 -0.8965728946  0.3239157188
7
Iter 29 Image 3  Energy = -29.6486680871
C   0.8869967919  0.7084514220 -0.2008063259
H   0.6822597176  1.5243804937 -0.9071602523
O   0.5505709870  0.9137200666  1.1296364196
C   1.4112661771 -0.5412108393 -0.3570934184
H   0.7025404391 -0.0533230145  1.3650154727
H   1.1312698533 -1.3024583979 -1.0690320374
H   2.2363376101 -0.7591928095  0.3333789061
7
Iter 29 Image 4  Energy = -29.6076454735
C   0.8773842606  0.7900909912 -0.1536271233
H   0.6877419036  1.5501650785 -0.9202007347
O   0.5283283060  0.9949961845  1.1219884816
C   1.3481268397 -0.5580019923 -0.1863149862
H   0.7875587397 -0.2602603861  1.0485267836
H   1.0763125550 -1.2964903150 -0.9575630369
H   2.2957889582 -0.7301326673  0.3411293849
7
Iter 29 Image 5  Energy = -29.6717746174
C   0.8494820670  0.8553523474 -0.0892361777
H   0.7089626470  1.5393459825 -0.9424756978
O   0.5156616117  1.2141895514  1.0550350911
C   1.3093083626 -0.5680667692 -0.0656305017
H   0.8137033248 -0.5935628051  0.9463830474
H   1.0637389020 -1.2581240531 -0.8974152522
H   2.3403846408 -0.6987673153  0.2872782554
7
Iter 29 Image 6  Energy = -29.7063267595
C   0.8388259746  0.8838111663 -0.0322704377
H   0.7355926728  1.4497278923 -0.9822308855
O   0.5676837206  1.4314575083  1.0275153315
C   1.2831361961 -0.5634297024  0.0118888814
H   0.7593783206 -0.9159459740  0.9039593416
H   1.0625379304 -1.1536273677 -0.8801181856
H   2.3540867461 -0.6416266415  0.2451947433
7
Iter 29 Image 7  Energy = -29.7099885410
C   0.7872081149  0.8755534705 -0.0377452271
H   0.8014087558  1.3098517763 -1.0634601312
O   0.4084330483  1.5542415633  0.9026638373
C   1.2963161804 -0.5536988114  0.1007620318
H   0.9073613302 -1.0033873338  1.0197780069
H   1.0081607272 -1.1491701872 -0.7664494473
H   2.3923533490 -0.5430236401  0.1383897974
7
Iter 29 Image 8  Energy = -29.7096971637
C   0.7840367852  0.8656586589 -0.0371164025
H   0.9809293880  1.3403901038 -1.0231241499
O   0.1875804579  1.4681235287  0.8223429327
C   1.3100769769 -0.5359012779  0.1153731248
H   1.0639489065 -0.9236344469  1.1059940899
H   0.8779311114 -1.1816924395 -0.6582837811
H   2.3967379442 -0.5425772870 -0.0312469938
7
Iter 30 Image 0  Energy = -29.6796137011
C   0.8260657415  0.5508603911 -0.1261794589
H   0.4554445983  1.2417513435 -0.8784317668
O   0.5680753083  1.0246514429  1.1187434847
C   1.4411098584 -0.5873603774 -0.4363613732
H   0.9099091373  0.3932317500  1.7666320721
H   1.5916834696 -0.8592929697 -1.4741885892
H   1.8089534565 -1.2734747403  0.3237244514
7
Iter 30 Image 1  Energy = -29.6790492451
C   0.8482210713  0.5851973136 -0.1600792704
H   0.5292230347  1.3054420184 -0.9125511674
O   0.6000812300  1.0224046119  1.1318751490
C   1.4462153033 -0.5801010110 -0.4336610230
H   0.7512356318  0.2788907257  1.7493336900
H   1.3997288215 -1.0336602768 -1.4147230013
H   2.0265365039 -1.0878065119  0.3337443571
7
Iter 30 Image 2  Energy = -29.6709540552
C   0.8705064185  0.6347075669 -0.1877028464
H   0.6293274586  1.4202170225 -0.9124182365
O   0.5674851756  0.9722039203  1.1276013323
C   1.4414191790 -0.5625920995 -0.4148666032
H   0.6681428235  0.1272816698  1.6187630326
H   1.2518387781 -1.2060254315 -1.2614851902
H   2.1725217454 -0.8954257536  0.3240472920
7
Iter 30 Image 3  Energy = -29.6485433942
C   0.8871029266  0.7078191520 -0.2019228416
H   0.6827726658  1.5268480073 -0.9068727365
O   0.5498557079  0.9130570165  1.1284106164
C   1.4105375182 -0.5415761040 -0.3551852501
H   0.7019138435 -0.0540829793  1.3650020765
H   1.1301557531 -1.3026797096 -1.0677692150
H   2.2389031578 -0.7590184591  0.3322761095
7
Iter 30 Image 4  Energy = -29.6076493627
C   0.8763974006  0.7889402107 -0.1547283103
H   0.6888452243  1.5522989119 -0.9204964430
O   0.5282317288  0.9930858802  1.1205039961
C   1.3476736442 -0.5576992795 -0.1854437277
H   0.7878303682 -0.2606565827  1.0501258314
H   1.0758872353 -1.2959290095 -0.9564303026
H   2.2963759613 -0.7296732290  0.3404077239
7
Iter 30 Image 5  Energy = -29.6714887983
C   0.8472093643  0.8563713020 -0.0877519682
H   0.7098431851  1.5390185282 -0.9437392308
O   0.5156628515  1.2126249295  1.0558801986
C   1.3100103863 -0.5668173853 -0.0673482774
H   0.8149198028 -0.5918006113  0.9449400894
H   1.0635876788 -1.2589805792 -0.8966013951
H   2.3400082880 -0.7000492639  0.2885593516
7
Iter 30 Image 6  Energy = -29.7062543100
C   0.8368244191  0.8845830400 -0.0323626348
H   0.7379561647  1.4527551509 -0.9822253321
O   0.5640938470  1.4297084657  1.0275454255
C   1.2834619078 -0.5636113403  0.0112026397
H   0.7629295739 -0.9149648211  0.9058549367
H   1.0611354299 -1.1555461701 -0.8798884099
H   2.3548402192 -0.6425574368  0.2438121640
7
Iter 30 Image 7  Energy = -29.7099868125
C   0.7860454012  0.8755321039 -0.0380845127
H   0.8025607709  1.3084057305 -1.0643623319
O   0.4072836717  1.5550017548  0.9026355971
C   1.2962500633 -0.5536766528  0.1011772875
H   0.9087891623 -1.0033393389  1.0210564085
H   1.0078813619 -1.1492457052 -0.7661723326
H   2.3924310757 -0.5423110549  0.1376887485
7
Iter 30 Image 8  Energy = -29.7096971637
C   0.7840367852  0.8656586589 -0.0371164025
H   0.9809293880  1.3403901038 -1.0231241499
O   0.1875804579  1.4681235287  0.8223429327
C   1.3100769769 -0.5359012779  0.1153731248
H   1.0639489065 -0.9236344469  1.1059940899
H   0.8779311114 -1.1816924395 -0.6582837811
H   2.3967379442 -0.5425772870 -0.0312469938
7
Iter 31 Image 0  Energy = -29.6796137011
C   0.8260657415  0.5508603911 -0.1261794589
H   0.4554445983  1.2417513435 -0.8784317668
O   0.5680753083  1.0246514429  1.1187434847
C   1.4411098584 -0.5873603774 -0.4363613732
H   0.9099091373  0.3932317500  1.7666320721
H   1.5916834696 -0.8592929697 -1.4741885892
H   1.8089534565 -1.2734747403  0.3237244514
7
Iter 31 Image 1  Energy = -29.6790373689
C   0.8486015580  0.5853123456 -0.1610711117
H   0.5303980911  1.3059598176 -0.9146893875
O   0.5982890435  1.0214895914  1.1307530369
C   1.4469964024 -0.5805413842 -0.4326774159
H   0.7492825991  0.2791594257  1.7508460399
H   1.3986439013 -1.0334607909 -1.4135952113
H   2.0290300081 -1.0875521315  0.3343727932
7
Iter 31 Image 2  Energy = -29.6709662145
C   0.8716791396  0.6347154143 -0.1887315648
H   0.6305789262  1.4217825733 -0.9126709941
O   0.5653518707  0.9697656917  1.1260081496
C   1.4419974961 -0.5632304330 -0.4150224322
H   0.6675502616  0.1275081438  1.6225171237
H   1.2495112638 -1.2055858032 -1.2612568981
H   2.1745726146 -0.8945886861  0.3230953811
7
Iter 31 Image 3  Energy = -29.6483275956
C   0.8866206536  0.7075281538 -0.2028916535
H   0.6831084378  1.5288216867 -0.9067112589
O   0.5491545015  0.9125255193  1.1269237204
C   1.4098680816 -0.5425674427 -0.3526982313
H   0.7014635217 -0.0547853490  1.3643161588
H   1.1288312103 -1.3016030665 -1.0658796202
H   2.2421951730 -0.7595525948  0.3308796438
7
Iter 31 Image 4  Energy = -29.6076414502
C   0.8753156416  0.7871114268 -0.1564215841
H   0.6893511258  1.5541296892 -0.9212163215
O   0.5279255139  0.9923368474  1.1193541595
C   1.3472381592 -0.5578110336 -0.1841695957
H   0.7884257626 -0.2612244980  1.0524260134
H   1.0759135276 -1.2937393909 -0.9560127807
H   2.2970718390 -0.7304361291  0.3399788814
7
Iter 31 Image 5  Energy = -29.6708681947
C   0.8457858815  0.8562777548 -0.0882174039
H   0.7094858595  1.5389358839 -0.9453173321
O   0.5151334946  1.2098931470  1.0571731170
C   1.3107701382 -0.5653345529 -0.0684607168
H   0.8168439890 -0.5886918051  0.9445788050
H   1.0636819683 -1.2581306045 -0.8962435049
H   2.3395402263 -0.7025829046  0.2904258132
7
Iter 31 Image 6  Energy = -29.7060387200
C   0.8333840665  0.8844642799 -0.0336158700
H   0.7432690107  1.4565237694 -0.9825384295
O   0.5522842578  1.4256163267  1.0267443991
C   1.2849433164 -0.5631011147  0.0102983018
H   0.7712890999 -0.9102628552  0.9103528669
H   1.0588414536 -1.1593124764 -0.8772430332
H   2.3572303583 -0.6435610226  0.2399405441
7
Iter 31 Image 7  Energy = -29.7099827594
C   0.7845635702  0.8753727317 -0.0385462611
H   0.8036939809  1.3059436383 -1.0659740650
O   0.4030452973  1.5560203574  0.9006791028
C   1.2970834754 -0.5530371628  0.1023632589
H   0.9124084724 -1.0020324519  1.0236994122
H   1.0068423668 -1.1488302472 -0.7642523333
H   2.3936043441 -0.5430700359  0.1359697484
7
Iter 31 Image 8  Energy = -29.7096971637
C   0.7840367852  0.8656586589 -0.0371164025
H   0.9809293880  1.3403901038 -1.0231241499
O   0.1875804579  1.4681235287  0.8223429327
C   1.3100769769 -0.5359012779  0.1153731248
H   1.0639489065 -0.9236344469  1.1059940899
H   0.8779311114 -1.1816924395 -0.6582837811
H   2.3967379442 -0.5425772870 -0.0312469938
7
Iter 32 Image 0  Energy = -29.6796136862
C   0.8260657415  0.5508603911 -0.1261794589
H   0.4554445983  1.2417513435 -0.8784317668
O   0.5680753083  1.0246514429  1.1187434847
C   1.4411098584 -0.5873603774 -0.4363613732
H   0.9099091373  0.3932317500  1.7666320721
H   1.5916834696 -0.8592929697 -1.4741885892
H   1.8089534565 -1.2734747403  0.3237244514
7
Iter 32 Image 1  Energy = -29.6790183550
C   0.8499223053  0.5836707386 -0.1615023952
H   0.5342440911  1.3050275009 -0.9177172975
O   0.5921432485  1.0200973805  1.1288409118
C   1.4485039503 -0.5802320598 -0.4309112388
H   0.7455916856  0.2819046649  1.7528867366
H   1.3973696233 -1.0322788413 -1.4120318502
H   2.0334667037 -1.0878225075  0.3343739021
7
Iter 32 Image 2  Energy = -29.6709708786
C   0.8728028442  0.6330293699 -0.1892411128
H   0.6334075894  1.4227431569 -0.9118324667
O   0.5607311060  0.9658274748  1.1250345985
C   1.4430018474 -0.5624559395 -0.4156576224
H   0.6682591501  0.1297118392  1.6266587499
H   1.2448074649 -1.2041996196 -1.2611119159
H   2.1782315567 -0.8942893566  0.3200885198
7
Iter 32 Image 3  Energy = -29.6479922301
C   0.8858077851  0.7050450196 -0.2034204695
H   0.6833439980  1.5286633611 -0.9071589910
O   0.5482710863  0.9133212839  1.1267756320
C   1.4101597925 -0.5401399354 -0.3492085203
H   0.7014990553 -0.0556490944  1.3621483379
H   1.1268597627 -1.2995385244 -1.0645075881
H   2.2453001007 -0.7613352215  0.3293103337
7
Iter 32 Image 4  Energy = -29.6075579739
C   0.8726014741  0.7868399345 -0.1563564709
H   0.6889698527  1.5532454636 -0.9218876009
O   0.5284271633  0.9921373044  1.1169249306
C   1.3477938684 -0.5590849278 -0.1821483015
H   0.7894225135 -0.2591633578  1.0559634861
H   1.0768551935 -1.2900491201 -0.9590471025
H   2.2971715004 -0.7335583649  0.3404898187
7
Iter 32 Image 5  Energy = -29.6689199275
C   0.8467496592  0.8545773500 -0.0897620504
H   0.7046885333  1.5409554313 -0.9454548240
O   0.5172166611  1.2012167458  1.0519549115
C   1.3120080146 -0.5665508859 -0.0685588472
H   0.8181627407 -0.5801798141  0.9499318543
H   1.0649284397 -1.2524685301 -0.8991897824
H   2.3374875181 -0.7071834271  0.2950175223
7
Iter 32 Image 6  Energy = -29.7053286201
C   0.8262145257  0.8850129396 -0.0333856178
H   0.7544257437  1.4627531647 -0.9823455891
O   0.5221809168  1.4119937263  1.0180341151
C   1.2899915568 -0.5602718656  0.0093151621
H   0.7919528414 -0.8961733823  0.9206972830
H   1.0544082392 -1.1684181888 -0.8686908757
H   2.3620677580 -0.6445294235  0.2303142871
7
Iter 32 Image 7  Energy = -29.7099340326
C   0.7814049288  0.8768787027 -0.0367392955
H   0.8053494260  1.3005581531 -1.0687030293
O   0.3930512008  1.5547967050  0.8905948785
C   1.3001761126 -0.5513290354  0.1054321419
H   0.9215358214 -0.9973019339  1.0301800401
H   1.0039902239 -1.1478217370 -0.7581805688
H   2.3957337988 -0.5454140161  0.1313546881
7
Iter 32 Image 8  Energy = -29.7096971637
C   0.7840367852  0.8656586589 -0.0371164025
H   0.9809293880  1.3403901038 -1.0231241499
O   0.1875804579  1.4681235287  0.8223429327
C   1.3100769769 -0.5359012779  0.1153731248
H   1.0639489065 -0.9236344469  1.1059940899
H   0.8779311114 -1.1816924395 -0.6582837811
H   2.3967379442 -0.5425772870 -0.0312469938
7
Iter 33 Image 0  Energy = -29.6796137011
C   0.8260657415  0.5508603911 -0.1261794589
H   0.4554445983  1.2417513435 -0.8784317668
O   0.5680753083  1.0246514429  1.1187434847
C   1.4411098584 -0.5873603774 -0.4363613732
H   0.9099091373  0.3932317500  1.7666320721
H   1.5916834696 -0.8592929697 -1.4741885892
H   1.8089534565 -1.2734747403  0.3237244514
7
Iter 33 Image 1  Energy = -29.6790224230
C   0.8494455683  0.5846872743 -0.1616168449
H   0.5339632987  1.3048836039 -0.9174704664
O   0.5928355326  1.0201685117  1.1288020004
C   1.4488325583 -0.5808842018 -0.4311422986
H   0.7458328947  0.2813372927  1.7527994821
H   1.3973189155 -1.0323139764 -1.4119504165
H   2.0330128406 -1.0875116278  0.3345173111
7
Iter 33 Image 2  Energy = -29.6709709531
C   0.8724432659  0.6338713188 -0.1891928140
H   0.6331197847  1.4227061279 -0.9117595995
O   0.5613440802  0.9665572758  1.1244892891
C   1.4433330879 -0.5631738290 -0.4157602996
H   0.6679952075  0.1288072380  1.6266475878
H   1.2452301648 -1.2043603703 -1.2608561783
H   2.1777759697 -0.8940408407  0.3203707633
7
Iter 33 Image 3  Energy = -29.6480512685
C   0.8850815089  0.7069396548 -0.2032892207
H   0.6836137825  1.5285617748 -0.9068730937
O   0.5485229621  0.9127143219  1.1264754999
C   1.4103114596 -0.5423870342 -0.3503146491
H   0.7013529966 -0.0554220614  1.3623921884
H   1.1271968899 -1.2991154242 -1.0639633136
H   2.2451619830 -0.7609243429  0.3295113300
7
Iter 33 Image 4  Energy = -29.6075622654
C   0.8732493246  0.7856182241 -0.1572104341
H   0.6891669759  1.5538732154 -0.9219363228
O   0.5280296571  0.9922711938  1.1179512284
C   1.3473183599 -0.5585298436 -0.1828294743
H   0.7893827190 -0.2593774911  1.0559690856
H   1.0767543007 -1.2903751486 -0.9584894211
H   2.2973402320 -0.7331132208  0.3404841001
7
Iter 33 Image 5  Energy = -29.6690942711
C   0.8473079908  0.8539077090 -0.0927302582
H   0.7052881317  1.5409789569 -0.9452966368
O   0.5164472657  1.2026899089  1.0551951209
C   1.3115417307 -0.5661589040 -0.0680834091
H   0.8182694677 -0.5809883957  0.9490352080
H   1.0647354823 -1.2532901745 -0.8990676033
H   2.3376514967 -0.7067722169  0.2948863613
7
Iter 33 Image 6  Energy = -29.7054617173
C   0.8276826416  0.8834275527 -0.0366985003
H   0.7533836295  1.4625382131 -0.9819629379
O   0.5241451497  1.4147191199  1.0219098788
C   1.2892581788 -0.5607673270  0.0090263783
H   0.7902856873 -0.8974389027  0.9197127600
H   1.0547408814 -1.1675551815 -0.8692948769
H   2.3617454106 -0.6445565124  0.2312460619
7
Iter 33 Image 7  Energy = -29.7099827594
C   0.7825682251  0.8750094835 -0.0391181927
H   0.8054018976  1.3009948009 -1.0683568373
O   0.3932812286  1.5563025814  0.8936727847
C   1.2994816175 -0.5514701114  0.1051523748
H   0.9207470755 -0.9976984801  1.0296013540
H   1.0042934949 -1.1479912815 -0.7587536779
H   2.3954679710 -0.5447801575  0.1317410506
7
Iter 33 Image 8  Energy = -29.7096971637
C   0.7840367852  0.8656586589 -0.0371164025
H   0.9809293880  1.3403901038 -1.0231241499
O   0.1875804579  1.4681235287  0.8223429327
C   1.3100769769 -0.5359012779  0.1153731248
H   1.0639489065 -0.9236344469  1.1059940899
H   0.8779311114 -1.1816924395 -0.6582837811
H   2.3967379442 -0.5425772870 -0.0312469938
