7
Image 0  Energy = -29.67961370
C   0.8260657415  0.5508603911 -0.1261794589
H   0.4554445983  1.2417513435 -0.8784317668
O   0.5680753083  1.0246514429  1.1187434847
C   1.4411098584 -0.5873603774 -0.4363613732
H   0.9099091373  0.3932317500  1.7666320721
H   1.5916834696 -0.8592929697 -1.4741885892
H   1.8089534565 -1.2734747403  0.3237244514
7
Image 1  Energy = -29.67902242
C   0.8494455683  0.5846872743 -0.1616168449
H   0.5339632987  1.3048836039 -0.9174704664
O   0.5928355326  1.0201685117  1.1288020004
C   1.4488325583 -0.5808842018 -0.4311422986
H   0.7458328947  0.2813372927  1.7527994821
H   1.3973189155 -1.0323139764 -1.4119504165
H   2.0330128406 -1.0875116278  0.3345173111
7
Image 2  Energy = -29.67097095
C   0.8724432659  0.6338713188 -0.1891928140
H   0.6331197847  1.4227061279 -0.9117595995
O   0.5613440802  0.9665572758  1.1244892891
C   1.4433330879 -0.5631738290 -0.4157602996
H   0.6679952075  0.1288072380  1.6266475878
H   1.2452301648 -1.2043603703 -1.2608561783
H   2.1777759697 -0.8940408407  0.3203707633
7
Image 3  Energy = -29.64805127
C   0.8850815089  0.7069396548 -0.2032892207
H   0.6836137825  1.5285617748 -0.9068730937
O   0.5485229621  0.9127143219  1.1264754999
C   1.4103114596 -0.5423870342 -0.3503146491
H   0.7013529966 -0.0554220614  1.3623921884
H   1.1271968899 -1.2991154242 -1.0639633136
H   2.2451619830 -0.7609243429  0.3295113300
7
Image 4  Energy = -29.60756227
C   0.8732493246  0.7856182241 -0.1572104341
H   0.6891669759  1.5538732154 -0.9219363228
O   0.5280296571  0.9922711938  1.1179512284
C   1.3473183599 -0.5585298436 -0.1828294743
H   0.7893827190 -0.2593774911  1.0559690856
H   1.0767543007 -1.2903751486 -0.9584894211
H   2.2973402320 -0.7331132208  0.3404841001
7
Image 5  Energy = -29.66909427
C   0.8473079908  0.8539077090 -0.0927302582
H   0.7052881317  1.5409789569 -0.9452966368
O   0.5164472657  1.2026899089  1.0551951209
C   1.3115417307 -0.5661589040 -0.0680834091
H   0.8182694677 -0.5809883957  0.9490352080
H   1.0647354823 -1.2532901745 -0.8990676033
H   2.3376514967 -0.7067722169  0.2948863613
7
Image 6  Energy = -29.70546172
C   0.8276826416  0.8834275527 -0.0366985003
H   0.7533836295  1.4625382131 -0.9819629379
O   0.5241451497  1.4147191199  1.0219098788
C   1.2892581788 -0.5607673270  0.0090263783
H   0.7902856873 -0.8974389027  0.9197127600
H   1.0547408814 -1.1675551815 -0.8692948769
H   2.3617454106 -0.6445565124  0.2312460619
7
Image 7  Energy = -29.70998276
C   0.7825682251  0.8750094835 -0.0391181927
H   0.8054018976  1.3009948009 -1.0683568373
O   0.3932812286  1.5563025814  0.8936727847
C   1.2994816175 -0.5514701114  0.1051523748
H   0.9207470755 -0.9976984801  1.0296013540
H   1.0042934949 -1.1479912815 -0.7587536779
H   2.3954679710 -0.5447801575  0.1317410506
7
Image 8  Energy = -29.70969716
C   0.7840367852  0.8656586589 -0.0371164025
H   0.9809293880  1.3403901038 -1.0231241499
O   0.1875804579  1.4681235287  0.8223429327
C   1.3100769769 -0.5359012779  0.1153731248
H   1.0639489065 -0.9236344469  1.1059940899
H   0.8779311114 -1.1816924395 -0.6582837811
H   2.3967379442 -0.5425772870 -0.0312469938
