7
Iter 0 Image 0  Energy = -4188.2527480593
C   0.8260657415  0.5508603911 -0.1261794589
H   0.4554445983  1.2417513435 -0.8784317668
O   0.5680753083  1.0246514429  1.1187434847
C   1.4411098584 -0.5873603774 -0.4363613732
H   0.9099091373  0.3932317500  1.7666320721
H   1.5916834696 -0.8592929697 -1.4741885892
H   1.8089534565 -1.2734747403  0.3237244514
7
Iter 0 Image 1  Energy = -4187.9492034188
C   0.8280603799  0.5842601200 -0.1289746940
H   0.5338467926  1.2585764542 -0.9073250822
O   0.5374557274  1.0374646269  1.1243273514
C   1.3934087246 -0.5362028457 -0.3839058570
H   0.9058115392  0.2464346045  1.6388447562
H   1.4816637530 -0.9093516403 -1.3603666629
H   1.9209946501 -1.1908144793  0.3113390051
7
Iter 0 Image 2  Energy = -4186.3625049463
C   0.8311525054  0.6129419704 -0.1269399723
H   0.6027667409  1.2766441569 -0.9353101476
O   0.4903084801  1.0832462201  1.0956037043
C   1.3262801223 -0.4842112639 -0.3387295072
H   0.9215061787  0.0805257938  1.5527632802
H   1.3821629959 -0.9556305028 -1.2592360551
H   2.0470645495 -1.1231495374  0.3057875127
7
Iter 0 Image 3  Energy = -4184.1654239616
C   0.8277906063  0.6528920534 -0.1158047460
H   0.6609506158  1.2912968606 -0.9570421094
O   0.4399036844  1.1477464507  1.0456041571
C   1.2540589694 -0.4585962897 -0.2681948285
H   0.9471139015 -0.0900229181  1.4880164293
H   1.2974100396 -0.9960559464 -1.1768798168
H   2.1740137444 -1.0568933807  0.2782397275
7
Iter 0 Image 4  Energy = -4184.2507581583
C   0.7988255548  0.7373693496 -0.0657845856
H   0.7023383176  1.2980219113 -0.9697399637
O   0.3959788321  1.2264444171  0.9617528711
C   1.2092546278 -0.4881878089 -0.1588335598
H   0.9928644977 -0.2650394569  1.4130969325
H   1.2365758896 -1.0283041836 -1.1178118273
H   2.2654038597 -0.9899374006  0.2312589597
7
Iter 0 Image 5  Energy = -4185.6279363057
C   0.7925130228  0.7797304397 -0.0490322293
H   0.7646711965  1.3103577245 -0.9860386755
O   0.3543394499  1.2720308494  0.9241028721
C   1.2016246816 -0.5132614366 -0.0680641177
H   1.0044801508 -0.4111147878  1.3359563467
H   1.1465930234 -1.0722770740 -1.0183855113
H   2.3370200493 -0.8750988785  0.1554001299
7
Iter 0 Image 6  Energy = -4187.3391414306
C   0.7904373920  0.8074967112 -0.0474987746
H   0.8298943453  1.3191845467 -0.9981795333
O   0.3041935617  1.3317244109  0.8939201198
C   1.2345726849 -0.5328486186  0.0278813085
H   1.0267697403 -0.5677046244  1.2415483311
H   1.0622684819 -1.1085484788 -0.9041661445
H   2.3531053734 -0.7589371023  0.0804335129
7
Iter 0 Image 7  Energy = -4188.3828160337
C   0.7866398421  0.8365509759 -0.0441412858
H   0.9039718473  1.3291923563 -1.0101810254
O   0.2488545906  1.3953021195  0.8588043147
C   1.2777252398 -0.5418851992  0.0878411047
H   1.0458704417 -0.7374147889  1.1628327687
H   0.9720796100 -1.1443731508 -0.7790116701
H   2.3660999971 -0.6470054726  0.0177946166
7
Iter 0 Image 8  Energy = -4188.6819968244
C   0.7840367852  0.8656586589 -0.0371164025
H   0.9809293880  1.3403901038 -1.0231241499
O   0.1875804579  1.4681235287  0.8223429327
C   1.3100769769 -0.5359012779  0.1153731248
H   1.0639489065 -0.9236344469  1.1059940899
H   0.8779311114 -1.1816924395 -0.6582837811
H   2.3967379442 -0.5425772870 -0.0312469938
7
Iter 1 Image 0  Energy = -4188.2527480593
C   0.8260657415  0.5508603911 -0.1261794589
H   0.4554445983  1.2417513435 -0.8784317668
O   0.5680753083  1.0246514429  1.1187434847
C   1.4411098584 -0.5873603774 -0.4363613732
H   0.9099091373  0.3932317500  1.7666320721
H   1.5916834696 -0.8592929697 -1.4741885892
H   1.8089534565 -1.2734747403  0.3237244514
7
Iter 1 Image 1  Energy = -4188.0532901308
C   0.8207736223  0.6005656020 -0.1261077937
H   0.5367103789  1.2611893391 -0.9106767056
O   0.5433538635  1.0241705908  1.1304184995
C   1.3997999973 -0.5493059123 -0.3825339251
H   0.8990089677  0.2507473848  1.6296586636
H   1.4744211181 -0.9124158429 -1.3617769860
H   1.9271736198 -1.1845843240  0.3149570632
7
Iter 1 Image 2  Energy = -4187.0596797413
C   0.8088712615  0.6627317132 -0.1208645036
H   0.6079687197  1.2809851852 -0.9413366608
O   0.5016484650  1.0577545296  1.1052969590
C   1.3486494031 -0.5323547459 -0.3311298719
H   0.9094940273  0.0893424077  1.5355691697
H   1.3680190439 -0.9609056857 -1.2590115908
H   2.0565906509 -1.1071865671  0.3054153134
7
Iter 1 Image 3  Energy = -4185.2640367246
C   0.8000604524  0.7185576229 -0.1101787238
H   0.6629452139  1.2958314326 -0.9637814554
O   0.4518400306  1.1248446357  1.0569700965
C   1.2891008071 -0.5327603105 -0.2640379523
H   0.9359683821 -0.0765194133  1.4748705370
H   1.2862767268 -0.9970111322 -1.1785941207
H   2.1750499452 -1.0425760063  0.2786904294
7
Iter 1 Image 4  Energy = -4184.9148291668
C   0.7897967131  0.7670043218 -0.0794153238
H   0.6976412331  1.3028908055 -0.9759928077
O   0.3974847549  1.2286149121  0.9827806348
C   1.2381421829 -0.5365970354 -0.1447943440
H   0.9891345590 -0.2604728204  1.3982022511
H   1.2350884678 -1.0236990897 -1.1231845193
H   2.2539536685 -0.9873742624  0.2363429391
7
Iter 1 Image 5  Energy = -4186.0527955613
C   0.7917955365  0.7941243005 -0.0683437762
H   0.7580310720  1.3141043882 -0.9909559161
O   0.3513453281  1.2827065529  0.9461126171
C   1.2233914146 -0.5445215930 -0.0530004260
H   1.0019990932 -0.4096603076  1.3249097293
H   1.1473727035 -1.0690766274 -1.0276166323
H   2.3273064270 -0.8773098791  0.1628332196
7
Iter 1 Image 6  Energy = -4187.4634740970
C   0.7917570406  0.8126952065 -0.0578751195
H   0.8234630476  1.3213375273 -1.0027888058
O   0.3038821066  1.3358791220  0.9084041724
C   1.2428256772 -0.5462130407  0.0391384455
H   1.0233856451 -0.5622890791  1.2299984111
H   1.0637475110 -1.1071552234 -0.9110817288
H   2.3521805529 -0.7638876710  0.0881434486
7
Iter 1 Image 7  Energy = -4188.3991918436
C   0.7889254384  0.8359192066 -0.0487408959
H   0.9008586601  1.3300972288 -1.0131581793
O   0.2481970076  1.3971418462  0.8661692158
C   1.2788069729 -0.5444615069  0.0921462467
H   1.0435554126 -0.7350803665  1.1566110771
H   0.9722804605 -1.1444063908 -0.7798917339
H   2.3686176169 -0.6488431783  0.0208030926
7
Iter 1 Image 8  Energy = -4188.6819968244
C   0.7840367852  0.8656586589 -0.0371164025
H   0.9809293880  1.3403901038 -1.0231241499
O   0.1875804579  1.4681235287  0.8223429327
C   1.3100769769 -0.5359012779  0.1153731248
H   1.0639489065 -0.9236344469  1.1059940899
H   0.8779311114 -1.1816924395 -0.6582837811
H   2.3967379442 -0.5425772870 -0.0312469938
7
Iter 2 Image 0  Energy = -4188.2527480593
C   0.8260657415  0.5508603911 -0.1261794589
H   0.4554445983  1.2417513435 -0.8784317668
O   0.5680753083  1.0246514429  1.1187434847
C   1.4411098584 -0.5873603774 -0.4363613732
H   0.9099091373  0.3932317500  1.7666320721
H   1.5916834696 -0.8592929697 -1.4741885892
H   1.8089534565 -1.2734747403  0.3237244514
7
Iter 2 Image 1  Energy = -4188.0802687129
C   0.8183409643  0.6067577790 -0.1232799119
H   0.5371897321  1.2659960449 -0.9147295822
O   0.5484868923  1.0140002320  1.1346838513
C   1.4050564862 -0.5576200498 -0.3789470499
H   0.8927838146  0.2549790487  1.6251104998
H   1.4682173907 -0.9156848344 -1.3682847058
H   1.9311662884 -1.1780613843  0.3193857113
7
Iter 2 Image 2  Energy = -4187.3149979433
C   0.8064296564  0.6697401755 -0.1197161850
H   0.6104684030  1.2921458956 -0.9520597517
O   0.5135323666  1.0314536054  1.1204701344
C   1.3582223509 -0.5475013524 -0.3095071428
H   0.8945896244  0.1025507664  1.5164785207
H   1.3521981830 -0.9697368681 -1.2661047813
H   2.0658009853 -1.0882853861  0.3043780199
7
Iter 2 Image 3  Energy = -4185.6344309843
C   0.7976762249  0.7201404895 -0.1095622708
H   0.6618026299  1.3092012752 -0.9776361939
O   0.4629904223  1.1053663611  1.0738579045
C   1.3081716800 -0.5543613200 -0.2292153775
H   0.9236099974 -0.0632171408  1.4538027416
H   1.2741202330 -1.0038497380 -1.1902860626
H   2.1728703726 -1.0229130959  0.2729780763
7
Iter 2 Image 4  Energy = -4185.2280649713
C   0.7850813432  0.7768126278 -0.0813452424
H   0.6899075288  1.3131109754 -0.9879256830
O   0.4018646206  1.2317141009  0.9966241530
C   1.2730844116 -0.5721162021 -0.1218783516
H   0.9850437303 -0.2586104353  1.3800575908
H   1.2339929023 -1.0184691063 -1.1307308782
H   2.2322670400 -0.9820751270  0.2391372397
7
Iter 2 Image 5  Energy = -4186.3224028966
C   0.7890990985  0.8038075305 -0.0721338818
H   0.7498131523  1.3215288401 -1.0002551606
O   0.3537158833  1.2904237697  0.9578582574
C   1.2567287979 -0.5735778676 -0.0346025400
H   0.9983130427 -0.4104663875  1.3082624190
H   1.1476319103 -1.0652279912 -1.0345880002
H   2.3059396917 -0.8761210621  0.1693977247
7
Iter 2 Image 6  Energy = -4187.5657426885
C   0.7906410972  0.8191777743 -0.0612150906
H   0.8160129252  1.3252783586 -1.0098452281
O   0.3064463103  1.3397254159  0.9186825239
C   1.2607947100 -0.5619390248  0.0488382115
H   1.0182238356 -0.5595318612  1.2157163104
H   1.0647226064 -1.1048434094 -0.9150605885
H   2.3444000959 -0.7675004149  0.0968226847
7
Iter 2 Image 7  Energy = -4188.4138764015
C   0.7892946360  0.8372359113 -0.0497127109
H   0.8972412508  1.3314770252 -1.0173026953
O   0.2493554992  1.3983046359  0.8713349895
C   1.2848025327 -0.5477448702  0.0930210864
H   1.0396426652 -0.7344065851  1.1505368072
H   0.9720515834 -1.1442295833 -0.7788600729
H   2.3688534038 -0.6502696962  0.0249214202
7
Iter 2 Image 8  Energy = -4188.6819968244
C   0.7840367852  0.8656586589 -0.0371164025
H   0.9809293880  1.3403901038 -1.0231241499
O   0.1875804579  1.4681235287  0.8223429327
C   1.3100769769 -0.5359012779  0.1153731248
H   1.0639489065 -0.9236344469  1.1059940899
H   0.8779311114 -1.1816924395 -0.6582837811
H   2.3967379442 -0.5425772870 -0.0312469938
7
Iter 3 Image 0  Energy = -4188.2527480593
C   0.8260657415  0.5508603911 -0.1261794589
H   0.4554445983  1.2417513435 -0.8784317668
O   0.5680753083  1.0246514429  1.1187434847
C   1.4411098584 -0.5873603774 -0.4363613732
H   0.9099091373  0.3932317500  1.7666320721
H   1.5916834696 -0.8592929697 -1.4741885892
H   1.8089534565 -1.2734747403  0.3237244514
7
Iter 3 Image 1  Energy = -4188.1029022208
C   0.8257014980  0.5956028137 -0.1245527545
H   0.5362408853  1.2772330651 -0.9210658579
O   0.5530393992  1.0082257958  1.1386773460
C   1.4058605928 -0.5551748740 -0.3788917447
H   0.8838244619  0.2539245966  1.6270643903
H   1.4551999178 -0.9221154699 -1.3823867090
H   1.9413748130 -1.1673290934  0.3350941468
7
Iter 3 Image 2  Energy = -4187.5131433329
C   0.8157549118  0.6557340882 -0.1240280675
H   0.6140064839  1.3149374417 -0.9690781985
O   0.5345727390  0.9902438997  1.1522453023
C   1.3627371298 -0.5617383349 -0.2970520093
H   0.8635837384  0.1245947840  1.4800725660
H   1.3166410924 -0.9814514586 -1.2620789053
H   2.0939454704 -1.0519535909  0.3138581247
7
Iter 3 Image 3  Energy = -4185.8658313996
C   0.8015103404  0.7162773513 -0.1102496305
H   0.6594367456  1.3300997798 -0.9953460609
O   0.4817651363  1.0788910437  1.1032652556
C   1.3289354858 -0.5971924081 -0.1949303930
H   0.8987417267 -0.0466208519  1.3953547303
H   1.2470197931 -1.0035183436 -1.1758536947
H   2.1838323402 -0.9875697416  0.2716986121
7
Iter 3 Image 4  Energy = -4185.3584984711
C   0.7867325972  0.7705274436 -0.0696726650
H   0.6690874415  1.3348762170 -1.0106145235
O   0.4205593081  1.2287099508  1.0081274907
C   1.3098887015 -0.5993068029 -0.0802851214
H   0.9731837095 -0.2566460810  1.3377415420
H   1.2320724973 -1.0075244694 -1.1451847458
H   2.2097173199 -0.9802694159  0.2538268529
7
Iter 3 Image 5  Energy = -4186.4991088232
C   0.7918271539  0.8015442877 -0.0579615761
H   0.7264044021  1.3392878439 -1.0211219242
O   0.3688912859  1.2982001995  0.9646644257
C   1.2968140433 -0.5957019941  0.0005691567
H   0.9898303403 -0.4165104600  1.2628345632
H   1.1499497135 -1.0564399367 -1.0456693030
H   2.2775246409 -0.8800131094  0.1906234810
7
Iter 3 Image 6  Energy = -4187.6593339762
C   0.7898626347  0.8253539542 -0.0514004615
H   0.7964380722  1.3364376165 -1.0273084718
O   0.3194506230  1.3444623959  0.9273677045
C   1.2889816906 -0.5790300336  0.0638383178
H   1.0046329214 -0.5612751327  1.1817966782
H   1.0661055502 -1.0996212421 -0.9181679056
H   2.3357700893 -0.7759607208  0.1178129565
7
Iter 3 Image 7  Energy = -4188.4410737774
C   0.7882764548  0.8427543451 -0.0460901829
H   0.8873360599  1.3348781696 -1.0267747688
O   0.2563876635  1.3983022996  0.8772998682
C   1.2969557341 -0.5516942152  0.0927022139
H   1.0287742513 -0.7361089103  1.1360019351
H   0.9709403047 -1.1442253699 -0.7748439648
H   2.3725711081 -0.6535394776  0.0356437242
7
Iter 3 Image 8  Energy = -4188.6819968244
C   0.7840367852  0.8656586589 -0.0371164025
H   0.9809293880  1.3403901038 -1.0231241499
O   0.1875804579  1.4681235287  0.8223429327
C   1.3100769769 -0.5359012779  0.1153731248
H   1.0639489065 -0.9236344469  1.1059940899
H   0.8779311114 -1.1816924395 -0.6582837811
H   2.3967379442 -0.5425772870 -0.0312469938
7
Iter 4 Image 0  Energy = -4188.2527480593
C   0.8260657415  0.5508603911 -0.1261794589
H   0.4554445983  1.2417513435 -0.8784317668
O   0.5680753083  1.0246514429  1.1187434847
C   1.4411098584 -0.5873603774 -0.4363613732
H   0.9099091373  0.3932317500  1.7666320721
H   1.5916834696 -0.8592929697 -1.4741885892
H   1.8089534565 -1.2734747403  0.3237244514
7
Iter 4 Image 1  Energy = -4188.1058990380
C   0.8218599623  0.6063919961 -0.1273499770
H   0.5371522414  1.2793079758 -0.9189149400
O   0.5571820934  1.0051147217  1.1367047178
C   1.4166091647 -0.5715335722 -0.3853825692
H   0.8774882192  0.2516268927  1.6327696694
H   1.4455745711 -0.9245666578 -1.3871173991
H   1.9453753171 -1.1559745229  0.3432293170
7
Iter 4 Image 2  Energy = -4187.5244820735
C   0.8199147952  0.6491470297 -0.1281878792
H   0.6127820512  1.3204714545 -0.9671126472
O   0.5456274564  0.9853353580  1.1535962849
C   1.3694977731 -0.5696154599 -0.3007781485
H   0.8498429266  0.1234257649  1.4735450406
H   1.2986929921 -0.9865162755 -1.2618354868
H   2.1048835695 -1.0318810451  0.3247116463
7
Iter 4 Image 3  Energy = -4186.0279203898
C   0.8128188454  0.6934402585 -0.1054138907
H   0.6528396665  1.3401858273 -1.0000973342
O   0.4968299453  1.0672195680  1.1042468033
C   1.3166743564 -0.5839980445 -0.1790707705
H   0.8835468673 -0.0409600708  1.3646945254
H   1.2353463049 -1.0063249639 -1.1753734754
H   2.2031855859 -0.9791957359  0.2849529655
7
Iter 4 Image 4  Energy = -4185.4487198985
C   0.7937615269  0.7732082218 -0.0803361810
H   0.6562404481  1.3401671184 -1.0109211614
O   0.4349910714  1.2238320711  1.0187671321
C   1.2985217508 -0.6028329280 -0.0764221728
H   0.9616781253 -0.2602124759  1.3094677781
H   1.2303779754 -0.9982926039 -1.1389596059
H   2.2256706758 -0.9855025540  0.2723430427
7
Iter 4 Image 5  Energy = -4186.6167993417
C   0.7997075718  0.8051681202 -0.0666821122
H   0.7067567459  1.3433967404 -1.0221979841
O   0.3824347408  1.3009730960  0.9743193372
C   1.2873107085 -0.5966718797  0.0134533348
H   0.9828445222 -0.4237081275  1.2279515594
H   1.1562995647 -1.0458868071 -1.0462898678
H   2.2858877238 -0.8929043010  0.2133845595
7
Iter 4 Image 6  Energy = -4187.7032956055
C   0.7979216939  0.8251129786 -0.0574643153
H   0.7792737690  1.3411022670 -1.0321910986
O   0.3280469856  1.3513456249  0.9384750226
C   1.2941059087 -0.5801609973  0.0646017108
H   0.9925816851 -0.5689149424  1.1605868522
H   1.0681960810 -1.0940262972 -0.9157268193
H   2.3411154636 -0.7840917956  0.1356574685
7
Iter 4 Image 7  Energy = -4188.4592794201
C   0.7920546372  0.8432345283 -0.0491096021
H   0.8780428469  1.3369019447 -1.0316349312
O   0.2606369249  1.4012723647  0.8849849246
C   1.3028968821 -0.5502009261  0.0904911856
H   1.0191953447 -0.7404603661  1.1256517409
H   0.9700850432 -1.1441953708 -0.7712503852
H   2.3783299018 -0.6561853330  0.0448058942
7
Iter 4 Image 8  Energy = -4188.6819968244
C   0.7840367852  0.8656586589 -0.0371164025
H   0.9809293880  1.3403901038 -1.0231241499
O   0.1875804579  1.4681235287  0.8223429327
C   1.3100769769 -0.5359012779  0.1153731248
H   1.0639489065 -0.9236344469  1.1059940899
H   0.8779311114 -1.1816924395 -0.6582837811
H   2.3967379442 -0.5425772870 -0.0312469938
7
Iter 5 Image 0  Energy = -4188.2527480593
C   0.8260657415  0.5508603911 -0.1261794589
H   0.4554445983  1.2417513435 -0.8784317668
O   0.5680753083  1.0246514429  1.1187434847
C   1.4411098584 -0.5873603774 -0.4363613732
H   0.9099091373  0.3932317500  1.7666320721
H   1.5916834696 -0.8592929697 -1.4741885892
H   1.8089534565 -1.2734747403  0.3237244514
7
Iter 5 Image 1  Energy = -4188.1315895638
C   0.8285158409  0.5976328664 -0.1326570833
H   0.5367476349  1.2840078390 -0.9169273551
O   0.5616825631  1.0051338566  1.1329177137
C   1.4194174633 -0.5709282316 -0.3904468642
H   0.8692360163  0.2468201038  1.6416296754
H   1.4334840225 -0.9300908789 -1.3956743744
H   1.9521580292 -1.1422087246  0.3550971085
7
Iter 5 Image 2  Energy = -4187.5645797199
C   0.8295261273  0.6316913992 -0.1342853587
H   0.6078949393  1.3238289078 -0.9597243416
O   0.5592030098  0.9901440324  1.1457448203
C   1.3738221446 -0.5661737273 -0.3060188348
H   0.8350605095  0.1145007192  1.4735335434
H   1.2798452552 -0.9938675044 -1.2661388790
H   2.1158895782 -1.0097569988  0.3408278626
7
Iter 5 Image 3  Energy = -4186.0867664090
C   0.8234371798  0.6785290471 -0.1144870847
H   0.6423831876  1.3433024655 -0.9944226075
O   0.5162011112  1.0585754751  1.1040624434
C   1.3104486776 -0.5768613942 -0.1707755817
H   0.8649955149 -0.0385574920  1.3344848985
H   1.2249316725 -1.0039808381 -1.1676356359
H   2.2188442318 -0.9706404065  0.3027123908
7
Iter 5 Image 4  Energy = -4185.5263303390
C   0.8034620626  0.7741313161 -0.0821975619
H   0.6398438274  1.3468003198 -1.0091937404
O   0.4592133044  1.2136098729  1.0217449064
C   1.2881686441 -0.6031030956 -0.0775300749
H   0.9423556156 -0.2667078695  1.2735507777
H   1.2264759528 -0.9885324344 -1.1260850429
H   2.2417221618 -0.9858312575  0.2936495777
7
Iter 5 Image 5  Energy = -4186.7412591001
C   0.8064319558  0.8144398698 -0.0658982000
H   0.6804587522  1.3476575289 -1.0213528541
O   0.4080911372  1.2982481424  0.9755773721
C   1.2776359611 -0.5944170719  0.0212595843
H   0.9693859025 -0.4356211604  1.1816758036
H   1.1651327519 -1.0312510649 -1.0403199552
H   2.2941051150 -0.9086893884  0.2429970803
7
Iter 5 Image 6  Energy = -4187.7815595588
C   0.8041594199  0.8323603257 -0.0541271013
H   0.7550487047  1.3458974980 -1.0356466999
O   0.3478533407  1.3541715554  0.9392221361
C   1.2982214075 -0.5767982944  0.0596113223
H   0.9741361914 -0.5839796091  1.1335831363
H   1.0715459760 -1.0859438249 -0.9097255754
H   2.3502765474 -0.7953408149  0.1610216044
7
Iter 5 Image 7  Energy = -4188.4871742150
C   0.7942710922  0.8480727296 -0.0471358389
H   0.8643378246  1.3394293428 -1.0371078111
O   0.2712096603  1.4021655814  0.8881636345
C   1.3105110881 -0.5466999520  0.0859868158
H   1.0050981731 -0.7489283998  1.1117834712
H   0.9690236145 -1.1440318613 -0.7658483389
H   2.3867901361 -0.6596406009  0.0580968968
7
Iter 5 Image 8  Energy = -4188.6819968244
C   0.7840367852  0.8656586589 -0.0371164025
H   0.9809293880  1.3403901038 -1.0231241499
O   0.1875804579  1.4681235287  0.8223429327
C   1.3100769769 -0.5359012779  0.1153731248
H   1.0639489065 -0.9236344469  1.1059940899
H   0.8779311114 -1.1816924395 -0.6582837811
H   2.3967379442 -0.5425772870 -0.0312469938
7
Iter 6 Image 0  Energy = -4188.2527480593
C   0.8260657415  0.5508603911 -0.1261794589
H   0.4554445983  1.2417513435 -0.8784317668
O   0.5680753083  1.0246514429  1.1187434847
C   1.4411098584 -0.5873603774 -0.4363613732
H   0.9099091373  0.3932317500  1.7666320721
H   1.5916834696 -0.8592929697 -1.4741885892
H   1.8089534565 -1.2734747403  0.3237244514
7
Iter 6 Image 1  Energy = -4188.1458458772
C   0.8372353955  0.5875482244 -0.1397931082
H   0.5353721394  1.2876173489 -0.9108282931
O   0.5726105667  1.0013930124  1.1267381694
C   1.4258481252 -0.5717456368 -0.3997403697
H   0.8537948018  0.2444033511  1.6543754410
H   1.4166026647 -0.9388206297 -1.4071543654
H   1.9597778776 -1.1200288419  0.3703413489
7
Iter 6 Image 2  Energy = -4187.5776563680
C   0.8400296809  0.6193938530 -0.1464704405
H   0.5977141600  1.3220717399 -0.9449951743
O   0.5845600339  0.9943968280  1.1312542053
C   1.3832635695 -0.5664233390 -0.3120604800
H   0.8109360718  0.1028206032  1.4702709592
H   1.2555775164 -1.0031807224 -1.2672492561
H   2.1291605346 -0.9787121356  0.3631890003
7
Iter 6 Image 3  Energy = -4186.1931494123
C   0.8357889943  0.6691620984 -0.1295032666
H   0.6226083812  1.3427206302 -0.9821659334
O   0.5492478780  1.0457843004  1.1004737480
C   1.3164611222 -0.5776858097 -0.1746420349
H   0.8342534983 -0.0347268192  1.3016415343
H   1.2147226904 -0.9966292902 -1.1513495499
H   2.2281590119 -0.9582582425  0.3294843504
7
Iter 6 Image 4  Energy = -4185.6152328274
C   0.8225065283  0.7653930209 -0.0859917899
H   0.6159068283  1.3564104903 -1.0033030660
O   0.4995613169  1.2015736699  1.0262241039
C   1.2874459111 -0.5964332905 -0.0770540221
H   0.9074353304 -0.2823919196  1.2230272080
H   1.2173673554 -0.9803106608 -1.1095135427
H   2.2510182952 -0.9738744554  0.3205499556
7
Iter 6 Image 5  Energy = -4186.8901412508
C   0.8203518810  0.8208200338 -0.0653311867
H   0.6417979254  1.3548457526 -1.0191674291
O   0.4498635515  1.2980429775  0.9823198705
C   1.2812936553 -0.5878156914  0.0175267211
H   0.9377996355 -0.4602940754  1.1169736886
H   1.1741908479 -1.0116093622 -1.0226118013
H   2.2959440711 -0.9236227611  0.2842289829
7
Iter 6 Image 6  Energy = -4187.8942334673
C   0.8173489190  0.8424868343 -0.0574972087
H   0.7157789947  1.3513335817 -1.0364714380
O   0.3806528087  1.3626877537  0.9453753517
C   1.3087709660 -0.5663422162  0.0497728264
H   0.9406293127 -0.6145527047  1.0903113259
H   1.0767926872 -1.0733117844 -0.8998942117
H   2.3612678993 -0.8119346309  0.2023421741
7
Iter 6 Image 7  Energy = -4188.5246586224
C   0.8005769889  0.8553501189 -0.0489854538
H   0.8410672199  1.3427141529 -1.0429479737
O   0.2884535971  1.4066134840  0.8945319746
C   1.3212048753 -0.5397675922  0.0803288547
H   0.9816969130 -0.7667194659  1.0882322840
H   0.9674161794 -1.1435327347 -0.7574539427
H   2.4008258209 -0.6642911232  0.0802330885
7
Iter 6 Image 8  Energy = -4188.6819968244
C   0.7840367852  0.8656586589 -0.0371164025
H   0.9809293880  1.3403901038 -1.0231241499
O   0.1875804579  1.4681235287  0.8223429327
C   1.3100769769 -0.5359012779  0.1153731248
H   1.0639489065 -0.9236344469  1.1059940899
H   0.8779311114 -1.1816924395 -0.6582837811
H   2.3967379442 -0.5425772870 -0.0312469938
7
Iter 7 Image 0  Energy = -4188.2527480593
C   0.8260657415  0.5508603911 -0.1261794589
H   0.4554445983  1.2417513435 -0.8784317668
O   0.5680753083  1.0246514429  1.1187434847
C   1.4411098584 -0.5873603774 -0.4363613732
H   0.9099091373  0.3932317500  1.7666320721
H   1.5916834696 -0.8592929697 -1.4741885892
H   1.8089534565 -1.2734747403  0.3237244514
7
Iter 7 Image 1  Energy = -4188.1359946302
C   0.8475029285  0.5802491613 -0.1467646846
H   0.5302612183  1.2867092507 -0.8979462684
O   0.5936805943  1.0008628215  1.1131164377
C   1.4391428996 -0.5768036764 -0.4165310972
H   0.8278064619  0.2389734765  1.6750676104
H   1.3945566920 -0.9545813209 -1.4196586810
H   1.9682907767 -1.0850428933  0.3866555243
7
Iter 7 Image 2  Energy = -4187.5804137683
C   0.8526979937  0.6199680398 -0.1553668597
H   0.5692826402  1.3156604324 -0.9289111851
O   0.6314491015  0.9966306857  1.1109269400
C   1.4056057596 -0.5798313227 -0.3310666199
H   0.7698132431  0.0932068396  1.4587983290
H   1.2323487250 -1.0145223051 -1.2562182259
H   2.1400440942 -0.9407455280  0.3957764721
7
Iter 7 Image 3  Energy = -4186.3190755716
C   0.8599917481  0.6667908090 -0.1462189514
H   0.5828222079  1.3408551741 -0.9659523132
O   0.6026545752  1.0356824850  1.0929907302
C   1.3427577514 -0.5724326575 -0.1869703602
H   0.7823013026 -0.0441534346  1.2725345496
H   1.2081986425 -0.9967701325 -1.1445176377
H   2.2225153508 -0.9396053463  0.3720728103
7
Iter 7 Image 4  Energy = -4185.7722869685
C   0.8483146242  0.7801981811 -0.1013139274
H   0.5859927963  1.3572336152 -0.9775850153
O   0.5756175922  1.1826915453  1.0324838968
C   1.2925622190 -0.5951806885 -0.0828064751
H   0.8418887415 -0.3156800858  1.1585029697
H   1.1986703564 -0.9848608575 -1.0946628143
H   2.2581952293 -0.9340348476  0.3593202430
7
Iter 7 Image 5  Energy = -4187.1690577886
C   0.8485867446  0.8331876608 -0.0704417543
H   0.5887070605  1.3609976127 -1.0044247219
O   0.5259929540  1.3031030866  0.9962632080
C   1.3050630151 -0.5698353190 -0.0126743438
H   0.8597110052 -0.5189138050  1.0406383179
H   1.1725313489 -0.9962871835 -0.9966648515
H   2.3006494221 -0.9218851617  0.3412429927
7
Iter 7 Image 6  Energy = -4188.0130288324
C   0.8347335839  0.8647753641 -0.0415164333
H   0.6492359482  1.3590814774 -1.0355717637
O   0.4532049139  1.3741097535  0.9428857496
C   1.3405014061 -0.5436665548  0.0302001601
H   0.8704296954 -0.6759996182  1.0155767903
H   1.0860918310 -1.0551984093 -0.8885713280
H   2.3670442081 -0.8327351591  0.2709356626
7
Iter 7 Image 7  Energy = -4188.5529275259
C   0.8079173511  0.8716441244 -0.0432678567
H   0.8009729864  1.3482168602 -1.0505475796
O   0.3258495628  1.4158329660  0.8945208147
C   1.3398608281 -0.5286114193  0.0735146077
H   0.9405168176 -0.8067292754  1.0462495289
H   0.9659309556 -1.1420566344 -0.7447868445
H   2.4201931066 -0.6679297882  0.1182561605
7
Iter 7 Image 8  Energy = -4188.6819968244
C   0.7840367852  0.8656586589 -0.0371164025
H   0.9809293880  1.3403901038 -1.0231241499
O   0.1875804579  1.4681235287  0.8223429327
C   1.3100769769 -0.5359012779  0.1153731248
H   1.0639489065 -0.9236344469  1.1059940899
H   0.8779311114 -1.1816924395 -0.6582837811
H   2.3967379442 -0.5425772870 -0.0312469938
7
Iter 8 Image 0  Energy = -4188.2527480593
C   0.8260657415  0.5508603911 -0.1261794589
H   0.4554445983  1.2417513435 -0.8784317668
O   0.5680753083  1.0246514429  1.1187434847
C   1.4411098584 -0.5873603774 -0.4363613732
H   0.9099091373  0.3932317500  1.7666320721
H   1.5916834696 -0.8592929697 -1.4741885892
H   1.8089534565 -1.2734747403  0.3237244514
7
Iter 8 Image 1  Energy = -4188.1196967980
C   0.8588300891  0.5689499953 -0.1520527244
H   0.5224819733  1.2833837907 -0.8884245760
O   0.6150226644  0.9980021992  1.1089698908
C   1.4456535889 -0.5717826918 -0.4264863834
H   0.8040577832  0.2416003339  1.6856185675
H   1.3820015945 -0.9694000288 -1.4277411527
H   1.9731938789 -1.0603867824  0.3940552337
7
Iter 8 Image 2  Energy = -4187.5850527084
C   0.8722907260  0.6084464004 -0.1683283089
H   0.5379796261  1.3077326289 -0.9192056513
O   0.6697556646  1.0026279742  1.1003622204
C   1.4199170186 -0.5639473127 -0.3302265518
H   0.7378089448  0.0867904589  1.4523110835
H   1.2247453950 -1.0306135220 -1.2586649264
H   2.1387441756 -0.9206697618  0.4176910104
7
Iter 8 Image 3  Energy = -4186.4201243988
C   0.8788009741  0.6849144137 -0.1619941337
H   0.5491526557  1.3333993701 -0.9491938882
O   0.6461003858  1.0312517496  1.0917906921
C   1.3719039040 -0.5723623761 -0.2101017101
H   0.7386796486 -0.0601247059  1.2635496414
H   1.2104746779 -1.0034431569 -1.1451556924
H   2.2061293326 -0.9232683819  0.4050439014
7
Iter 8 Image 4  Energy = -4185.9366226664
C   0.8750698887  0.7830614679 -0.1027739987
H   0.5647779317  1.3591627090 -0.9594631786
O   0.6414111587  1.1765282297  1.0374133175
C   1.2990961351 -0.5898582742 -0.0869104262
H   0.7851027335 -0.3476422739  1.1162427142
H   1.1823111003 -1.0043634450 -1.0934392046
H   2.2534726071 -0.8865215375  0.3828696809
7
Iter 8 Image 5  Energy = -4187.4083855322
C   0.8718899422  0.8459756321 -0.0691831958
H   0.5539566966  1.3625360635 -0.9868641405
O   0.5967839545  1.3070740911  1.0060315531
C   1.3329630627 -0.5536401582 -0.0318528583
H   0.7844113148 -0.5719824901  0.9866554037
H   1.1614551445 -0.9989270627 -0.9888566479
H   2.2997814229 -0.9006691740  0.3780087385
7
Iter 8 Image 6  Energy = -4188.1309004447
C   0.8643014007  0.8682734323 -0.0712881078
H   0.5977152145  1.3596119103 -1.0254782486
O   0.5057644109  1.4076783709  0.9807946807
C   1.3655025762 -0.5233966347  0.0180622861
H   0.8047344335 -0.7367978909  0.9501512795
H   1.0924746465 -1.0437329720 -0.8834846170
H   2.3707489013 -0.8412693411  0.3251815790
7
Iter 8 Image 7  Energy = -4188.5681827685
C   0.8234656143  0.8751412425 -0.0572926743
H   0.7674150557  1.3513200399 -1.0530376775
O   0.3515799231  1.4376734348  0.9099085903
C   1.3518940808 -0.5205931437  0.0710166768
H   0.9061326080 -0.8458566706  1.0100399841
H   0.9668679681 -1.1394702330 -0.7367276651
H   2.4338863709 -0.6678478435  0.1500315968
7
Iter 8 Image 8  Energy = -4188.6819968244
C   0.7840367852  0.8656586589 -0.0371164025
H   0.9809293880  1.3403901038 -1.0231241499
O   0.1875804579  1.4681235287  0.8223429327
C   1.3100769769 -0.5359012779  0.1153731248
H   1.0639489065 -0.9236344469  1.1059940899
H   0.8779311114 -1.1816924395 -0.6582837811
H   2.3967379442 -0.5425772870 -0.0312469938
7
Iter 9 Image 0  Energy = -4188.2527480593
C   0.8260657415  0.5508603911 -0.1261794589
H   0.4554445983  1.2417513435 -0.8784317668
O   0.5680753083  1.0246514429  1.1187434847
C   1.4411098584 -0.5873603774 -0.4363613732
H   0.9099091373  0.3932317500  1.7666320721
H   1.5916834696 -0.8592929697 -1.4741885892
H   1.8089534565 -1.2734747403  0.3237244514
7
Iter 9 Image 1  Energy = -4188.1392552575
C   0.8555793437  0.5744003222 -0.1486746646
H   0.5194931661  1.2794103504 -0.8899026276
O   0.6167007571  0.9987543396  1.1137936879
C   1.4445322154 -0.5713196669 -0.4237009441
H   0.8051551747  0.2457906094  1.6792459789
H   1.3900771973 -0.9690367963 -1.4221844539
H   1.9697037176 -1.0676323417  0.3853618797
7
Iter 9 Image 2  Energy = -4187.6400718561
C   0.8691344673  0.6218173998 -0.1669209303
H   0.5330325717  1.3035265969 -0.9246355959
O   0.6665313756  1.0014446956  1.1088851664
C   1.4223027441 -0.5637258802 -0.3277093591
H   0.7425318458  0.0930266975  1.4529867655
H   1.2407455635 -1.0305194196 -1.2585998797
H   2.1269629834 -0.9352032142  0.4099327122
7
Iter 9 Image 3  Energy = -4186.4527085146
C   0.8809230350  0.6935264061 -0.1549104567
H   0.5508127478  1.3326795969 -0.9523536877
O   0.6406210040  1.0354408186  1.0974985916
C   1.3729760899 -0.5672605552 -0.2175498084
H   0.7428250654 -0.0681494322  1.2790279473
H   1.2179078811 -1.0137302717 -1.1558700236
H   2.1951757531 -0.9221396568  0.3980962487
7
Iter 9 Image 4  Energy = -4185.9661383203
C   0.8747687307  0.7827595516 -0.0967515462
H   0.5723951101  1.3566323173 -0.9610961958
O   0.6384314463  1.1875342103  1.0385099910
C   1.3007577830 -0.5923304141 -0.0889342982
H   0.7887217033 -0.3491880532  1.1352371678
H   1.1839731711 -1.0194203012 -1.1043180944
H   2.2421936139 -0.8756204328  0.3712918809
7
Iter 9 Image 5  Energy = -4187.4511766753
C   0.8721313563  0.8435145355 -0.0670912533
H   0.5686317856  1.3587017053 -0.9830770728
O   0.5962103562  1.3113683843  1.0083897914
C   1.3358608760 -0.5545636818 -0.0259401716
H   0.7812502467 -0.5731620825  1.0021880164
H   1.1511917783 -1.0165817049 -1.0021930619
H   2.2959651425 -0.8789102643  0.3616626051
7
Iter 9 Image 6  Energy = -4188.1992592534
C   0.8606009925  0.8735020201 -0.0606266073
H   0.6067502803  1.3548368964 -1.0204217868
O   0.5102729865  1.4077682017  0.9737611066
C   1.3623525061 -0.5270091288  0.0239340596
H   0.8037743869 -0.7395211104  0.9513443396
H   1.0915114324 -1.0498521884 -0.8900083465
H   2.3659789968 -0.8293578093  0.3159560878
7
Iter 9 Image 7  Energy = -4188.5823854974
C   0.8216203419  0.8748230633 -0.0542779651
H   0.7710579980  1.3497548329 -1.0502137525
O   0.3532019119  1.4405564123  0.9056247658
C   1.3472878339 -0.5241401581  0.0746747893
H   0.9096336566 -0.8483351549  1.0121193895
H   0.9695885467 -1.1385121276 -0.7406789032
H   2.4288513301 -0.6637800402  0.1466905065
7
Iter 9 Image 8  Energy = -4188.6819968244
C   0.7840367852  0.8656586589 -0.0371164025
H   0.9809293880  1.3403901038 -1.0231241499
O   0.1875804579  1.4681235287  0.8223429327
C   1.3100769769 -0.5359012779  0.1153731248
H   1.0639489065 -0.9236344469  1.1059940899
H   0.8779311114 -1.1816924395 -0.6582837811
H   2.3967379442 -0.5425772870 -0.0312469938
7
Iter 10 Image 0  Energy = -4188.2527480593
C   0.8260657415  0.5508603911 -0.1261794589
H   0.4554445983  1.2417513435 -0.8784317668
O   0.5680753083  1.0246514429  1.1187434847
C   1.4411098584 -0.5873603774 -0.4363613732
H   0.9099091373  0.3932317500  1.7666320721
H   1.5916834696 -0.8592929697 -1.4741885892
H   1.8089534565 -1.2734747403  0.3237244514
7
Iter 10 Image 1  Energy = -4188.1577434859
C   0.8508997707  0.5833435924 -0.1419489439
H   0.5107819769  1.2728686092 -0.8935400026
O   0.6215544796  1.0077973492  1.1187615060
C   1.4424235534 -0.5697597184 -0.4201433227
H   0.8055085555  0.2473792821  1.6718500957
H   1.4046289068 -0.9703508520 -1.4124529838
H   1.9654443263 -1.0809114496  0.3714125073
7
Iter 10 Image 2  Energy = -4187.6918379685
C   0.8706207499  0.6394987735 -0.1601478821
H   0.5195197946  1.2982243008 -0.9372013597
O   0.6633346947  1.0061050837  1.1231919814
C   1.4218539893 -0.5560833313 -0.3301323934
H   0.7466639714  0.0958717397  1.4534138228
H   1.2713863514 -1.0332184836 -1.2563105744
H   2.1078619992 -0.9600311869  0.4011252831
7
Iter 10 Image 3  Energy = -4186.5054914302
C   0.8895451933  0.7015992844 -0.1400733312
H   0.5534783785  1.3357759373 -0.9591139799
O   0.6393265220  1.0361729056  1.1146641812
C   1.3675483371 -0.5555575330 -0.2334448067
H   0.7443297218 -0.0811515351  1.2972399529
H   1.2294180505 -1.0366977066 -1.1725153692
H   2.1775953657 -0.9097744636  0.3871821741
7
Iter 10 Image 4  Energy = -4185.9895815721
C   0.8767919768  0.7838864537 -0.0888945440
H   0.5825965864  1.3548074485 -0.9667753380
O   0.6407739011  1.2100007227  1.0463879437
C   1.2936375072 -0.6012371507 -0.1001370253
H   0.7928265558 -0.3555987049  1.1669269777
H   1.1913643149 -1.0477026353 -1.1189224333
H   2.2232507266 -0.8537892482  0.3553533361
7
Iter 10 Image 5  Energy = -4187.5145799240
C   0.8778502170  0.8371849611 -0.0575951146
H   0.5926800006  1.3546944751 -0.9797432555
O   0.6046701711  1.3233523381  1.0176730902
C   1.3215650892 -0.5669905508 -0.0242338368
H   0.7750859101 -0.5765211901  1.0178559896
H   1.1357073215 -1.0469778489 -1.0170776827
H   2.2936828368 -0.8343752982  0.3370596713
7
Iter 10 Image 6  Energy = -4188.2689491829
C   0.8607085368  0.8774686922 -0.0436680106
H   0.6189979673  1.3467174108 -1.0111994455
O   0.5276169320  1.4156139542  0.9722153615
C   1.3486355924 -0.5364557882  0.0268407570
H   0.7919668677 -0.7499884783  0.9457700265
H   1.0925099244 -1.0587942879 -0.9015781028
H   2.3608057520 -0.8041946138  0.3055582805
7
Iter 10 Image 7  Energy = -4188.6015697888
C   0.8189665631  0.8741270971 -0.0475059921
H   0.7753427547  1.3463705527 -1.0466319182
O   0.3605973710  1.4502566763  0.8998359797
C   1.3388980484 -0.5300364238  0.0787145069
H   0.9109723940 -0.8598792233  1.0138388084
H   0.9759367973 -1.1362477921 -0.7481379225
H   2.4205276908 -0.6542240630  0.1438253670
7
Iter 10 Image 8  Energy = -4188.6819968244
C   0.7840367852  0.8656586589 -0.0371164025
H   0.9809293880  1.3403901038 -1.0231241499
O   0.1875804579  1.4681235287  0.8223429327
C   1.3100769769 -0.5359012779  0.1153731248
H   1.0639489065 -0.9236344469  1.1059940899
H   0.8779311114 -1.1816924395 -0.6582837811
H   2.3967379442 -0.5425772870 -0.0312469938
7
Iter 11 Image 0  Energy = -4188.2527480593
C   0.8260657415  0.5508603911 -0.1261794589
H   0.4554445983  1.2417513435 -0.8784317668
O   0.5680753083  1.0246514429  1.1187434847
C   1.4411098584 -0.5873603774 -0.4363613732
H   0.9099091373  0.3932317500  1.7666320721
H   1.5916834696 -0.8592929697 -1.4741885892
H   1.8089534565 -1.2734747403  0.3237244514
7
Iter 11 Image 1  Energy = -4188.1682156494
C   0.8512322498  0.5855109782 -0.1412506318
H   0.4986556940  1.2677896257 -0.8969432984
O   0.6298912359  1.0191845409  1.1248854211
C   1.4389977347 -0.5630851119 -0.4166911172
H   0.8013485781  0.2474497771  1.6675286215
H   1.4161760358 -0.9745969903 -1.4070266523
H   1.9649400435 -1.0918860066  0.3634365224
7
Iter 11 Image 2  Energy = -4187.7169412693
C   0.8744286367  0.6561206747 -0.1573438826
H   0.5054086863  1.2928247321 -0.9434206633
O   0.6667930447  1.0099937868  1.1354466796
C   1.4256676447 -0.5482173356 -0.3348320069
H   0.7424820014  0.0941786010  1.4544634070
H   1.2967147747 -1.0415532630 -1.2585279479
H   2.0897467662 -0.9729802773  0.3981532898
7
Iter 11 Image 3  Energy = -4186.5502743593
C   0.8932746617  0.7124836049 -0.1395891351
H   0.5575127117  1.3381119945 -0.9562093744
O   0.6535256584  1.0302875010  1.1341117525
C   1.3577795786 -0.5547514201 -0.2498847229
H   0.7379718103 -0.0899531980  1.3043193038
H   1.2373650772 -1.0592954581 -1.1809313904
H   2.1638120655 -0.8865161306  0.3821224329
7
Iter 11 Image 4  Energy = -4186.0160047358
C   0.8768110899  0.7920260604 -0.0771925888
H   0.5859925429  1.3562850146 -0.9712524616
O   0.6606825332  1.2191378863  1.0456638927
C   1.2715057452 -0.6039758090 -0.1121678096
H   0.7909641721 -0.3654430858  1.1840978122
H   1.2030005091 -1.0736928157 -1.1262617864
H   2.2122849865 -0.8339703591  0.3510518669
7
Iter 11 Image 5  Energy = -4187.6083116999
C   0.8809021765  0.8393339002 -0.0461091784
H   0.6092221626  1.3533332272 -0.9768172694
O   0.6316212879  1.3341095236  1.0247465674
C   1.2924856094 -0.5820866934 -0.0246742403
H   0.7668058009 -0.5874614575  1.0171146249
H   1.1276986240 -1.0738152443 -1.0234072607
H   2.2925058947 -0.7930463736  0.3230856460
7
Iter 11 Image 6  Energy = -4188.3498550376
C   0.8655652091  0.8776138474 -0.0298270359
H   0.6249724422  1.3410651391 -1.0042079600
O   0.5585407805  1.4327045074  0.9818878963
C   1.3335659245 -0.5454980693  0.0232857296
H   0.7668960105 -0.7736805839  0.9295534669
H   1.0935535159 -1.0671578994 -0.9102756584
H   2.3581476779 -0.7746800493  0.3035224306
7
Iter 11 Image 7  Energy = -4188.6201489291
C   0.8185394713  0.8731742346 -0.0440331828
H   0.7752154424  1.3417992141 -1.0450607278
O   0.3737549791  1.4662822713  0.9012053436
C   1.3319541545 -0.5333196214  0.0800918579
H   0.9040779318 -0.8807013860  1.0106385131
H   0.9829940505 -1.1340954189 -0.7557971528
H   2.4147055890 -0.6427724724  0.1468941775
7
Iter 11 Image 8  Energy = -4188.6819968244
C   0.7840367852  0.8656586589 -0.0371164025
H   0.9809293880  1.3403901038 -1.0231241499
O   0.1875804579  1.4681235287  0.8223429327
C   1.3100769769 -0.5359012779  0.1153731248
H   1.0639489065 -0.9236344469  1.1059940899
H   0.8779311114 -1.1816924395 -0.6582837811
H   2.3967379442 -0.5425772870 -0.0312469938
7
Iter 12 Image 0  Energy = -4188.2527480593
C   0.8260657415  0.5508603911 -0.1261794589
H   0.4554445983  1.2417513435 -0.8784317668
O   0.5680753083  1.0246514429  1.1187434847
C   1.4411098584 -0.5873603774 -0.4363613732
H   0.9099091373  0.3932317500  1.7666320721
H   1.5916834696 -0.8592929697 -1.4741885892
H   1.8089534565 -1.2734747403  0.3237244514
7
Iter 12 Image 1  Energy = -4188.1636189839
C   0.8487366611  0.5995595933 -0.1395835129
H   0.4760482181  1.2596286317 -0.8995369489
O   0.6508606019  1.0343039658  1.1284367901
C   1.4439795942 -0.5670377027 -0.4173748787
H   0.7868510578  0.2472442023  1.6657335936
H   1.4285466727 -0.9831709396 -1.4012454162
H   1.9662187668 -1.1001609376  0.3575092564
7
Iter 12 Image 2  Energy = -4187.7491639724
C   0.8914762209  0.6587024290 -0.1568372934
H   0.4815727213  1.2895297186 -0.9443091519
O   0.6841688455  1.0138446538  1.1490535279
C   1.4281195145 -0.5243203327 -0.3513332037
H   0.7227423726  0.0878003749  1.4574507725
H   1.3268804598 -1.0616771174 -1.2661877132
H   2.0662814289 -0.9735127725  0.4061019478
7
Iter 12 Image 3  Energy = -4186.6195621362
C   0.9016340473  0.7096258256 -0.1324103639
H   0.5558044988  1.3525059259 -0.9502120897
O   0.7009353930  1.0092209660  1.1470382191
C   1.3286248304 -0.5471921846 -0.2728913684
H   0.7184860572 -0.0959862023  1.3022535023
H   1.2466156269 -1.0972992160 -1.1871652299
H   2.1491411069 -0.8405082083  0.3873262828
7
Iter 12 Image 4  Energy = -4186.0654317907
C   0.8793890469  0.7992800276 -0.0983511619
H   0.5817839161  1.3639578440 -0.9696469957
O   0.7116182268  1.2317067000  1.0686054069
C   1.2405080918 -0.6053001945 -0.1185160956
H   0.7759640168 -0.3918207698  1.1831778425
H   1.2222678895 -1.1089127262 -1.1268590914
H   2.1897104051 -0.7985439723  0.3555290438
7
Iter 12 Image 5  Energy = -4187.7764204761
C   0.8853830621  0.8411361330 -0.0441142272
H   0.6205636151  1.3576627387 -0.9726224476
O   0.6983052123  1.3574307367  1.0466998788
C   1.2522834132 -0.5972455559 -0.0279591726
H   0.7418793531 -0.6244140770  0.9950711212
H   1.1236232535 -1.1100600351 -1.0185692152
H   2.2792036621 -0.7341430690  0.3154329974
7
Iter 12 Image 6  Energy = -4188.4822080156
C   0.8761320029  0.8790118462 -0.0180020256
H   0.6241025394  1.3346510609 -0.9922068012
O   0.6311105434  1.4691982020  1.0094881559
C   1.3116035512 -0.5553551292  0.0159076302
H   0.7102035217 -0.8329837418  0.8851825974
H   1.0954528950 -1.0795964826 -0.9201053990
H   2.3526364970 -0.7245588506  0.3136747156
7
Iter 12 Image 7  Energy = -4188.6442016086
C   0.8173899623  0.8776620026 -0.0354492197
H   0.7677621909  1.3328196962 -1.0456844230
O   0.4077409993  1.4952020155  0.9055444824
C   1.3224713836 -0.5359473198  0.0815080660
H   0.8816495870 -0.9269178043  0.9943236782
H   0.9947044780 -1.1309426459 -0.7673808724
H   2.4095230203 -0.6215091211  0.1610771186
7
Iter 12 Image 8  Energy = -4188.6819968244
C   0.7840367852  0.8656586589 -0.0371164025
H   0.9809293880  1.3403901038 -1.0231241499
O   0.1875804579  1.4681235287  0.8223429327
C   1.3100769769 -0.5359012779  0.1153731248
H   1.0639489065 -0.9236344469  1.1059940899
H   0.8779311114 -1.1816924395 -0.6582837811
H   2.3967379442 -0.5425772870 -0.0312469938
7
Iter 13 Image 0  Energy = -4188.2527480593
C   0.8260657415  0.5508603911 -0.1261794589
H   0.4554445983  1.2417513435 -0.8784317668
O   0.5680753083  1.0246514429  1.1187434847
C   1.4411098584 -0.5873603774 -0.4363613732
H   0.9099091373  0.3932317500  1.7666320721
H   1.5916834696 -0.8592929697 -1.4741885892
H   1.8089534565 -1.2734747403  0.3237244514
7
Iter 13 Image 1  Energy = -4188.1731247029
C   0.8531197921  0.5923635494 -0.1410440648
H   0.4725619478  1.2611370311 -0.9006104401
O   0.6528000923  1.0357315153  1.1274639164
C   1.4417067751 -0.5615940378 -0.4162808343
H   0.7849570946  0.2470107125  1.6666428667
H   1.4284555432 -0.9836618759 -1.4033342993
H   1.9676403277 -1.1006200786  0.3611017417
7
Iter 13 Image 2  Energy = -4187.7652526072
C   0.8892583604  0.6578956139 -0.1573932041
H   0.4847363883  1.2921702858 -0.9385078157
O   0.6876211979  1.0101416399  1.1463767020
C   1.4302114512 -0.5298775647 -0.3570939440
H   0.7190092984  0.0875971686  1.4604956767
H   1.3254360147 -1.0632516396 -1.2683472603
H   2.0649688533 -0.9643085528  0.4084087353
7
Iter 13 Image 3  Energy = -4186.6577016956
C   0.8940510784  0.7093487882 -0.1427631689
H   0.5577807211  1.3566423726 -0.9455687685
O   0.7102192783  1.0048681786  1.1473369784
C   1.3251733746 -0.5582920313 -0.2700856962
H   0.7198415332 -0.0898864443  1.2982725225
H   1.2461219172 -1.0976879335 -1.1811235842
H   2.1480536628 -0.8346260188  0.3878706805
7
Iter 13 Image 4  Energy = -4186.1230511314
C   0.8754922335  0.7990535081 -0.0893180149
H   0.5775838378  1.3707638322 -0.9714265431
O   0.7200437152  1.2219517873  1.0579875622
C   1.2376367132 -0.6045675934 -0.1161839844
H   0.7767679951 -0.3908313156  1.1721785028
H   1.2266462354 -1.1054895705 -1.1193225548
H   2.1870708633 -0.8005137358  0.3600239857
7
Iter 13 Image 5  Energy = -4187.8141796610
C   0.8801080675  0.8437273301 -0.0405664053
H   0.6180941372  1.3620685118 -0.9755604248
O   0.7088215335  1.3559049269  1.0401803911
C   1.2489381142 -0.5948288042 -0.0294356319
H   0.7438057400 -0.6309828216  0.9909392357
H   1.1294939959 -1.1087445241 -1.0092046766
H   2.2719799850 -0.7367777443  0.3175864527
7
Iter 13 Image 6  Energy = -4188.4997481129
C   0.8742606233  0.8795980497 -0.0158098560
H   0.6258897415  1.3359616626 -0.9921709141
O   0.6430186437  1.4707360491  1.0100514760
C   1.3066451798 -0.5554842366  0.0159970083
H   0.7065899544 -0.8414911206  0.8809396016
H   1.0955268196 -1.0810791345 -0.9187202026
H   2.3493105899 -0.7178743634  0.3136517617
7
Iter 13 Image 7  Energy = -4188.6486271641
C   0.8172469639  0.8771307147 -0.0369418038
H   0.7684283541  1.3302124451 -1.0464841043
O   0.4116556425  1.4996771425  0.9100596023
C   1.3203824953 -0.5359913595  0.0818800214
H   0.8790550891 -0.9323296374  0.9921144440
H   0.9960777630 -1.1307423916 -0.7692420821
H   2.4083953147 -0.6175900889  0.1625527538
7
Iter 13 Image 8  Energy = -4188.6819968244
C   0.7840367852  0.8656586589 -0.0371164025
H   0.9809293880  1.3403901038 -1.0231241499
O   0.1875804579  1.4681235287  0.8223429327
C   1.3100769769 -0.5359012779  0.1153731248
H   1.0639489065 -0.9236344469  1.1059940899
H   0.8779311114 -1.1816924395 -0.6582837811
H   2.3967379442 -0.5425772870 -0.0312469938
7
Iter 14 Image 0  Energy = -4188.2527480593
C   0.8260657415  0.5508603911 -0.1261794589
H   0.4554445983  1.2417513435 -0.8784317668
O   0.5680753083  1.0246514429  1.1187434847
C   1.4411098584 -0.5873603774 -0.4363613732
H   0.9099091373  0.3932317500  1.7666320721
H   1.5916834696 -0.8592929697 -1.4741885892
H   1.8089534565 -1.2734747403  0.3237244514
7
Iter 14 Image 1  Energy = -4188.1726616344
C   0.8563196470  0.5884868765 -0.1441087401
H   0.4683256733  1.2619022099 -0.8999124393
O   0.6571096534  1.0349554134  1.1251058868
C   1.4430361548 -0.5612057856 -0.4164545478
H   0.7806094314  0.2478511348  1.6681318797
H   1.4266550917 -0.9838369365 -1.4058692661
H   1.9691859213 -1.0977860943  0.3670461159
7
Iter 14 Image 2  Energy = -4187.7791899315
C   0.8865079975  0.6511573243 -0.1607769611
H   0.4902611828  1.2981787685 -0.9273855425
O   0.6952240130  1.0034842415  1.1406592887
C   1.4323480774 -0.5366162711 -0.3640364293
H   0.7121245968  0.0875578263  1.4657502324
H   1.3207238616 -1.0669073048 -1.2735843366
H   2.0640518369 -0.9464876370  0.4133126474
7
Iter 14 Image 3  Energy = -4186.6849846190
C   0.8842775341  0.7016856525 -0.1554752313
H   0.5575675265  1.3662160018 -0.9398975184
O   0.7264845006  0.9986983185  1.1420822467
C   1.3187725130 -0.5700604386 -0.2632893498
H   0.7225279068 -0.0802476182  1.2905677756
H   1.2454341244 -1.0987144859 -1.1715488854
H   2.1461774699 -0.8272105217  0.3914999368
7
Iter 14 Image 4  Energy = -4186.1655067599
C   0.8701787058  0.7967522188 -0.0891503399
H   0.5698461865  1.3814938436 -0.9699242306
O   0.7339662437  1.2087226906  1.0506098387
C   1.2354307542 -0.6045640523 -0.1102585416
H   0.7763624383 -0.3901370311  1.1489588896
H   1.2322491792 -1.0985352796 -1.1061260806
H   2.1832080853 -0.8033654685  0.3698294255
7
Iter 14 Image 5  Energy = -4187.8604439667
C   0.8731676042  0.8451977942 -0.0447211305
H   0.6106201252  1.3699560139 -0.9789327099
O   0.7264296540  1.3559947836  1.0356487707
C   1.2477432918 -0.5872252409 -0.0308493009
H   0.7441032391 -0.6443043847  0.9815649049
H   1.1392662766 -1.1050992637 -0.9933032717
H   2.2599113879 -0.7441528259  0.3245316906
7
Iter 14 Image 6  Energy = -4188.5266245624
C   0.8716765924  0.8801357830 -0.0152104028
H   0.6267375616  1.3391279651 -0.9921263719
O   0.6641162336  1.4740237053  1.0119887998
C   1.3005389513 -0.5536245312  0.0161414461
H   0.6999920140 -0.8579679413  0.8727656549
H   1.0959647076 -1.0826046059 -0.9151106088
H   2.3422154958 -0.7087234654  0.3154903629
7
Iter 14 Image 7  Energy = -4188.6532991996
C   0.8158151620  0.8787244260 -0.0354763960
H   0.7686104806  1.3259591242 -1.0482493841
O   0.4205691979  1.5046298518  0.9140757690
C   1.3175165466 -0.5358533191  0.0821558316
H   0.8739170047 -0.9418475163  0.9870616683
H   0.9982173338 -1.1302671231 -0.7716200701
H   2.4065958994 -0.6109786148  0.1659914123
7
Iter 14 Image 8  Energy = -4188.6819968244
C   0.7840367852  0.8656586589 -0.0371164025
H   0.9809293880  1.3403901038 -1.0231241499
O   0.1875804579  1.4681235287  0.8223429327
C   1.3100769769 -0.5359012779  0.1153731248
H   1.0639489065 -0.9236344469  1.1059940899
H   0.8779311114 -1.1816924395 -0.6582837811
H   2.3967379442 -0.5425772870 -0.0312469938
7
Iter 15 Image 0  Energy = -4188.2527480593
C   0.8260657415  0.5508603911 -0.1261794589
H   0.4554445983  1.2417513435 -0.8784317668
O   0.5680753083  1.0246514429  1.1187434847
C   1.4411098584 -0.5873603774 -0.4363613732
H   0.9099091373  0.3932317500  1.7666320721
H   1.5916834696 -0.8592929697 -1.4741885892
H   1.8089534565 -1.2734747403  0.3237244514
7
Iter 15 Image 1  Energy = -4188.1741909406
C   0.8571766766  0.5879149320 -0.1464398213
H   0.4622463565  1.2593590719 -0.8982330392
O   0.6637569070  1.0355372331  1.1237162534
C   1.4456067178 -0.5627559558 -0.4165448693
H   0.7751634665  0.2505719677  1.6678337777
H   1.4286053097 -0.9841706300 -1.4058157558
H   1.9686861400 -1.0960897928  0.3694223520
7
Iter 15 Image 2  Energy = -4187.7913344672
C   0.8822503436  0.6467953876 -0.1651655293
H   0.4926225397  1.3064519018 -0.9181200366
O   0.7048400115  0.9974092461  1.1382940151
C   1.4326993270 -0.5424647963 -0.3690831392
H   0.7069718395  0.0889806875  1.4722987473
H   1.3240694426 -1.0735426516 -1.2808922486
H   2.0577880655 -0.9332628300  0.4166071000
7
Iter 15 Image 3  Energy = -4186.7145458034
C   0.8768464463  0.6956821325 -0.1629343732
H   0.5545024351  1.3789264514 -0.9358930636
O   0.7425173770  0.9952574828  1.1382390988
C   1.3128518895 -0.5774513059 -0.2634034893
H   0.7285782478 -0.0737105895  1.2883690847
H   1.2499534886 -1.1083614542 -1.1670893556
H   2.1359917016 -0.8199757892  0.3966510945
7
Iter 15 Image 4  Energy = -4186.2058621442
C   0.8665318257  0.7928190705 -0.0974826913
H   0.5632519672  1.3933746709 -0.9651111947
O   0.7491279464  1.2059422048  1.0536977753
C   1.2306555660 -0.6089909894 -0.1063569053
H   0.7766837338 -0.3919533647  1.1279718415
H   1.2391196001 -1.1017351406 -1.0988992625
H   2.1758709561 -0.7990895170  0.3801194185
7
Iter 15 Image 5  Energy = -4187.9053246102
C   0.8691763540  0.8474923005 -0.0490215929
H   0.6052842613  1.3785630105 -0.9795356634
O   0.7488414970  1.3586975853  1.0320842173
C   1.2439069072 -0.5814770587 -0.0286576841
H   0.7396319602 -0.6599102454  0.9738522896
H   1.1449199907 -1.1116193698 -0.9846404625
H   2.2494806160 -0.7413793284  0.3298578622
7
Iter 15 Image 6  Energy = -4188.5614725670
C   0.8695097227  0.8814123631 -0.0114696817
H   0.6302244394  1.3419345139 -0.9895665566
O   0.6948921663  1.4819269346  1.0138214134
C   1.2898003348 -0.5534386047  0.0173301109
H   0.6896722432 -0.8830270480  0.8620910071
H   1.0971723878 -1.0867251575 -0.9134283781
H   2.3299702635 -0.6917160920  0.3151609741
7
Iter 15 Image 7  Energy = -4188.6605336091
C   0.8148616813  0.8779243064 -0.0336485398
H   0.7701839985  1.3194299449 -1.0484910746
O   0.4331634506  1.5148534047  0.9185783083
C   1.3112792269 -0.5373793904  0.0834726302
H   0.8684031979 -0.9569231835  0.9813312087
H   1.0029781884 -1.1283799889 -0.7766810324
H   2.4003718819 -0.5991582634  0.1693773342
7
Iter 15 Image 8  Energy = -4188.6819968244
C   0.7840367852  0.8656586589 -0.0371164025
H   0.9809293880  1.3403901038 -1.0231241499
O   0.1875804579  1.4681235287  0.8223429327
C   1.3100769769 -0.5359012779  0.1153731248
H   1.0639489065 -0.9236344469  1.1059940899
H   0.8779311114 -1.1816924395 -0.6582837811
H   2.3967379442 -0.5425772870 -0.0312469938
7
Iter 16 Image 0  Energy = -4188.2527480593
C   0.8260657415  0.5508603911 -0.1261794589
H   0.4554445983  1.2417513435 -0.8784317668
O   0.5680753083  1.0246514429  1.1187434847
C   1.4411098584 -0.5873603774 -0.4363613732
H   0.9099091373  0.3932317500  1.7666320721
H   1.5916834696 -0.8592929697 -1.4741885892
H   1.8089534565 -1.2734747403  0.3237244514
7
Iter 16 Image 1  Energy = -4188.1754757932
C   0.8574003234  0.5865860600 -0.1480623844
H   0.4534274524  1.2542069663 -0.8948283284
O   0.6737832692  1.0381163416  1.1186277594
C   1.4496360117 -0.5658977663 -0.4176941337
H   0.7671342618  0.2538777718  1.6677022835
H   1.4332893385 -0.9842101851 -1.4047777674
H   1.9665709207 -1.0923123432  0.3729714813
7
Iter 16 Image 2  Energy = -4187.8061690202
C   0.8767259666  0.6289509462 -0.1709344627
H   0.4962486685  1.3269292073 -0.9054052470
O   0.7199723599  0.9925362592  1.1335123238
C   1.4222850001 -0.5467054717 -0.3802305128
H   0.7044726917  0.0905913330  1.4856676811
H   1.3333121072 -1.0852010579 -1.2925664683
H   2.0482247807 -0.9167342765  0.4238956229
7
Iter 16 Image 3  Energy = -4186.7607887855
C   0.8677201311  0.6826532430 -0.1734111007
H   0.5465814439  1.4009294089 -0.9294514106
O   0.7620865726  0.9954627912  1.1311515638
C   1.3008278232 -0.5801840207 -0.2658867644
H   0.7461632710 -0.0632815739  1.2852572680
H   1.2609522340 -1.1289441587 -1.1638441514
H   2.1169101278 -0.8162687032  0.4101236249
7
Iter 16 Image 4  Energy = -4186.2419935858
C   0.8601874441  0.7906470621 -0.0956124508
H   0.5523507257  1.4146325168 -0.9538547355
O   0.7700320353  1.1996814952  1.0458847675
C   1.2248342290 -0.6191998345 -0.1035000024
H   0.7811016027 -0.3915647921  1.0930630008
H   1.2497270146 -1.1127692432 -1.0919261789
H   2.1630085464 -0.7910602509  0.3998846114
7
Iter 16 Image 5  Energy = -4187.9624093345
C   0.8669756710  0.8484054938 -0.0641101730
H   0.5943140610  1.3945836939 -0.9783750557
O   0.7793697434  1.3691539022  1.0322926694
C   1.2395972198 -0.5777564062 -0.0282208094
H   0.7308431365 -0.6835288964  0.9624378600
H   1.1522139131 -1.1237753364 -0.9718793012
H   2.2379278522 -0.7367155211  0.3417937958
7
Iter 16 Image 6  Energy = -4188.6030751339
C   0.8664813535  0.8803381013 -0.0120009624
H   0.6381436943  1.3482499601 -0.9846639863
O   0.7457739899  1.4994244852  1.0196788088
C   1.2675630215 -0.5540816574  0.0191818284
H   0.6767934353 -0.9267121106  0.8491383912
H   1.0994615395 -1.0935345643 -0.9100178261
H   2.3070245285 -0.6633172979  0.3126226521
7
Iter 16 Image 7  Energy = -4188.6671600661
C   0.8092081602  0.8807878896 -0.0201398099
H   0.7758908132  1.3068574847 -1.0480164275
O   0.4578314492  1.5262996814  0.9158270300
C   1.2982542571 -0.5411417943  0.0852043059
H   0.8616557404 -0.9820232823  0.9742355892
H   1.0119390747 -1.1241916611 -0.7863458532
H   2.3864621288 -0.5762214869  0.1731740007
7
Iter 16 Image 8  Energy = -4188.6819968244
C   0.7840367852  0.8656586589 -0.0371164025
H   0.9809293880  1.3403901038 -1.0231241499
O   0.1875804579  1.4681235287  0.8223429327
C   1.3100769769 -0.5359012779  0.1153731248
H   1.0639489065 -0.9236344469  1.1059940899
H   0.8779311114 -1.1816924395 -0.6582837811
H   2.3967379442 -0.5425772870 -0.0312469938
7
Iter 17 Image 0  Energy = -4188.2527480593
C   0.8260657415  0.5508603911 -0.1261794589
H   0.4554445983  1.2417513435 -0.8784317668
O   0.5680753083  1.0246514429  1.1187434847
C   1.4411098584 -0.5873603774 -0.4363613732
H   0.9099091373  0.3932317500  1.7666320721
H   1.5916834696 -0.8592929697 -1.4741885892
H   1.8089534565 -1.2734747403  0.3237244514
7
Iter 17 Image 1  Energy = -4188.1757097116
C   0.8563291493  0.5870481782 -0.1476726265
H   0.4541472161  1.2534183522 -0.8945107603
O   0.6733595286  1.0382957140  1.1187614929
C   1.4494592761 -0.5663299599 -0.4178105632
H   0.7676394562  0.2542806340  1.6671887701
H   1.4345043873 -0.9842102407 -1.4043539946
H   1.9658025647 -1.0921358302  0.3723365926
7
Iter 17 Image 2  Energy = -4187.8134840897
C   0.8735819825  0.6327472479 -0.1714035219
H   0.4963630669  1.3282184659 -0.9056876956
O   0.7196345443  0.9935091758  1.1340548853
C   1.4207245846 -0.5499771737 -0.3795299667
H   0.7084215877  0.0919925276  1.4864878831
H   1.3362043068 -1.0858145915 -1.2927254596
H   2.0463115022 -0.9203087120  0.4227428169
7
Iter 17 Image 3  Energy = -4186.7679753622
C   0.8681494161  0.6873049026 -0.1702866831
H   0.5453313706  1.4000127173 -0.9288935348
O   0.7582756398  0.9974720865  1.1298585351
C   1.3027146712 -0.5798891733 -0.2694505660
H   0.7497829955 -0.0633132435  1.2860328291
H   1.2629370975 -1.1312478109 -1.1655437993
H   2.1140504133 -0.8199724867  0.4122222459
7
Iter 17 Image 4  Energy = -4186.2501049808
C   0.8611396666  0.7899105557 -0.1021996286
H   0.5532869724  1.4140371726 -0.9506170447
O   0.7662014690  1.2055874892  1.0518361054
C   1.2252357117 -0.6191227791 -0.1055280259
H   0.7832517782 -0.3925962265  1.0952640523
H   1.2494527370 -1.1172096313 -1.0957281896
H   2.1626732629 -0.7902396230  0.4009117463
7
Iter 17 Image 5  Energy = -4187.9700383714
C   0.8692418663  0.8502844301 -0.0587156680
H   0.5937032174  1.3952812750 -0.9772491324
O   0.7762978784  1.3686998441  1.0276553222
C   1.2403094066 -0.5807942244 -0.0285694333
H   0.7299884469 -0.6817125165  0.9624872480
H   1.1503779652 -1.1261797734 -0.9746045593
H   2.2413228171 -0.7352121003  0.3429352101
7
Iter 17 Image 6  Energy = -4188.6060217640
C   0.8665380056  0.8819010080 -0.0094853262
H   0.6392427400  1.3491131184 -0.9846592510
O   0.7463544897  1.4993129556  1.0161664967
C   1.2653561407 -0.5553466888  0.0190274532
H   0.6785316208 -0.9280053751  0.8517340263
H   1.0993391425 -1.0938452466 -0.9103588115
H   2.3058794228 -0.6627628539  0.3115143206
7
Iter 17 Image 7  Energy = -4188.6746690592
C   0.8107733607  0.8766694380 -0.0247947781
H   0.7774629345  1.3057092329 -1.0466550516
O   0.4567016191  1.5296898188  0.9195378661
C   1.2965799454 -0.5414371923  0.0853880483
H   0.8628151039 -0.9825353784  0.9756116449
H   1.0125319811 -1.1234249193 -0.7874647384
H   2.3843766782 -0.5743041688  0.1723158432
7
Iter 17 Image 8  Energy = -4188.6819968244
C   0.7840367852  0.8656586589 -0.0371164025
H   0.9809293880  1.3403901038 -1.0231241499
O   0.1875804579  1.4681235287  0.8223429327
C   1.3100769769 -0.5359012779  0.1153731248
H   1.0639489065 -0.9236344469  1.1059940899
H   0.8779311114 -1.1816924395 -0.6582837811
H   2.3967379442 -0.5425772870 -0.0312469938
7
Iter 18 Image 0  Energy = -4188.2527480593
C   0.8260657415  0.5508603911 -0.1261794589
H   0.4554445983  1.2417513435 -0.8784317668
O   0.5680753083  1.0246514429  1.1187434847
C   1.4411098584 -0.5873603774 -0.4363613732
H   0.9099091373  0.3932317500  1.7666320721
H   1.5916834696 -0.8592929697 -1.4741885892
H   1.8089534565 -1.2734747403  0.3237244514
7
Iter 18 Image 1  Energy = -4188.1762821397
C   0.8554267583  0.5864955061 -0.1472252963
H   0.4547536211  1.2525953319 -0.8943070408
O   0.6729503869  1.0388875405  1.1188162977
C   1.4486959210 -0.5660457376 -0.4178392893
H   0.7681635802  0.2547486680  1.6666664443
H   1.4363842801 -0.9844671042 -1.4041214854
H   1.9648670310 -1.0918473519  0.3719492843
7
Iter 18 Image 2  Energy = -4187.8199732772
C   0.8704907252  0.6348241130 -0.1718566596
H   0.4963658516  1.3312239192 -0.9059969641
O   0.7194542904  0.9952097175  1.1344437133
C   1.4166779743 -0.5522292411 -0.3787621591
H   0.7144369642  0.0939463065  1.4878734017
H   1.3405436658 -1.0875295967 -1.2934247449
H   2.0432721056 -0.9250782755  0.4216623601
7
Iter 18 Image 3  Energy = -4186.7741678676
C   0.8693138079  0.6915988239 -0.1682833690
H   0.5433564192  1.3994872275 -0.9274995941
O   0.7534242958  1.0006670247  1.1293691377
C   1.3043449880 -0.5779438547 -0.2733440004
H   0.7553754444 -0.0633430946  1.2859782452
H   1.2658715702 -1.1353433610 -1.1679986800
H   2.1095550795 -0.8247557686  0.4157172824
7
Iter 18 Image 4  Energy = -4186.2494895479
C   0.8620231966  0.7905403172 -0.1033781998
H   0.5538384519  1.4144911250 -0.9466893064
O   0.7618675213  1.2103795903  1.0533278806
C   1.2257631915 -0.6187661579 -0.1091353310
H   0.7868355289 -0.3933650027  1.0969330589
H   1.2496110590 -1.1239322016 -1.1002872755
H   2.1613026481 -0.7889807097  0.4031681933
7
Iter 18 Image 5  Energy = -4187.9731320909
C   0.8723758621  0.8507177290 -0.0571527319
H   0.5925288745  1.3964688015 -0.9748989098
O   0.7724630567  1.3705672897  1.0260988671
C   1.2417069340 -0.5845569126 -0.0289782533
H   0.7286283526 -0.6798158789  0.9616226441
H   1.1481975630 -1.1298528660 -0.9779388176
H   2.2453409548 -0.7331612205  0.3451861910
7
Iter 18 Image 6  Energy = -4188.6084259918
C   0.8668106132  0.8825622504 -0.0088102673
H   0.6408991669  1.3505895895 -0.9844350155
O   0.7486384187  1.5014013752  1.0139320903
C   1.2617601986 -0.5570147698  0.0191383176
H   0.6804413375 -0.9313621508  0.8549917583
H   1.0989738608 -1.0945613704 -0.9109635067
H   2.3037179677 -0.6612480054  0.3100855344
7
Iter 18 Image 7  Energy = -4188.6761629006
C   0.8107345184  0.8746909738 -0.0251880690
H   0.7799170479  1.3037472636 -1.0452433220
O   0.4579137240  1.5313417122  0.9196220887
C   1.2937968686 -0.5422165280  0.0855215466
H   0.8641284474 -0.9841495603  0.9773587691
H   1.0136206010 -1.1223015017 -0.7894233275
H   2.3811304141 -0.5707455271  0.1712911486
7
Iter 18 Image 8  Energy = -4188.6819968244
C   0.7840367852  0.8656586589 -0.0371164025
H   0.9809293880  1.3403901038 -1.0231241499
O   0.1875804579  1.4681235287  0.8223429327
C   1.3100769769 -0.5359012779  0.1153731248
H   1.0639489065 -0.9236344469  1.1059940899
H   0.8779311114 -1.1816924395 -0.6582837811
H   2.3967379442 -0.5425772870 -0.0312469938
7
Iter 19 Image 0  Energy = -4188.2527480593
C   0.8260657415  0.5508603911 -0.1261794589
H   0.4554445983  1.2417513435 -0.8784317668
O   0.5680753083  1.0246514429  1.1187434847
C   1.4411098584 -0.5873603774 -0.4363613732
H   0.9099091373  0.3932317500  1.7666320721
H   1.5916834696 -0.8592929697 -1.4741885892
H   1.8089534565 -1.2734747403  0.3237244514
7
Iter 19 Image 1  Energy = -4188.1773651114
C   0.8543478929  0.5844675920 -0.1474961187
H   0.4539770619  1.2516087695 -0.8943256481
O   0.6737585569  1.0403160214  1.1186372314
C   1.4472381176 -0.5656934628 -0.4178640501
H   0.7678684355  0.2561374790  1.6664458153
H   1.4405991865 -0.9857505591 -1.4048314317
H   1.9634523289 -1.0907189809  0.3733731144
7
Iter 19 Image 2  Energy = -4187.8324147335
C   0.8652543848  0.6351121781 -0.1732108864
H   0.4970159504  1.3399591184 -0.9031968437
O   0.7213759604  0.9975882137  1.1333927470
C   1.4071127613 -0.5563331175 -0.3795726716
H   0.7270614024  0.0985864427  1.4918621995
H   1.3494842869 -1.0939977129 -1.2964143157
H   2.0339368304 -0.9305481670  0.4210787326
7
Iter 19 Image 3  Energy = -4186.7882580927
C   0.8704435340  0.6955642992 -0.1703868406
H   0.5389324529  1.4027249264 -0.9220326356
O   0.7494941087  1.0044578696  1.1292987917
C   1.3055671887 -0.5760474454 -0.2789245989
H   0.7673927875 -0.0610342568  1.2811855267
H   1.2717669953 -1.1455947379 -1.1696675790
H   2.0976445341 -0.8297036389  0.4244663714
7
Iter 19 Image 4  Energy = -4186.2560801601
C   0.8616826011  0.7928934301 -0.1012637886
H   0.5518215166  1.4203173438 -0.9395965842
O   0.7580817009  1.2139047833  1.0513454768
C   1.2257270104 -0.6164359350 -0.1161840236
H   0.7960439888 -0.3958792855  1.0923766932
H   1.2531760770 -1.1375060851 -1.1041231141
H   2.1547087055 -0.7869272799  0.4113843686
7
Iter 19 Image 5  Energy = -4187.9879789224
C   0.8757225112  0.8517804257 -0.0559516479
H   0.5883810489  1.4009973858 -0.9697143456
O   0.7713315099  1.3748017993  1.0227331369
C   1.2450901621 -0.5877877436 -0.0304159748
H   0.7255840839 -0.6812966418  0.9547040316
H   1.1469230278 -1.1384120027 -0.9797263650
H   2.2482092567 -0.7297162548  0.3523101860
7
Iter 19 Image 6  Energy = -4188.6178436747
C   0.8671156476  0.8829536407 -0.0090936495
H   0.6444139600  1.3548370012 -0.9838242603
O   0.7625050383  1.5098814188  1.0124933676
C   1.2526749980 -0.5599818956  0.0200819466
H   0.6804558691 -0.9458553106  0.8582352196
H   1.0973630804 -1.0974713286 -0.9121561223
H   2.2967129709 -0.6539966035  0.3082024182
7
Iter 19 Image 7  Energy = -4188.6777335426
C   0.8099714688  0.8714735396 -0.0249417106
H   0.7854480482  1.2977385474 -1.0434420757
O   0.4646649025  1.5374154005  0.9214906831
C   1.2863419531 -0.5441791407  0.0862697736
H   0.8645622914 -0.9927496300  0.9791365539
H   1.0167045089 -1.1197173333 -0.7952102407
H   2.3735484463 -0.5596145552  0.1706358453
7
Iter 19 Image 8  Energy = -4188.6819968244
C   0.7840367852  0.8656586589 -0.0371164025
H   0.9809293880  1.3403901038 -1.0231241499
O   0.1875804579  1.4681235287  0.8223429327
C   1.3100769769 -0.5359012779  0.1153731248
H   1.0639489065 -0.9236344469  1.1059940899
H   0.8779311114 -1.1816924395 -0.6582837811
H   2.3967379442 -0.5425772870 -0.0312469938
7
Iter 20 Image 0  Energy = -4188.2527480593
C   0.8260657415  0.5508603911 -0.1261794589
H   0.4554445983  1.2417513435 -0.8784317668
O   0.5680753083  1.0246514429  1.1187434847
C   1.4411098584 -0.5873603774 -0.4363613732
H   0.9099091373  0.3932317500  1.7666320721
H   1.5916834696 -0.8592929697 -1.4741885892
H   1.8089534565 -1.2734747403  0.3237244514
7
Iter 20 Image 1  Energy = -4188.1788399389
C   0.8511175367  0.5848618635 -0.1476760701
H   0.4547085417  1.2524534351 -0.8956423644
O   0.6726369465  1.0411740714  1.1186579451
C   1.4451473455 -0.5683008580 -0.4184768433
H   0.7698441208  0.2576802465  1.6674700711
H   1.4462389617 -0.9880555812 -1.4063293609
H   1.9615481274 -1.0894463110  0.3759355343
7
Iter 20 Image 2  Energy = -4187.8471411040
C   0.8605930325  0.6380713666 -0.1743943763
H   0.4975061036  1.3485867123 -0.8996603012
O   0.7201945908  1.0031689330  1.1317489592
C   1.3944847077 -0.5612137845 -0.3809463897
H   0.7504373034  0.1062001479  1.4942810837
H   1.3598648175 -1.1024550197 -1.2966459722
H   2.0181610238 -0.9419913812  0.4195559887
7
Iter 20 Image 3  Energy = -4186.7943138203
C   0.8748874785  0.7002787325 -0.1687625702
H   0.5340593421  1.4061892787 -0.9155531402
O   0.7418992729  1.0053450128  1.1273176972
C   1.3091369868 -0.5710577996 -0.2864541914
H   0.7808245787 -0.0595950012  1.2711287631
H   1.2769261078 -1.1567862352 -1.1695936878
H   2.0835078279 -0.8340069578  0.4358561740
7
Iter 20 Image 4  Energy = -4186.2511506996
C   0.8602983267  0.7987998702 -0.1041041150
H   0.5499559870  1.4262523337 -0.9331230637
O   0.7474408863  1.2178696135  1.0541919846
C   1.2284408145 -0.6088732980 -0.1270620498
H   0.8126170511 -0.4021369613  1.0901152750
H   1.2584875636 -1.1536214195 -1.1061858138
H   2.1440009732 -0.7879231433  0.4201068263
7
Iter 20 Image 5  Energy = -4187.9992284051
C   0.8785658288  0.8513706078 -0.0575086104
H   0.5844473280  1.4039459996 -0.9617819612
O   0.7626590684  1.3805057347  1.0242926511
C   1.2525205215 -0.5886507815 -0.0360147613
H   0.7246725863 -0.6813457099  0.9434714550
H   1.1462872005 -1.1478254884 -0.9804411805
H   2.2520890679 -0.7276333666  0.3619214597
7
Iter 20 Image 6  Energy = -4188.6212691239
C   0.8675783033  0.8872782258 -0.0048492445
H   0.6474315714  1.3599108214 -0.9844819939
O   0.7746625319  1.5173958924  1.0044650386
C   1.2447761609 -0.5645371635  0.0215475367
H   0.6823310096 -0.9597027706  0.8641989017
H   1.0924294701 -1.1003618741 -0.9140038343
H   2.2920325245 -0.6496162048  0.3070625344
7
Iter 20 Image 7  Energy = -4188.6764886847
C   0.8057699906  0.8737065087 -0.0163315913
H   0.7932632754  1.2911536660 -1.0430947480
O   0.4737499834  1.5379694259  0.9162480360
C   1.2779655918 -0.5473335631  0.0869297896
H   0.8661257071 -1.0020595058  0.9828476885
H   1.0188585740 -1.1167709530 -0.8019063326
H   2.3655084964 -0.5462987523  0.1692459812
7
Iter 20 Image 8  Energy = -4188.6819968244
C   0.7840367852  0.8656586589 -0.0371164025
H   0.9809293880  1.3403901038 -1.0231241499
O   0.1875804579  1.4681235287  0.8223429327
C   1.3100769769 -0.5359012779  0.1153731248
H   1.0639489065 -0.9236344469  1.1059940899
H   0.8779311114 -1.1816924395 -0.6582837811
H   2.3967379442 -0.5425772870 -0.0312469938
7
Iter 21 Image 0  Energy = -4188.2527480593
C   0.8260657415  0.5508603911 -0.1261794589
H   0.4554445983  1.2417513435 -0.8784317668
O   0.5680753083  1.0246514429  1.1187434847
C   1.4411098584 -0.5873603774 -0.4363613732
H   0.9099091373  0.3932317500  1.7666320721
H   1.5916834696 -0.8592929697 -1.4741885892
H   1.8089534565 -1.2734747403  0.3237244514
7
Iter 21 Image 1  Energy = -4188.1791407040
C   0.8516777626  0.5839071304 -0.1483129336
H   0.4541076482  1.2531746700 -0.8959456969
O   0.6729279523  1.0411040609  1.1183415489
C   1.4446350060 -0.5680134627 -0.4183393655
H   0.7698638942  0.2579820466  1.6680156467
H   1.4465799501 -0.9885163094 -1.4066846858
H   1.9614493675 -1.0892712677  0.3768644019
7
Iter 21 Image 2  Energy = -4187.8492654881
C   0.8617710763  0.6358916292 -0.1746764135
H   0.4976680763  1.3496024690 -0.8982716799
O   0.7206420231  1.0029868301  1.1308073394
C   1.3939821618 -0.5602233454 -0.3820009744
H   0.7520377216  0.1068710173  1.4944406311
H   1.3594189344 -1.1039789283 -1.2968318802
H   2.0157215871 -0.9407826938  0.4204719732
7
Iter 21 Image 3  Energy = -4186.7973947993
C   0.8741172681  0.6987600295 -0.1714026884
H   0.5341412702  1.4083503887 -0.9148013211
O   0.7442015049  1.0033883567  1.1275146174
C   1.3086496880 -0.5712471518 -0.2859033774
H   0.7811199601 -0.0595900540  1.2694929532
H   1.2767496544 -1.1577232650 -1.1677371002
H   2.0822622510 -0.8315712767  0.4367759623
7
Iter 21 Image 4  Energy = -4186.2592798418
C   0.8590449291  0.7996577580 -0.1012843586
H   0.5484299060  1.4289539623 -0.9345183883
O   0.7487318520  1.2140920629  1.0515934759
C   1.2283498820 -0.6081035952 -0.1267803638
H   0.8146324208 -0.4026273402  1.0865604924
H   1.2601582555 -1.1530044154 -1.1031749333
H   2.1418943554 -0.7886014305  0.4215431203
7
Iter 21 Image 5  Energy = -4188.0063200912
C   0.8766896278  0.8525555786 -0.0571463740
H   0.5837678285  1.4047585652 -0.9621365016
O   0.7644698175  1.3795131200  1.0238242413
C   1.2528713351 -0.5858660375 -0.0367974713
H   0.7254779832 -0.6840202076  0.9409657462
H   1.1483145228 -1.1481382443 -0.9778355313
H   2.2496504866 -0.7284357775  0.3630649455
7
Iter 21 Image 6  Energy = -4188.6271871647
C   0.8676786891  0.8852836406 -0.0086675308
H   0.6474572597  1.3599670301 -0.9842007589
O   0.7776958998  1.5209687813  1.0081811741
C   1.2445409357 -0.5640649869  0.0220849402
H   0.6809783220 -0.9626407079  0.8623807921
H   1.0914305003 -1.1005827202 -0.9134334922
H   2.2914599661 -0.6485641098  0.3075938177
7
Iter 21 Image 7  Energy = -4188.6804068854
C   0.8066242427  0.8717863194 -0.0193048219
H   0.7935600876  1.2903746890 -1.0434546840
O   0.4745004348  1.5411288932  0.9201223155
C   1.2773510408 -0.5474031558  0.0872663696
H   0.8652156618 -1.0043160842  0.9819238047
H   1.0189385028 -1.1165310224 -0.8025112053
H   2.3650516492 -0.5446728117  0.1698970458
7
Iter 21 Image 8  Energy = -4188.6819968244
C   0.7840367852  0.8656586589 -0.0371164025
H   0.9809293880  1.3403901038 -1.0231241499
O   0.1875804579  1.4681235287  0.8223429327
C   1.3100769769 -0.5359012779  0.1153731248
H   1.0639489065 -0.9236344469  1.1059940899
H   0.8779311114 -1.1816924395 -0.6582837811
H   2.3967379442 -0.5425772870 -0.0312469938
7
Iter 22 Image 0  Energy = -4188.2527480593
C   0.8260657415  0.5508603911 -0.1261794589
H   0.4554445983  1.2417513435 -0.8784317668
O   0.5680753083  1.0246514429  1.1187434847
C   1.4411098584 -0.5873603774 -0.4363613732
H   0.9099091373  0.3932317500  1.7666320721
H   1.5916834696 -0.8592929697 -1.4741885892
H   1.8089534565 -1.2734747403  0.3237244514
7
Iter 22 Image 1  Energy = -4188.1794460884
C   0.8517676659  0.5836619563 -0.1490956520
H   0.4541951226  1.2546786289 -0.8965832443
O   0.6723748454  1.0405789508  1.1180388419
C   1.4438538426 -0.5685068978 -0.4182810342
H   0.7709495878  0.2583790609  1.6689793949
H   1.4470384834 -0.9892463184 -1.4070804596
H   1.9610620334 -1.0891785104  0.3779610721
7
Iter 22 Image 2  Energy = -4187.8512882760
C   0.8635481086  0.6350751765 -0.1748802028
H   0.4977623605  1.3496731306 -0.8968952752
O   0.7198932919  1.0034235621  1.1295396172
C   1.3939875132 -0.5593003683 -0.3830732761
H   0.7563622941  0.1081660420  1.4936916620
H   1.3581551588 -1.1057208154 -1.2957759638
H   2.0115328561 -0.9409497426  0.4213324396
7
Iter 22 Image 3  Energy = -4186.7971502489
C   0.8737822492  0.6976993291 -0.1735281326
H   0.5346768888  1.4105089822 -0.9144045482
O   0.7456446529  0.9998981098  1.1276192683
C   1.3091295311 -0.5706918384 -0.2855373296
H   0.7809214183 -0.0607423288  1.2669942045
H   1.2758401287 -1.1580383151 -1.1649295027
H   2.0812467272 -0.8282669206  0.4377250859
7
Iter 22 Image 4  Energy = -4186.2626178509
C   0.8573741976  0.8011533293 -0.1002918151
H   0.5470229631  1.4315918859 -0.9371742123
O   0.7478495450  1.2096570013  1.0507951560
C   1.2289761529 -0.6058629311 -0.1268111250
H   0.8186295451 -0.4040726054  1.0838572303
H   1.2621881487 -1.1515538654 -1.0989775498
H   2.1392010481 -0.7905458021  0.4225413624
7
Iter 22 Image 5  Energy = -4188.0110116175
C   0.8740254908  0.8538266451 -0.0568466604
H   0.5834654212  1.4048881288 -0.9626485156
O   0.7636468534  1.3777421961  1.0247534689
C   1.2541792580 -0.5815565161 -0.0385325472
H   0.7278240354 -0.6864856427  0.9375923686
H   1.1511333047 -1.1478817109 -0.9746641106
H   2.2469672379 -0.7301661040  0.3642850532
7
Iter 22 Image 6  Energy = -4188.6288437417
C   0.8677537697  0.8852141518 -0.0096263036
H   0.6469138305  1.3596703005 -0.9844914790
O   0.7787980054  1.5226871848  1.0086324106
C   1.2458413187 -0.5635802249  0.0226524203
H   0.6802376209 -0.9638509312  0.8607975898
H   1.0892967462 -1.1003748760 -0.9125981527
H   2.2924002846 -0.6493986776  0.3085724629
7
Iter 22 Image 7  Energy = -4188.6805924645
C   0.8065239478  0.8718148215 -0.0197511186
H   0.7940720313  1.2900158432 -1.0444431985
O   0.4753387075  1.5419897234  0.9216426517
C   1.2772220905 -0.5475900686  0.0875185405
H   0.8646040326 -1.0060623543  0.9812553532
H   1.0182984299 -1.1163955250 -0.8027017107
H   2.3651823825 -0.5434056116  0.1704183087
7
Iter 22 Image 8  Energy = -4188.6819968244
C   0.7840367852  0.8656586589 -0.0371164025
H   0.9809293880  1.3403901038 -1.0231241499
O   0.1875804579  1.4681235287  0.8223429327
C   1.3100769769 -0.5359012779  0.1153731248
H   1.0639489065 -0.9236344469  1.1059940899
H   0.8779311114 -1.1816924395 -0.6582837811
H   2.3967379442 -0.5425772870 -0.0312469938
7
Iter 23 Image 0  Energy = -4188.2527480593
C   0.8260657415  0.5508603911 -0.1261794589
H   0.4554445983  1.2417513435 -0.8784317668
O   0.5680753083  1.0246514429  1.1187434847
C   1.4411098584 -0.5873603774 -0.4363613732
H   0.9099091373  0.3932317500  1.7666320721
H   1.5916834696 -0.8592929697 -1.4741885892
H   1.8089534565 -1.2734747403  0.3237244514
7
Iter 23 Image 1  Energy = -4188.1803683510
C   0.8508743184  0.5836813648 -0.1504595058
H   0.4552126878  1.2571056713 -0.8973528168
O   0.6707303907  1.0396229787  1.1171098630
C   1.4421087419 -0.5701271842 -0.4183484556
H   0.7741951562  0.2597917949  1.6705279239
H   1.4491768775 -0.9909230773 -1.4072145140
H   1.9589434080 -1.0887846644  0.3796764316
7
Iter 23 Image 2  Energy = -4187.8569265923
C   0.8647234603  0.6361734634 -0.1760127947
H   0.4980862282  1.3516704651 -0.8945979222
O   0.7183685303  1.0051402014  1.1269705527
C   1.3925784246 -0.5594537169 -0.3847164188
H   0.7695456566  0.1117975178  1.4932075616
H   1.3573864744 -1.1106994906 -1.2939921238
H   2.0005528140 -0.9442614457  0.4230801644
7
Iter 23 Image 3  Energy = -4186.7957959420
C   0.8731655677  0.6987626978 -0.1760441732
H   0.5345112454  1.4154444133 -0.9137523948
O   0.7450372510  0.9942252371  1.1275527681
C   1.3112697548 -0.5678502307 -0.2878329118
H   0.7846333914 -0.0640562418  1.2626307509
H   1.2761955134 -1.1614559970 -1.1607174613
H   2.0764288703 -0.8247028599  0.4421024694
7
Iter 23 Image 4  Energy = -4186.2632950640
C   0.8543964966  0.8035005605 -0.1033050006
H   0.5446935299  1.4374575252 -0.9397511830
O   0.7422759181  1.2046892040  1.0533275010
C   1.2301709538 -0.6013994224 -0.1285843060
H   0.8295778750 -0.4079715889  1.0793174720
H   1.2663886442 -1.1523551524 -1.0936062506
H   2.1337381772 -0.7935540948  0.4265408161
7
Iter 23 Image 5  Energy = -4188.0173997453
C   0.8705496395  0.8566178036 -0.0559858175
H   0.5818752772  1.4066384351 -0.9631634304
O   0.7583400748  1.3750928311  1.0270533030
C   1.2574335617 -0.5751427018 -0.0419389971
H   0.7327025086 -0.6910213224  0.9303420843
H   1.1562215854 -1.1493903408 -0.9705308831
H   2.2441189524 -0.7324276972  0.3681628051
7
Iter 23 Image 6  Energy = -4188.6326824001
C   0.8682137635  0.8858922663 -0.0100718856
H   0.6466584174  1.3594525194 -0.9851498031
O   0.7818860262  1.5270240378  1.0072874712
C   1.2467151982 -0.5631532691  0.0237811657
H   0.6799746996 -0.9680744932  0.8589878508
H   1.0844614185 -1.1000183435 -0.9105942839
H   2.2933320564 -0.6507557782  0.3096984402
7
Iter 23 Image 7  Energy = -4188.6801093391
C   0.8061769305  0.8710819014 -0.0200902999
H   0.7966142296  1.2882001196 -1.0455072642
O   0.4778468626  1.5441611408  0.9238551210
C   1.2753883793 -0.5482449750  0.0880279929
H   0.8642121097 -1.0106344458  0.9807006710
H   1.0174072793 -1.1154326575 -0.8038939415
H   2.3635958336 -0.5387642512  0.1708465434
7
Iter 23 Image 8  Energy = -4188.6819968244
C   0.7840367852  0.8656586589 -0.0371164025
H   0.9809293880  1.3403901038 -1.0231241499
O   0.1875804579  1.4681235287  0.8223429327
C   1.3100769769 -0.5359012779  0.1153731248
H   1.0639489065 -0.9236344469  1.1059940899
H   0.8779311114 -1.1816924395 -0.6582837811
H   2.3967379442 -0.5425772870 -0.0312469938
7
Iter 24 Image 0  Energy = -4188.2527480593
C   0.8260657415  0.5508603911 -0.1261794589
H   0.4554445983  1.2417513435 -0.8784317668
O   0.5680753083  1.0246514429  1.1187434847
C   1.4411098584 -0.5873603774 -0.4363613732
H   0.9099091373  0.3932317500  1.7666320721
H   1.5916834696 -0.8592929697 -1.4741885892
H   1.8089534565 -1.2734747403  0.3237244514
7
Iter 24 Image 1  Energy = -4188.1818539074
C   0.8503231044  0.5818833019 -0.1522546324
H   0.4580481758  1.2605843204 -0.8976100386
O   0.6670431776  1.0383990668  1.1147916013
C   1.4385366051 -0.5704194001 -0.4182899080
H   0.7816066387  0.2624974233  1.6720833853
H   1.4521674624 -0.9936738447 -1.4060688083
H   1.9535164208 -1.0889039616  0.3812873407
7
Iter 24 Image 2  Energy = -4187.8630941233
C   0.8668665672  0.6370717094 -0.1786495193
H   0.4983252432  1.3554132918 -0.8944513157
O   0.7162972169  1.0065195777  1.1237460477
C   1.3920783844 -0.5569969350 -0.3871076583
H   0.7891878830  0.1163794784  1.4929972059
H   1.3532828925 -1.1182936074 -1.2911328231
H   1.9852034055 -0.9497265056  0.4285370974
7
Iter 24 Image 3  Energy = -4186.7898155546
C   0.8699855530  0.7026279519 -0.1793548128
H   0.5344619322  1.4238541788 -0.9157754600
O   0.7405522431  0.9861903060  1.1294605153
C   1.3149613566 -0.5617851165 -0.2924102887
H   0.7926239809 -0.0721920385  1.2600474994
H   1.2784522610 -1.1667785569 -1.1563682206
H   2.0702042638 -0.8215497098  0.4483398091
7
Iter 24 Image 4  Energy = -4186.2541348657
C   0.8494144353  0.8063359238 -0.1005175689
H   0.5421923641  1.4466484487 -0.9430759935
O   0.7318866389  1.1951201505  1.0497612377
C   1.2318706348 -0.5976344078 -0.1307488870
H   0.8455109691 -0.4118825070  1.0741031992
H   1.2711240389 -1.1524313799 -1.0888749182
H   2.1292425114 -0.7957891723  0.4332919746
7
Iter 24 Image 5  Energy = -4188.0212562552
C   0.8660649478  0.8615102028 -0.0557794685
H   0.5792965571  1.4113872836 -0.9663771877
O   0.7456630842  1.3702106445  1.0328048186
C   1.2610272266 -0.5686435254 -0.0456027896
H   0.7419129493 -0.6991723423  0.9227320323
H   1.1648751503 -1.1501335659 -0.9667936227
H   2.2424016776 -0.7347916652  0.3729552922
7
Iter 24 Image 6  Energy = -4188.6382143518
C   0.8692192317  0.8885717925 -0.0077290966
H   0.6458829174  1.3567123359 -0.9864645018
O   0.7827759993  1.5311952682  1.0026864251
C   1.2493863703 -0.5613025829  0.0253504379
H   0.6805498389 -0.9719636887  0.8547594895
H   1.0773835600 -1.0977156308 -0.9055443654
H   2.2960436623 -0.6551305475  0.3108805860
7
Iter 24 Image 7  Energy = -4188.6793629399
C   0.8046891451  0.8729759416 -0.0160411890
H   0.7999085534  1.2864691909 -1.0463222577
O   0.4812808918  1.5433088230  0.9213522785
C   1.2739078998 -0.5487188078  0.0883398558
H   0.8642789320 -1.0159073829  0.9790827071
H   1.0152765857 -1.1141034361 -0.8036333753
H   2.3618996195 -0.5336574933  0.1711608027
7
Iter 24 Image 8  Energy = -4188.6819968244
C   0.7840367852  0.8656586589 -0.0371164025
H   0.9809293880  1.3403901038 -1.0231241499
O   0.1875804579  1.4681235287  0.8223429327
C   1.3100769769 -0.5359012779  0.1153731248
H   1.0639489065 -0.9236344469  1.1059940899
H   0.8779311114 -1.1816924395 -0.6582837811
H   2.3967379442 -0.5425772870 -0.0312469938
7
Iter 25 Image 0  Energy = -4188.2527480593
C   0.8260657415  0.5508603911 -0.1261794589
H   0.4554445983  1.2417513435 -0.8784317668
O   0.5680753083  1.0246514429  1.1187434847
C   1.4411098584 -0.5873603774 -0.4363613732
H   0.9099091373  0.3932317500  1.7666320721
H   1.5916834696 -0.8592929697 -1.4741885892
H   1.8089534565 -1.2734747403  0.3237244514
7
Iter 25 Image 1  Energy = -4188.1824487022
C   0.8495543858  0.5830904355 -0.1520232100
H   0.4585923061  1.2602223966 -0.8971819190
O   0.6667289965  1.0383675544  1.1145183917
C   1.4390914442 -0.5713903856 -0.4185668776
H   0.7826569506  0.2629676627  1.6717070998
H   1.4522395935 -0.9937547417 -1.4055249752
H   1.9523779082 -1.0891360159  0.3810104285
7
Iter 25 Image 2  Energy = -4187.8638382277
C   0.8658870013  0.6383451581 -0.1790562245
H   0.4984753433  1.3558834949 -0.8953233622
O   0.7165699528  1.0061340340  1.1238761017
C   1.3929017501 -0.5578292494 -0.3874406740
H   0.7896715738  0.1162201916  1.4936605796
H   1.3527886574 -1.1184406845 -1.2910250988
H   1.9849473125 -0.9499459331  0.4292477119
7
Iter 25 Image 3  Energy = -4186.7894825658
C   0.8693647331  0.7030345980 -0.1777596537
H   0.5342004152  1.4245502147 -0.9164025577
O   0.7388913754  0.9862328851  1.1290733869
C   1.3150597460 -0.5612778688 -0.2929894676
H   0.7943332482 -0.0726269163  1.2607652065
H   1.2795137379 -1.1671047592 -1.1572584569
H   2.0698783341 -0.8224411374  0.4485105838
7
Iter 25 Image 4  Energy = -4186.2579077354
C   0.8491951634  0.8050712004 -0.1051341705
H   0.5429458843  1.4463710534 -0.9413804786
O   0.7303020727  1.1973909084  1.0529255247
C   1.2323030277 -0.5986177980 -0.1305205741
H   0.8456338590 -0.4123243993  1.0748130152
H   1.2706525290 -1.1529125641 -1.0905550604
H   2.1302090580 -0.7946113477  0.4337907846
7
Iter 25 Image 5  Energy = -4188.0216383657
C   0.8662381421  0.8614811961 -0.0553280182
H   0.5792240529  1.4124824796 -0.9664552448
O   0.7438386812  1.3698597721  1.0322063880
C   1.2611511547 -0.5697968012 -0.0451642867
H   0.7421895155 -0.6997372820  0.9239058271
H   1.1650435454 -1.1500765336 -0.9680435166
H   2.2435565001 -0.7338457982  0.3728179258
7
Iter 25 Image 6  Energy = -4188.6386315694
C   0.8694088728  0.8883324932 -0.0081869396
H   0.6459673625  1.3560035480 -0.9865124102
O   0.7820047740  1.5317298400  1.0031693639
C   1.2495110156 -0.5609671799  0.0255770425
H   0.6808135207 -0.9719499709  0.8545943568
H   1.0774707489 -1.0972633366 -0.9052067722
H   2.2960652854 -0.6555184472  0.3105043363
7
Iter 25 Image 7  Energy = -4188.6803540161
C   0.8054134195  0.8717319576 -0.0177274347
H   0.7999419844  1.2864868605 -1.0456657719
O   0.4805681522  1.5443009623  0.9223846651
C   1.2739215779 -0.5484809371  0.0884028340
H   0.8644780779 -1.0158235754  0.9788878088
H   1.0151480348 -1.1140192067 -0.8033709183
H   2.3617703811 -0.5338292268  0.1710276391
7
Iter 25 Image 8  Energy = -4188.6819968244
C   0.7840367852  0.8656586589 -0.0371164025
H   0.9809293880  1.3403901038 -1.0231241499
O   0.1875804579  1.4681235287  0.8223429327
C   1.3100769769 -0.5359012779  0.1153731248
H   1.0639489065 -0.9236344469  1.1059940899
H   0.8779311114 -1.1816924395 -0.6582837811
H   2.3967379442 -0.5425772870 -0.0312469938
7
Iter 26 Image 0  Energy = -4188.2527480593
C   0.8260657415  0.5508603911 -0.1261794589
H   0.4554445983  1.2417513435 -0.8784317668
O   0.5680753083  1.0246514429  1.1187434847
C   1.4411098584 -0.5873603774 -0.4363613732
H   0.9099091373  0.3932317500  1.7666320721
H   1.5916834696 -0.8592929697 -1.4741885892
H   1.8089534565 -1.2734747403  0.3237244514
7
Iter 26 Image 1  Energy = -4188.1829348376
C   0.8492417266  0.5833420466 -0.1518005395
H   0.4595386105  1.2600295006 -0.8966736815
O   0.6659120584  1.0385339324  1.1140825679
C   1.4391068027 -0.5713085445 -0.4186784156
H   0.7848593826  0.2636926957  1.6710635109
H   1.4522213114 -0.9941083530 -1.4047623101
H   1.9503616941 -1.0898143670  0.3807078056
7
Iter 26 Image 2  Energy = -4187.8640541306
C   0.8650288518  0.6392543442 -0.1797535226
H   0.4986351105  1.3566452830 -0.8972413135
O   0.7168697959  1.0054443253  1.1240961653
C   1.3942311025 -0.5576757199 -0.3876003395
H   0.7903613084  0.1157072609  1.4946146504
H   1.3513565841 -1.1187852229 -1.2909348352
H   1.9847588365 -0.9502232583  0.4307582258
7
Iter 26 Image 3  Energy = -4186.7873344964
C   0.8678657900  0.7041397836 -0.1764457446
H   0.5341325567  1.4253972165 -0.9173281853
O   0.7357702474  0.9864213520  1.1294122674
C   1.3153502248 -0.5607056503 -0.2938063990
H   0.7970951939 -0.0739494817  1.2622680491
H   1.2812304754 -1.1671656723 -1.1587279364
H   2.0697971016 -0.8237705278  0.4485669875
7
Iter 26 Image 4  Energy = -4186.2570099553
C   0.8486168774  0.8034519316 -0.1069645389
H   0.5441107584  1.4462557197 -0.9394154177
O   0.7278444995  1.1988274510  1.0533010351
C   1.2329041774 -0.6002351242 -0.1303702609
H   0.8457377321 -0.4122463124  1.0761404000
H   1.2697501518 -1.1532066808 -1.0932837745
H   2.1322774000 -0.7924799312  0.4345315921
7
Iter 26 Image 5  Energy = -4188.0212661794
C   0.8663236462  0.8612350495 -0.0554486064
H   0.5792877383  1.4143061836 -0.9667561984
O   0.7400756298  1.3692067752  1.0321120462
C   1.2611885283 -0.5717637612 -0.0442384330
H   0.7431250151 -0.7008370028  0.9261623674
H   1.1655966603 -1.1495203348 -0.9702359610
H   2.2456443709 -0.7322598718  0.3723438550
7
Iter 26 Image 6  Energy = -4188.6389187744
C   0.8697093413  0.8885108416 -0.0078852317
H   0.6459076960  1.3544572179 -0.9867655235
O   0.7799118671  1.5318411041  1.0030948435
C   1.2501867049 -0.5602436807  0.0258479029
H   0.6813098703 -0.9713224004  0.8540886862
H   1.0776090365 -1.0961844166 -0.9043905611
H   2.2966070631 -0.6566917212  0.3099488676
7
Iter 26 Image 7  Energy = -4188.6805124155
C   0.8059407594  0.8712632998 -0.0182649030
H   0.7998368106  1.2868362452 -1.0447813126
O   0.4796414630  1.5442526261  0.9219140196
C   1.2743287980 -0.5480819343  0.0883505102
H   0.8648463485 -1.0153082234  0.9784720994
H   1.0147225613 -1.1139916269 -0.8025404697
H   2.3619248880 -0.5346035542  0.1707888800
7
Iter 26 Image 8  Energy = -4188.6819968244
C   0.7840367852  0.8656586589 -0.0371164025
H   0.9809293880  1.3403901038 -1.0231241499
O   0.1875804579  1.4681235287  0.8223429327
C   1.3100769769 -0.5359012779  0.1153731248
H   1.0639489065 -0.9236344469  1.1059940899
H   0.8779311114 -1.1816924395 -0.6582837811
H   2.3967379442 -0.5425772870 -0.0312469938
7
Iter 27 Image 0  Energy = -4188.2527480593
C   0.8260657415  0.5508603911 -0.1261794589
H   0.4554445983  1.2417513435 -0.8784317668
O   0.5680753083  1.0246514429  1.1187434847
C   1.4411098584 -0.5873603774 -0.4363613732
H   0.9099091373  0.3932317500  1.7666320721
H   1.5916834696 -0.8592929697 -1.4741885892
H   1.8089534565 -1.2734747403  0.3237244514
7
Iter 27 Image 1  Energy = -4188.1839511117
C   0.8488642478  0.5833846294 -0.1518816909
H   0.4612511075  1.2607319552 -0.8965086611
O   0.6640410884  1.0388600743  1.1133688269
C   1.4384587458 -0.5711071509 -0.4187040145
H   0.7898993014  0.2652244770  1.6703952239
H   1.4524448308 -0.9953897764 -1.4039423841
H   1.9462822671 -1.0913372914  0.3812116434
7
Iter 27 Image 2  Energy = -4187.8647548577
C   0.8644143420  0.6398250664 -0.1809429992
H   0.4991388378  1.3582858651 -0.8998115302
O   0.7167797234  1.0048265979  1.1237586418
C   1.3956486559 -0.5565009608 -0.3881169878
H   0.7944441969  0.1154104296  1.4960555961
H   1.3488402358 -1.1205082387 -1.2904442062
H   1.9819755973 -0.9509717480  0.4334405181
7
Iter 27 Image 3  Energy = -4186.7819072402
C   0.8653390826  0.7047638242 -0.1759272881
H   0.5343432227  1.4274978698 -0.9173313818
O   0.7301218504  0.9855388432  1.1301315592
C   1.3158334766 -0.5594292222 -0.2947476210
H   0.8025131409 -0.0765609706  1.2627253151
H   1.2840881669 -1.1671764347 -1.1603709912
H   2.0690026503 -0.8242668839  0.4494594381
7
Iter 27 Image 4  Energy = -4186.2541121638
C   0.8466061960  0.8014990740 -0.1072502872
H   0.5455868488  1.4474606747 -0.9372326361
O   0.7225057821  1.1986600353  1.0518371307
C   1.2344323096 -0.6014155324 -0.1310471049
H   0.8483620298 -0.4127551344  1.0774913961
H   1.2693914277 -1.1538674480 -1.0961298735
H   2.1343570066 -0.7892146258  0.4362703956
7
Iter 27 Image 5  Energy = -4188.0210268667
C   0.8647879856  0.8606417879 -0.0555448455
H   0.5796724845  1.4175106072 -0.9662403816
O   0.7320269225  1.3672742707  1.0316153689
C   1.2624242209 -0.5732263798 -0.0435532046
H   0.7459635859 -0.7036987541  0.9283850368
H   1.1677184012 -1.1486592940 -0.9729277316
H   2.2486479859 -0.7294751953  0.3722048279
7
Iter 27 Image 6  Energy = -4188.6401044300
C   0.8702523758  0.8885482279 -0.0081887708
H   0.6457027334  1.3517143630 -0.9875109874
O   0.7765311458  1.5336370525  1.0035417916
C   1.2518258488 -0.5589878810  0.0267182321
H   0.6819037480 -0.9714144132  0.8531533470
H   1.0769143780 -1.0941377783 -0.9030592227
H   2.2981113477 -0.6589926213  0.3092846062
7
Iter 27 Image 7  Energy = -4188.6804918966
C   0.8066719456  0.8706131014 -0.0190132957
H   0.8001770783  1.2872084084 -1.0438397769
O   0.4784798159  1.5446141756  0.9216898976
C   1.2747596096 -0.5476492266  0.0883740740
H   0.8652583272 -1.0154028079  0.9777877831
H   1.0137046159 -1.1138641414 -0.8015362205
H   2.3621902358 -0.5351526809  0.1704763625
7
Iter 27 Image 8  Energy = -4188.6819968244
C   0.7840367852  0.8656586589 -0.0371164025
H   0.9809293880  1.3403901038 -1.0231241499
O   0.1875804579  1.4681235287  0.8223429327
C   1.3100769769 -0.5359012779  0.1153731248
H   1.0639489065 -0.9236344469  1.1059940899
H   0.8779311114 -1.1816924395 -0.6582837811
H   2.3967379442 -0.5425772870 -0.0312469938
7
Iter 28 Image 0  Energy = -4188.2527480593
C   0.8260657415  0.5508603911 -0.1261794589
H   0.4554445983  1.2417513435 -0.8784317668
O   0.5680753083  1.0246514429  1.1187434847
C   1.4411098584 -0.5873603774 -0.4363613732
H   0.9099091373  0.3932317500  1.7666320721
H   1.5916834696 -0.8592929697 -1.4741885892
H   1.8089534565 -1.2734747403  0.3237244514
7
Iter 28 Image 1  Energy = -4188.1858003309
C   0.8483324059  0.5841686778 -0.1523095629
H   0.4639435383  1.2626937126 -0.8973296729
O   0.6608856508  1.0395935837  1.1126151343
C   1.4374420013 -0.5712693649 -0.4186409729
H   0.7998519794  0.2681313092  1.6693968038
H   1.4521856922 -0.9979676289 -1.4031819684
H   1.9386003220 -1.0949833573  0.3833891903
7
Iter 28 Image 2  Energy = -4187.8649670950
C   0.8632342970  0.6408381950 -0.1824409778
H   0.5007623742  1.3600148015 -0.9028204928
O   0.7159764201  1.0030516579  1.1233853220
C   1.3977037888 -0.5556176346 -0.3895985820
H   0.8008448817  0.1154156078  1.4978880390
H   1.3453454236 -1.1225755303 -1.2892390477
H   1.9773743963 -0.9507600709  0.4367647664
7
Iter 28 Image 3  Energy = -4186.7708066797
C   0.8607351087  0.7038354725 -0.1746316937
H   0.5354643524  1.4300194168 -0.9143524842
O   0.7207094682  0.9835336787  1.1293767961
C   1.3163668716 -0.5605214089 -0.2953033385
H   0.8107454862 -0.0794390117  1.2614123012
H   1.2884881759 -1.1648035123 -1.1629137608
H   2.0687321281 -0.8222575910  0.4503512024
7
Iter 28 Image 4  Energy = -4186.2473730466
C   0.8424885882  0.7983028813 -0.1085759042
H   0.5485359525  1.4486079716 -0.9340303469
O   0.7130068794  1.1976883771  1.0507859031
C   1.2375442837 -0.6025631995 -0.1324417114
H   0.8528642911 -0.4138907236  1.0799068665
H   1.2695492605 -1.1548831497 -1.0994372519
H   2.1372523509 -0.7828951198  0.4377314389
7
Iter 28 Image 5  Energy = -4188.0202628842
C   0.8601546896  0.8571305705 -0.0566627778
H   0.5820510530  1.4219648448 -0.9629096760
O   0.7171606021  1.3638971059  1.0298836648
C   1.2654052671 -0.5748674215 -0.0429405864
H   0.7511964434 -0.7082196535  0.9322244903
H   1.1712924399 -1.1467048158 -0.9768532940
H   2.2539810898 -0.7228335724  0.3711972448
7
Iter 28 Image 6  Energy = -4188.6413862577
C   0.8703074598  0.8910861934 -0.0044259800
H   0.6454753886  1.3470735902 -0.9893304405
O   0.7700294349  1.5348190063  1.0007867238
C   1.2549015977 -0.5576552481  0.0284899792
H   0.6826342589 -0.9722667125  0.8524594094
H   1.0764059942 -1.0902834702 -0.9020693879
H   2.3014874480 -0.6624064033  0.3080287063
7
Iter 28 Image 7  Energy = -4188.6805567315
C   0.8068849180  0.8717546535 -0.0176388029
H   0.8007397165  1.2882926666 -1.0431567687
O   0.4766891707  1.5437929889  0.9196208363
C   1.2758782696 -0.5473905621  0.0884189871
H   0.8657600196 -1.0152986593  0.9771261725
H   1.0118740946 -1.1139862636 -0.8002269019
H   2.3634154420 -0.5367980006  0.1697952946
7
Iter 28 Image 8  Energy = -4188.6819968244
C   0.7840367852  0.8656586589 -0.0371164025
H   0.9809293880  1.3403901038 -1.0231241499
O   0.1875804579  1.4681235287  0.8223429327
C   1.3100769769 -0.5359012779  0.1153731248
H   1.0639489065 -0.9236344469  1.1059940899
H   0.8779311114 -1.1816924395 -0.6582837811
H   2.3967379442 -0.5425772870 -0.0312469938
7
Iter 29 Image 0  Energy = -4188.2527480593
C   0.8260657415  0.5508603911 -0.1261794589
H   0.4554445983  1.2417513435 -0.8784317668
O   0.5680753083  1.0246514429  1.1187434847
C   1.4411098584 -0.5873603774 -0.4363613732
H   0.9099091373  0.3932317500  1.7666320721
H   1.5916834696 -0.8592929697 -1.4741885892
H   1.8089534565 -1.2734747403  0.3237244514
7
Iter 29 Image 1  Energy = -4188.1865970215
C   0.8484579910  0.5842351351 -0.1528721755
H   0.4648452595  1.2640009670 -0.8982411308
O   0.6597878214  1.0397797747  1.1122970912
C   1.4366104557 -0.5713181918 -0.4184477369
H   0.8042287208  0.2694105562  1.6694153697
H   1.4519533167 -0.9991351789 -1.4031295383
H   1.9353580241 -1.0966061187  0.3849170747
7
Iter 29 Image 2  Energy = -4187.8656359634
C   0.8634787720  0.6399964116 -0.1826518124
H   0.5016053954  1.3603548899 -0.9026159112
O   0.7149447297  1.0027767985  1.1228834111
C   1.3973086678 -0.5548276929 -0.3900731886
H   0.8041045115  0.1158575734  1.4980692998
H   1.3447982344 -1.1234513528 -1.2890167188
H   1.9750012682 -0.9503395935  0.4373439438
7
Iter 29 Image 3  Energy = -4186.7661926022
C   0.8593557110  0.7019731215 -0.1750793201
H   0.5362010966  1.4308602098 -0.9122200791
O   0.7179843605  0.9821388724  1.1286712807
C   1.3160922960 -0.5607656980 -0.2947687468
H   0.8128166465 -0.0804312427  1.2598236599
H   1.2895633675 -1.1638490683 -1.1634564962
H   2.0692281148 -0.8195591418  0.4509687219
7
Iter 29 Image 4  Energy = -4186.2457900590
C   0.8406065354  0.7981165824 -0.1070949791
H   0.5490986351  1.4494123864 -0.9343045170
O   0.7093430992  1.1951628867  1.0496626762
C   1.2382909846 -0.6019042595 -0.1332609001
H   0.8557746284 -0.4143834001  1.0798334532
H   1.2707691805 -1.1551215698 -1.0987806167
H   2.1373585428 -0.7809155870  0.4378838708
7
Iter 29 Image 5  Energy = -4188.0205473027
C   0.8573313074  0.8557104116 -0.0566436682
H   0.5834150689  1.4228985656 -0.9614197551
O   0.7111106516  1.3619953244  1.0292733420
C   1.2667111371 -0.5744429665 -0.0434358224
H   0.7540618404 -0.7097973109  0.9322423098
H   1.1731554233 -1.1461212846 -0.9769535666
H   2.2554561552 -0.7198756690  0.3708762171
7
Iter 29 Image 6  Energy = -4188.6434442124
C   0.8702196640  0.8900391095 -0.0062744937
H   0.6456015297  1.3455086174 -0.9897668145
O   0.7673453515  1.5376259561  1.0024500762
C   1.2559245969 -0.5574310439  0.0295009366
H   0.6828722293 -0.9735439283  0.8524190305
H   1.0761241908 -1.0885897814 -0.9020974645
H   2.3031540227 -0.6632419710  0.3077077435
7
Iter 29 Image 7  Energy = -4188.6807559601
C   0.8071788128  0.8716379742 -0.0182397852
H   0.8011749910  1.2886348309 -1.0433316578
O   0.4758280346  1.5444571451  0.9204677671
C   1.2761871262 -0.5474455077  0.0885132363
H   0.8657427724 -1.0156436634  0.9771317613
H   1.0111659825 -1.1140126110 -0.8001594475
H   2.3639639129 -0.5372613464  0.1695569398
7
Iter 29 Image 8  Energy = -4188.6819968244
C   0.7840367852  0.8656586589 -0.0371164025
H   0.9809293880  1.3403901038 -1.0231241499
O   0.1875804579  1.4681235287  0.8223429327
C   1.3100769769 -0.5359012779  0.1153731248
H   1.0639489065 -0.9236344469  1.1059940899
H   0.8779311114 -1.1816924395 -0.6582837811
H   2.3967379442 -0.5425772870 -0.0312469938
7
Iter 30 Image 0  Energy = -4188.2527480593
C   0.8260657415  0.5508603911 -0.1261794589
H   0.4554445983  1.2417513435 -0.8784317668
O   0.5680753083  1.0246514429  1.1187434847
C   1.4411098584 -0.5873603774 -0.4363613732
H   0.9099091373  0.3932317500  1.7666320721
H   1.5916834696 -0.8592929697 -1.4741885892
H   1.8089534565 -1.2734747403  0.3237244514
7
Iter 30 Image 1  Energy = -4188.1871138832
C   0.8487301662  0.5845252358 -0.1534935025
H   0.4652705114  1.2650886679 -0.8993202724
O   0.6594144797  1.0398445380  1.1121252117
C   1.4359866094 -0.5716416425 -0.4182080454
H   0.8074179596  0.2703456047  1.6696692238
H   1.4514016706 -0.9998827214 -1.4032656735
H   1.9330201911 -1.0979127294  0.3864320138
7
Iter 30 Image 2  Energy = -4187.8660866192
C   0.8637259310  0.6390088001 -0.1822429883
H   0.5024134419  1.3598925898 -0.9011447096
O   0.7136639061  1.0027415295  1.1224347384
C   1.3963209101 -0.5548458591 -0.3903135314
H   0.8056599097  0.1162798059  1.4977328614
H   1.3454749340 -1.1234054546 -1.2892239178
H   1.9739825434 -0.9493043689  0.4366965669
7
Iter 30 Image 3  Energy = -4186.7626246011
C   0.8586739575  0.6998221075 -0.1757713681
H   0.5369947868  1.4306629759 -0.9099623146
O   0.7172020843  0.9810303234  1.1276800511
C   1.3155068636 -0.5618764348 -0.2937240340
H   0.8125967927 -0.0805461936  1.2581034403
H   1.2896345111 -1.1626680746 -1.1634644840
H   2.0706326002 -0.8160576460  0.4510777281
7
Iter 30 Image 4  Energy = -4186.2446166372
C   0.8394296135  0.7984909034 -0.1059521496
H   0.5491781683  1.4494877204 -0.9355141176
O   0.7072934202  1.1925687282  1.0497350017
C   1.2382693828 -0.6007266055 -0.1337049149
H   0.8577623060 -0.4146352296  1.0792906228
H   1.2723854115 -1.1550786008 -1.0969886511
H   2.1369233031 -0.7797398729  0.4370731882
7
Iter 30 Image 5  Energy = -4188.0207735619
C   0.8547651651  0.8543450527 -0.0563280392
H   0.5849658091  1.4224543082 -0.9602269500
O   0.7072231230  1.3603403416  1.0288326242
C   1.2675345162 -0.5735510795 -0.0440870367
H   0.7563193496 -0.7101785698  0.9315415380
H   1.1743542908 -1.1458883281 -0.9760323741
H   2.2560793328 -0.7171546459  0.3702392828
7
Iter 30 Image 6  Energy = -4188.6443600825
C   0.8695790587  0.8898698620 -0.0061481530
H   0.6459301127  1.3448394479 -0.9900477948
O   0.7653993246  1.5388290236  1.0022705835
C   1.2564133287 -0.5578121713  0.0302270149
H   0.6830339663 -0.9750078975  0.8528926158
H   1.0764219063 -1.0873261776 -0.9027572390
H   2.3044638915 -0.6630251265  0.3075019854
7
Iter 30 Image 7  Energy = -4188.6807992330
C   0.8071176707  0.8720280468 -0.0182728640
H   0.8014767018  1.2889993082 -1.0438969576
O   0.4752141386  1.5447252809  0.9211319439
C   1.2764404964 -0.5476393992  0.0885791156
H   0.8656083761 -1.0157424917  0.9774990700
H   1.0108042406 -1.1141236868 -0.8004298867
H   2.3645800117 -0.5378802374  0.1693283903
7
Iter 30 Image 8  Energy = -4188.6819968244
C   0.7840367852  0.8656586589 -0.0371164025
H   0.9809293880  1.3403901038 -1.0231241499
O   0.1875804579  1.4681235287  0.8223429327
C   1.3100769769 -0.5359012779  0.1153731248
H   1.0639489065 -0.9236344469  1.1059940899
H   0.8779311114 -1.1816924395 -0.6582837811
H   2.3967379442 -0.5425772870 -0.0312469938
7
Iter 31 Image 0  Energy = -4188.2527480593
C   0.8260657415  0.5508603911 -0.1261794589
H   0.4554445983  1.2417513435 -0.8784317668
O   0.5680753083  1.0246514429  1.1187434847
C   1.4411098584 -0.5873603774 -0.4363613732
H   0.9099091373  0.3932317500  1.7666320721
H   1.5916834696 -0.8592929697 -1.4741885892
H   1.8089534565 -1.2734747403  0.3237244514
7
Iter 31 Image 1  Energy = -4188.1878718159
C   0.8490664111  0.5850553366 -0.1543284535
H   0.4663630647  1.2661971488 -0.9004192313
O   0.6590578621  1.0399277358  1.1113345843
C   1.4349392648 -0.5723102319 -0.4178956129
H   0.8125453420  0.2719400445  1.6699138838
H   1.4504066911 -1.0007963964 -1.4028390581
H   1.9288629526 -1.0996466611  0.3881728535
7
Iter 31 Image 2  Energy = -4187.8664462140
C   0.8632920628  0.6382691745 -0.1816172610
H   0.5033955783  1.3593911009 -0.8991178204
O   0.7116053932  1.0026569476  1.1219157064
C   1.3950297907 -0.5557195013 -0.3904676010
H   0.8073755770  0.1165746567  1.4974380688
H   1.3468656861 -1.1229016982 -1.2901486171
H   1.9736774884 -0.9479036233  0.4359365358
7
Iter 31 Image 3  Energy = -4186.7558796799
C   0.8573549498  0.6983092895 -0.1761854510
H   0.5377495707  1.4304380368 -0.9088029388
O   0.7158233550  0.9795099162  1.1271456283
C   1.3148780723 -0.5630273933 -0.2928119601
H   0.8120050709 -0.0816365707  1.2570458944
H   1.2901670698 -1.1618402339 -1.1633410368
H   2.0732635117 -0.8113859822  0.4508888678
7
Iter 31 Image 4  Energy = -4186.2420282757
C   0.8381044055  0.7986090664 -0.1060798156
H   0.5491185704  1.4492228661 -0.9369807218
O   0.7040114721  1.1895735418  1.0514182568
C   1.2377261189 -0.5996109928 -0.1338302539
H   0.8603807723 -0.4148290575  1.0786857380
H   1.2748188265 -1.1549568342 -1.0952434202
H   2.1370814441 -0.7776415479  0.4359692046
7
Iter 31 Image 5  Energy = -4188.0205812773
C   0.8518496989  0.8531067070 -0.0560659206
H   0.5868669441  1.4217380121 -0.9602952102
O   0.7006314011  1.3575242651  1.0300017559
C   1.2682562165 -0.5726978604 -0.0445635126
H   0.7600348305 -0.7105899907  0.9309922578
H   1.1762536429 -1.1460684844 -0.9749682108
H   2.2573488537 -0.7126455548  0.3688378561
7
Iter 31 Image 6  Energy = -4188.6456698647
C   0.8684389397  0.8892479331 -0.0058824229
H   0.6467227848  1.3436609187 -0.9902682316
O   0.7617056175  1.5402554928  1.0017391421
C   1.2570927506 -0.5581194212  0.0313104103
H   0.6838710218 -0.9772981247  0.8534634122
H   1.0772844341 -1.0850890150 -0.9033768216
H   2.3061260374 -0.6622908201  0.3069535293
7
Iter 31 Image 7  Energy = -4188.6808672866
C   0.8069592049  0.8727934158 -0.0177909184
H   0.8019189280  1.2896384333 -1.0443287399
O   0.4742076410  1.5443879467  0.9211316355
C   1.2768091242 -0.5476806770  0.0886155414
H   0.8656827062 -1.0154225240  0.9779897897
H   1.0103396793 -1.1141690272 -0.8004796965
H   2.3653243526 -0.5391807511  0.1688011968
7
Iter 31 Image 8  Energy = -4188.6819968244
C   0.7840367852  0.8656586589 -0.0371164025
H   0.9809293880  1.3403901038 -1.0231241499
O   0.1875804579  1.4681235287  0.8223429327
C   1.3100769769 -0.5359012779  0.1153731248
H   1.0639489065 -0.9236344469  1.1059940899
H   0.8779311114 -1.1816924395 -0.6582837811
H   2.3967379442 -0.5425772870 -0.0312469938
7
Iter 32 Image 0  Energy = -4188.2527480593
C   0.8260657415  0.5508603911 -0.1261794589
H   0.4554445983  1.2417513435 -0.8784317668
O   0.5680753083  1.0246514429  1.1187434847
C   1.4411098584 -0.5873603774 -0.4363613732
H   0.9099091373  0.3932317500  1.7666320721
H   1.5916834696 -0.8592929697 -1.4741885892
H   1.8089534565 -1.2734747403  0.3237244514
7
Iter 32 Image 1  Energy = -4188.1895002297
C   0.8500307279  0.5854217419 -0.1560104697
H   0.4697351793  1.2680453805 -0.9022183956
O   0.6587501493  1.0401314556  1.1093116649
C   1.4316360231 -0.5735239189 -0.4171806863
H   0.8249442250  0.2764925057  1.6697831725
H   1.4478595733 -1.0028710574 -1.4012599216
H   1.9182857126 -1.1033291123  0.3915136020
7
Iter 32 Image 2  Energy = -4187.8665423265
C   0.8616108112  0.6355087365 -0.1804234632
H   0.5046156688  1.3595950096 -0.8957952889
O   0.7066825910  1.0015089812  1.1219360751
C   1.3915269318 -0.5571927000 -0.3902193857
H   0.8099428214  0.1170655954  1.4970575549
H   1.3510654301 -1.1210440011 -1.2932956602
H   1.9757973243 -0.9450745289  0.4346791641
7
Iter 32 Image 3  Energy = -4186.7384525335
C   0.8543710075  0.6971090370 -0.1758392271
H   0.5380698464  1.4301612448 -0.9106140027
O   0.7120141975  0.9760664598  1.1279797379
C   1.3140062080 -0.5633701916 -0.2911033134
H   0.8106686743 -0.0855815196  1.2565628395
H   1.2926893130 -1.1620665362 -1.1622859282
H   2.0794223698 -0.8019514255  0.4492388793
7
Iter 32 Image 4  Energy = -4186.2332538536
C   0.8349443543  0.7991380524 -0.1036663224
H   0.5480945408  1.4484118106 -0.9395189151
O   0.6973505572  1.1827556971  1.0522834990
C   1.2369201893 -0.5986660319 -0.1340279492
H   0.8651732274 -0.4145575212  1.0781411832
H   1.2805007892 -1.1546177169 -1.0931891955
H   2.1382579507 -0.7720972592  0.4339166798
7
Iter 32 Image 5  Energy = -4188.0186881742
C   0.8461012529  0.8534617698 -0.0523263467
H   0.5901207704  1.4200362583 -0.9633349898
O   0.6847314577  1.3487468429  1.0318568919
C   1.2698354563 -0.5709280448 -0.0457351981
H   0.7685919281 -0.7115992043  0.9314411089
H   1.1810595211 -1.1476546016 -0.9728268737
H   2.2608012147 -0.7016959019  0.3648643684
7
Iter 32 Image 6  Energy = -4188.6481114796
C   0.8650561918  0.8897542507 -0.0015967826
H   0.6492557280  1.3405959435 -0.9908775584
O   0.7519361349  1.5406416860  0.9970410231
C   1.2585132345 -0.5584577674  0.0337653478
H   0.6871736606 -0.9833869709  0.8543895797
H   1.0800296039 -1.0795615370 -0.9040275293
H   2.3092770286 -0.6592186320  0.3052449438
7
Iter 32 Image 7  Energy = -4188.6799948385
C   0.8079403789  0.8720804041 -0.0199981026
H   0.8029927442  1.2911240196 -1.0441085580
O   0.4706015206  1.5448901025  0.9231328532
C   1.2775677973 -0.5472358492  0.0888061084
H   0.8663546111 -1.0138868556  0.9788953185
H   1.0093847383 -1.1138989364 -0.8000472082
H   2.3663998488 -0.5427060778  0.1672583799
7
Iter 32 Image 8  Energy = -4188.6819968244
C   0.7840367852  0.8656586589 -0.0371164025
H   0.9809293880  1.3403901038 -1.0231241499
O   0.1875804579  1.4681235287  0.8223429327
C   1.3100769769 -0.5359012779  0.1153731248
H   1.0639489065 -0.9236344469  1.1059940899
H   0.8779311114 -1.1816924395 -0.6582837811
H   2.3967379442 -0.5425772870 -0.0312469938
7
Iter 33 Image 0  Energy = -4188.2527480593
C   0.8260657415  0.5508603911 -0.1261794589
H   0.4554445983  1.2417513435 -0.8784317668
O   0.5680753083  1.0246514429  1.1187434847
C   1.4411098584 -0.5873603774 -0.4363613732
H   0.9099091373  0.3932317500  1.7666320721
H   1.5916834696 -0.8592929697 -1.4741885892
H   1.8089534565 -1.2734747403  0.3237244514
7
Iter 33 Image 1  Energy = -4188.1893962792
C   0.8497671221  0.5855649515 -0.1556963653
H   0.4696313989  1.2676123304 -0.9017964332
O   0.6589411508  1.0402363822  1.1093452527
C   1.4319355871 -0.5736950680 -0.4173141028
H   0.8238015098  0.2761072061  1.6697069408
H   1.4480300434 -1.0026178662 -1.4012463433
H   1.9191347786 -1.1028409409  0.3909400181
7
Iter 33 Image 2  Energy = -4187.8667313924
C   0.8611197895  0.6365098686 -0.1805500489
H   0.5042603714  1.3596504586 -0.8963614601
O   0.7071629420  1.0015638200  1.1220176232
C   1.3922771124 -0.5577294132 -0.3901876205
H   0.8091808493  0.1166474561  1.4974024367
H   1.3509495746 -1.1208890684 -1.2931258726
H   1.9762909410 -0.9453860326  0.4347439387
7
Iter 33 Image 3  Energy = -4186.7398523933
C   0.8545030764  0.6982441889 -0.1755837604
H   0.5376898967  1.4300044652 -0.9113293179
O   0.7122839329  0.9765159662  1.1282669535
C   1.3143640291 -0.5631590952 -0.2916278468
H   0.8107787755 -0.0854976904  1.2571653137
H   1.2927894293 -1.1624066585 -1.1620972088
H   2.0788324751 -0.8033341121  0.4491448507
7
Iter 33 Image 4  Energy = -4186.2348231992
C   0.8354699274  0.7985069935 -0.1057487524
H   0.5479901730  1.4482677789 -0.9388069204
O   0.6981333533  1.1845348077  1.0535425305
C   1.2370144876 -0.5990778411 -0.1337760762
H   0.8642070938 -0.4147088651  1.0785197225
H   1.2799115022 -1.1546224737 -1.0940306839
H   2.1385150730 -0.7725333721  0.4342391616
7
Iter 33 Image 5  Energy = -4188.0192242733
C   0.8471987398  0.8531817940 -0.0542263217
H   0.5895053171  1.4201273492 -0.9635037139
O   0.6860046179  1.3501071323  1.0333888235
C   1.2695805474 -0.5711377061 -0.0452929176
H   0.7677126962 -0.7114633612  0.9317544928
H   1.1806131607 -1.1477560515 -0.9732309926
H   2.2606265207 -0.7026920442  0.3650495959
7
Iter 33 Image 6  Energy = -4188.6488540641
C   0.8654203834  0.8886601624 -0.0035872001
H   0.6492203286  1.3407909952 -0.9907024276
O   0.7522718436  1.5412143070  0.9989403143
C   1.2583258432 -0.5581716347  0.0335531157
H   0.6872315489 -0.9829538805  0.8542458882
H   1.0799940234 -1.0800498040 -0.9038136891
H   2.3087776098 -0.6591231731  0.3053030221
7
Iter 33 Image 7  Energy = -4188.6810295007
C   0.8073046274  0.8731702226 -0.0180292648
H   0.8029525425  1.2910438283 -1.0440569765
O   0.4713069960  1.5435426818  0.9211168530
C   1.2775040620 -0.5472659937  0.0886966512
H   0.8664696731 -1.0137558017  0.9788231406
H   1.0095101824 -1.1138856214 -0.7998852678
H   2.3661935557 -0.5424825091  0.1672736580
7
Iter 33 Image 8  Energy = -4188.6819968244
C   0.7840367852  0.8656586589 -0.0371164025
H   0.9809293880  1.3403901038 -1.0231241499
O   0.1875804579  1.4681235287  0.8223429327
C   1.3100769769 -0.5359012779  0.1153731248
H   1.0639489065 -0.9236344469  1.1059940899
H   0.8779311114 -1.1816924395 -0.6582837811
H   2.3967379442 -0.5425772870 -0.0312469938
7
Iter 34 Image 0  Energy = -4188.2527480593
C   0.8260657415  0.5508603911 -0.1261794589
H   0.4554445983  1.2417513435 -0.8784317668
O   0.5680753083  1.0246514429  1.1187434847
C   1.4411098584 -0.5873603774 -0.4363613732
H   0.9099091373  0.3932317500  1.7666320721
H   1.5916834696 -0.8592929697 -1.4741885892
H   1.8089534565 -1.2734747403  0.3237244514
7
Iter 34 Image 1  Energy = -4188.1893708131
C   0.8496580761  0.5854526680 -0.1554598109
H   0.4698884764  1.2672303923 -0.9014268574
O   0.6592690318  1.0404302064  1.1092678539
C   1.4317398429 -0.5738190301 -0.4173733564
H   0.8235807762  0.2761818412  1.6695076721
H   1.4479520439 -1.0025406936 -1.4011147751
H   1.9191533442 -1.1025683926  0.3905382382
7
Iter 34 Image 2  Energy = -4187.8667344770
C   0.8604992568  0.6367844008 -0.1806206596
H   0.5037106750  1.3599692211 -0.8969517551
O   0.7072304050  1.0013320322  1.1223732684
C   1.3925500835 -0.5579425378 -0.3899524230
H   0.8081912605  0.1161794246  1.4977693273
H   1.3514625202 -1.1204360542 -1.2933729466
H   1.9775973816 -0.9455194006  0.4346941865
7
Iter 34 Image 3  Energy = -4186.7394897661
C   0.8545629583  0.6994508327 -0.1751813702
H   0.5369864714  1.4297810357 -0.9128662850
O   0.7122739899  0.9768324662  1.1289721894
C   1.3147086489 -0.5624055296 -0.2919815638
H   0.8107067727 -0.0858990414  1.2579259398
H   1.2933091457 -1.1631330367 -1.1616288401
H   2.0786936279 -0.8042596694  0.4486989118
7
Iter 34 Image 4  Energy = -4186.2347787342
C   0.8357029491  0.7980893262 -0.1063874282
H   0.5474910288  1.4480476269 -0.9381944048
O   0.6989388301  1.1856311671  1.0536294905
C   1.2371848271 -0.5996833758 -0.1336272497
H   0.8631970206 -0.4146331846  1.0790333176
H   1.2798082773 -1.1545648801 -1.0950165802
H   2.1389186777 -0.7725196565  0.4345018347
7
Iter 34 Image 5  Energy = -4188.0187630376
C   0.8478983104  0.8537477243 -0.0544736007
H   0.5888451560  1.4200430239 -0.9643169671
O   0.6863338343  1.3501542692  1.0339923883
C   1.2694490772 -0.5712121339 -0.0450516622
H   0.7673701650 -0.7113195051  0.9323913950
H   1.1805989392 -1.1481882169 -0.9734368126
H   2.2607461196 -0.7028580559  0.3648342269
7
Iter 34 Image 6  Energy = -4188.6489304772
C   0.8652788905  0.8884128476 -0.0038730613
H   0.6495396155  1.3407675255 -0.9906751175
O   0.7517178441  1.5408223552  0.9992713606
C   1.2581710433 -0.5578944257  0.0334603397
H   0.6878171244 -0.9832255359  0.8541284638
H   1.0803374811 -1.0801517095 -0.9035388955
H   2.3083795799 -0.6583640828  0.3051659326
7
Iter 34 Image 7  Energy = -4188.6810506752
C   0.8073512488  0.8730675381 -0.0178997297
H   0.8029866644  1.2910549643 -1.0437062992
O   0.4712382543  1.5431318883  0.9206271763
C   1.2774551495 -0.5471347428  0.0886576438
H   0.8666833830 -1.0133692104  0.9787871999
H   1.0095978214 -1.1137721018 -0.7996654478
H   2.3659291167 -0.5426115293  0.1671382479
7
Iter 34 Image 8  Energy = -4188.6819968244
C   0.7840367852  0.8656586589 -0.0371164025
H   0.9809293880  1.3403901038 -1.0231241499
O   0.1875804579  1.4681235287  0.8223429327
C   1.3100769769 -0.5359012779  0.1153731248
H   1.0639489065 -0.9236344469  1.1059940899
H   0.8779311114 -1.1816924395 -0.6582837811
H   2.3967379442 -0.5425772870 -0.0312469938
7
Iter 35 Image 0  Energy = -4188.2527480593
C   0.8260657415  0.5508603911 -0.1261794589
H   0.4554445983  1.2417513435 -0.8784317668
O   0.5680753083  1.0246514429  1.1187434847
C   1.4411098584 -0.5873603774 -0.4363613732
H   0.9099091373  0.3932317500  1.7666320721
H   1.5916834696 -0.8592929697 -1.4741885892
H   1.8089534565 -1.2734747403  0.3237244514
7
Iter 35 Image 1  Energy = -4188.1895814559
C   0.8495801151  0.5852303386 -0.1553008620
H   0.4709311161  1.2671129539 -0.9012918153
O   0.6599289426  1.0411625619  1.1089963971
C   1.4305557941 -0.5743097242 -0.4173233672
H   0.8254404685  0.2770646832  1.6691686977
H   1.4472981966 -1.0030011434 -1.4009603266
H   1.9175069575 -1.1028926846  0.3906502381
7
Iter 35 Image 2  Energy = -4187.8666210195
C   0.8590751136  0.6364942886 -0.1805327508
H   0.5026461164  1.3604128010 -0.8976072010
O   0.7064089565  1.0005358300  1.1230690362
C   1.3925854248 -0.5579441282 -0.3894643465
H   0.8064891321  0.1150540977  1.4985580772
H   1.3534961155 -1.1191534206 -1.2940911039
H   1.9805407275 -0.9450323783  0.4340072773
7
Iter 35 Image 3  Energy = -4186.7346585637
C   0.8542374663  0.7007548079 -0.1747008215
H   0.5354408511  1.4289774734 -0.9150037712
O   0.7116265499  0.9771453066  1.1299799816
C   1.3151860615 -0.5610374282 -0.2920813449
H   0.8104497875 -0.0871240141  1.2584796752
H   1.2949476595 -1.1641116936 -1.1604778559
H   2.0793532369 -0.8042374024  0.4477431306
7
Iter 35 Image 4  Energy = -4186.2330382711
C   0.8353846280  0.7972924283 -0.1064245055
H   0.5459125962  1.4475147161 -0.9373970756
O   0.7000046653  1.1865166946  1.0530391993
C   1.2377074189 -0.6004972850 -0.1337002214
H   0.8616714567 -0.4145085788  1.0801375884
H   1.2808272679 -1.1543246522 -1.0964587893
H   2.1397335793 -0.7716263174  0.4347427951
7
Iter 35 Image 5  Energy = -4188.0174158832
C   0.8476859034  0.8540997987 -0.0546797905
H   0.5879949123  1.4196107983 -0.9653330922
O   0.6844684694  1.3491354899  1.0346847471
C   1.2697371728 -0.5709605432 -0.0448793395
H   0.7681147584 -0.7111680103  0.9336485426
H   1.1815669772 -1.1490501877 -0.9733594593
H   2.2616734121 -0.7013002508  0.3638573562
7
Iter 35 Image 6  Energy = -4188.6496875754
C   0.8642802577  0.8878150037 -0.0042317706
H   0.6507487331  1.3401660949 -0.9909648922
O   0.7484405999  1.5404333038  0.9999209921
C   1.2581401934 -0.5573945292  0.0337265818
H   0.6896868032 -0.9852432841  0.8541629659
H   1.0815585195 -1.0795555432 -0.9032779315
H   2.3083864688 -0.6558540688  0.3046030678
7
Iter 35 Image 7  Energy = -4188.6810979566
C   0.8076195944  0.8727523112 -0.0180767599
H   0.8033583384  1.2913831569 -1.0431558966
O   0.4703696519  1.5425068843  0.9202855067
C   1.2775200047 -0.5469154183  0.0886090304
H   0.8671599589 -1.0123526058  0.9790054628
H   1.0094975380 -1.1135669776 -0.7992988325
H   2.3657165498 -0.5434405429  0.1665702757
7
Iter 35 Image 8  Energy = -4188.6819968244
C   0.7840367852  0.8656586589 -0.0371164025
H   0.9809293880  1.3403901038 -1.0231241499
O   0.1875804579  1.4681235287  0.8223429327
C   1.3100769769 -0.5359012779  0.1153731248
H   1.0639489065 -0.9236344469  1.1059940899
H   0.8779311114 -1.1816924395 -0.6582837811
H   2.3967379442 -0.5425772870 -0.0312469938
7
Iter 36 Image 0  Energy = -4188.2527480593
C   0.8260657415  0.5508603911 -0.1261794589
H   0.4554445983  1.2417513435 -0.8784317668
O   0.5680753083  1.0246514429  1.1187434847
C   1.4411098584 -0.5873603774 -0.4363613732
H   0.9099091373  0.3932317500  1.7666320721
H   1.5916834696 -0.8592929697 -1.4741885892
H   1.8089534565 -1.2734747403  0.3237244514
7
Iter 36 Image 1  Energy = -4188.1897622070
C   0.8489784276  0.5852263428 -0.1548638356
H   0.4724747351  1.2670415502 -0.9011673884
O   0.6616053965  1.0426456997  1.1091532620
C   1.4285184686 -0.5757161492 -0.4172893129
H   0.8275537273  0.2784118828  1.6686140329
H   1.4462066413 -1.0038901211 -1.4012268380
H   1.9159041923 -1.1033522253  0.3907190418
7
Iter 36 Image 2  Energy = -4187.8659311405
C   0.8562320848  0.6368502113 -0.1803416884
H   0.4999770499  1.3602714879 -0.8990418451
O   0.7051493160  0.9986195810  1.1244765194
C   1.3939323903 -0.5575134367 -0.3889343843
H   0.8022266055  0.1124537654  1.5000374846
H   1.3576239952 -1.1165075324 -1.2943541927
H   1.9861001491 -0.9438069814  0.4320970764
7
Iter 36 Image 3  Energy = -4186.7257372162
C   0.8537736848  0.7025656458 -0.1738878516
H   0.5317449878  1.4269682354 -0.9168100988
O   0.7114328866  0.9787143899  1.1303243272
C   1.3165348673 -0.5594705587 -0.2921980324
H   0.8098730190 -0.0884718657  1.2583987094
H   1.2980604407 -1.1649715604 -1.1586501955
H   2.0798217212 -0.8049672559  0.4467621498
7
Iter 36 Image 4  Energy = -4186.2295186541
C   0.8351952031  0.7956134938 -0.1079841066
H   0.5419575380  1.4461769767 -0.9354025150
O   0.7042181338  1.1896432242  1.0524486976
C   1.2389882459 -0.6019406044 -0.1338911336
H   0.8573098699 -0.4145063967  1.0824382399
H   1.2826920186 -1.1536395365 -1.0992910101
H   2.1408806054 -0.7709801781  0.4356208427
7
Iter 36 Image 5  Energy = -4188.0148141256
C   0.8470338336  0.8537737031 -0.0550559088
H   0.5853071674  1.4190611327 -0.9653609250
O   0.6838267300  1.3488246066  1.0335778391
C   1.2703605789 -0.5710857593 -0.0443859226
H   0.7683624385 -0.7104695636  0.9357520242
H   1.1831708081 -1.1499811346 -0.9734031504
H   2.2631800512 -0.6997559234  0.3628150166
7
Iter 36 Image 6  Energy = -4188.6509226134
C   0.8619890411  0.8883953375 -0.0025162711
H   0.6531141339  1.3394642284 -0.9920313950
O   0.7424804372  1.5379284404  0.9996516881
C   1.2579720529 -0.5566297522  0.0338058346
H   0.6933231024 -0.9891842633  0.8542597906
H   1.0838309817 -1.0794175835 -0.9028781548
H   2.3085318208 -0.6501894210  0.3036475158
7
Iter 36 Image 7  Energy = -4188.6810345820
C   0.8078436050  0.8726209978 -0.0177700251
H   0.8042060661  1.2919637851 -1.0424531823
O   0.4690247906  1.5410083308  0.9194260007
C   1.2776208349 -0.5467563133  0.0884573709
H   0.8679039847 -1.0105016942  0.9796091805
H   1.0091842061 -1.1133744952 -0.7988896448
H   2.3654581477 -0.5445938037  0.1655590778
7
Iter 36 Image 8  Energy = -4188.6819968244
C   0.7840367852  0.8656586589 -0.0371164025
H   0.9809293880  1.3403901038 -1.0231241499
O   0.1875804579  1.4681235287  0.8223429327
C   1.3100769769 -0.5359012779  0.1153731248
H   1.0639489065 -0.9236344469  1.1059940899
H   0.8779311114 -1.1816924395 -0.6582837811
H   2.3967379442 -0.5425772870 -0.0312469938
7
Iter 37 Image 0  Energy = -4188.2527480593
C   0.8260657415  0.5508603911 -0.1261794589
H   0.4554445983  1.2417513435 -0.8784317668
O   0.5680753083  1.0246514429  1.1187434847
C   1.4411098584 -0.5873603774 -0.4363613732
H   0.9099091373  0.3932317500  1.7666320721
H   1.5916834696 -0.8592929697 -1.4741885892
H   1.8089534565 -1.2734747403  0.3237244514
7
Iter 37 Image 1  Energy = -4188.1898442230
C   0.8487794270  0.5849420997 -0.1547205964
H   0.4730581476  1.2673213059 -0.9013685448
O   0.6626629642  1.0435306521  1.1093791980
C   1.4271970802 -0.5762296233 -0.4171740554
H   0.8284189433  0.2789952987  1.6685349363
H   1.4456104434 -1.0044596750 -1.4015691591
H   1.9155145825 -1.1037330741  0.3908571831
7
Iter 37 Image 2  Energy = -4187.8655411920
C   0.8552597232  0.6363482621 -0.1800688464
H   0.4981555669  1.3596230989 -0.8996140118
O   0.7042790541  0.9975438233  1.1252152440
C   1.3948309739 -0.5560808248 -0.3887068171
H   0.7996706162  0.1108860526  1.5004984473
H   1.3601010745 -1.1151525082 -1.2942331117
H   1.9889445843 -0.9428008108  0.4308480607
7
Iter 37 Image 3  Energy = -4186.7207858881
C   0.8537521991  0.7022171279 -0.1739612266
H   0.5293493429  1.4258541977 -0.9163403296
O   0.7119797867  0.9800675537  1.1298322097
C   1.3170557789 -0.5589838628 -0.2917413307
H   0.8092586005 -0.0888282423  1.2575546623
H   1.2996688436 -1.1648220166 -1.1583248601
H   2.0801770532 -0.8051377444  0.4469198882
7
Iter 37 Image 4  Energy = -4186.2277339643
C   0.8352692025  0.7951764339 -0.1075069440
H   0.5390894517  1.4453151225 -0.9346750422
O   0.7076344661  1.1908016525  1.0510534562
C   1.2395409273 -0.6024707230 -0.1340926122
H   0.8545710126 -0.4142981647  1.0833386423
H   1.2840442980 -1.1530891066 -1.1004189974
H   2.1410922564 -0.7710682503  0.4362405237
7
Iter 37 Image 5  Energy = -4188.0133981577
C   0.8463790775  0.8527826815 -0.0558699705
H   0.5833212339  1.4187719346 -0.9644246701
O   0.6845323337  1.3496270412  1.0325257117
C   1.2707638995 -0.5715197527 -0.0440605933
H   0.7681943732 -0.7099751119  0.9365298030
H   1.1841434216 -1.1500280095 -0.9734704644
H   2.2639072694 -0.6992917488  0.3627091651
7
Iter 37 Image 6  Energy = -4188.6518611482
C   0.8606581502  0.8876405704 -0.0033908814
H   0.6545175818  1.3391918948 -0.9925784754
O   0.7386639688  1.5375889027  1.0013378406
C   1.2579639027 -0.5562797172  0.0339204380
H   0.6954082129 -0.9915649014  0.8543809124
H   1.0850982502 -1.0796235085 -0.9028593333
H   2.3089315000 -0.6465862465  0.3031285048
7
Iter 37 Image 7  Energy = -4188.6811700335
C   0.8082340930  0.8720612126 -0.0185536364
H   0.8047894196  1.2922997177 -1.0422387818
O   0.4679883334  1.5408607515  0.9201164526
C   1.2776869238 -0.5467492101  0.0884006198
H   0.8681692344 -1.0096033462  0.9800751603
H   1.0088544992 -1.1134026627 -0.7988864377
H   2.3655191310 -0.5450996584  0.1650253946
7
Iter 37 Image 8  Energy = -4188.6819968244
C   0.7840367852  0.8656586589 -0.0371164025
H   0.9809293880  1.3403901038 -1.0231241499
O   0.1875804579  1.4681235287  0.8223429327
C   1.3100769769 -0.5359012779  0.1153731248
H   1.0639489065 -0.9236344469  1.1059940899
H   0.8779311114 -1.1816924395 -0.6582837811
H   2.3967379442 -0.5425772870 -0.0312469938
7
Iter 38 Image 0  Energy = -4188.2527480593
C   0.8260657415  0.5508603911 -0.1261794589
H   0.4554445983  1.2417513435 -0.8784317668
O   0.5680753083  1.0246514429  1.1187434847
C   1.4411098584 -0.5873603774 -0.4363613732
H   0.9099091373  0.3932317500  1.7666320721
H   1.5916834696 -0.8592929697 -1.4741885892
H   1.8089534565 -1.2734747403  0.3237244514
7
Iter 38 Image 1  Energy = -4188.1897685400
C   0.8484141839  0.5847159188 -0.1546053084
H   0.4732623242  1.2678972187 -0.9018031417
O   0.6642992491  1.0445749132  1.1099070443
C   1.4256863491 -0.5769422655 -0.4170100089
H   0.8283716237  0.2793342039  1.6687952986
H   1.4449652717 -1.0050861414 -1.4021995001
H   1.9162425868 -1.1041268534  0.3908545801
7
Iter 38 Image 2  Energy = -4187.8648594341
C   0.8545155172  0.6359389789 -0.1795203893
H   0.4952285966  1.3576595872 -0.8999023658
O   0.7031347042  0.9961661975  1.1260739579
C   1.3969338647 -0.5535553982 -0.3887792983
H   0.7959099884  0.1087168360  1.5004708076
H   1.3634019305 -1.1134862793 -1.2934502990
H   1.9921169939 -0.9410728405  0.4290465508
7
Iter 38 Image 3  Energy = -4186.7148525810
C   0.8540416095  0.7005733703 -0.1745091209
H   0.5256685158  1.4243762881 -0.9136580235
O   0.7141374335  0.9825250522  1.1279902528
C   1.3176172028 -0.5596282109 -0.2907235358
H   0.8078766269 -0.0884726014  1.2554558680
H   1.3014039881 -1.1635726994 -1.1588478416
H   2.0804962240 -0.8054342188  0.4482314160
7
Iter 38 Image 4  Energy = -4186.2255259699
C   0.8360188042  0.7951165635 -0.1069127652
H   0.5343954436  1.4438295696 -0.9340771349
O   0.7139424252  1.1924083679  1.0493309205
C   1.2399321142 -0.6027966302 -0.1342615644
H   0.8503171951 -0.4138990825  1.0838237177
H   1.2860310381 -1.1520899487 -1.1013039054
H   2.1406045947 -0.7722018900  0.4373397754
7
Iter 38 Image 5  Energy = -4188.0113427213
C   0.8454728132  0.8508325816 -0.0569281165
H   0.5796605691  1.4184320305 -0.9620174363
O   0.6881821637  1.3521107339  1.0297475330
C   1.2711978947 -0.5726775652 -0.0435473995
H   0.7670068386 -0.7090836942  0.9369200501
H   1.1853161880 -1.1493608107 -0.9737688781
H   2.2644051411 -0.6998862875  0.3635332475
7
Iter 38 Image 6  Energy = -4188.6526740512
C   0.8585836590  0.8873128239 -0.0034455932
H   0.6563169406  1.3392727629 -0.9933795696
O   0.7338009574  1.5364419989  1.0028066378
C   1.2580311298 -0.5561348278  0.0338601428
H   0.6980512208 -0.9946260992  0.8545840504
H   1.0866626150 -1.0805843123 -0.9030083990
H   2.3097950401 -0.6413153412  0.3025217376
7
Iter 38 Image 7  Energy = -4188.6812033525
C   0.8083602824  0.8719866366 -0.0187983021
H   0.8057185837  1.2927266084 -1.0423844219
O   0.4669778016  1.5403452966  0.9207488751
C   1.2777741056 -0.5469750221  0.0882769337
H   0.8683101135 -1.0086662704  0.9808458328
H   1.0082406096 -1.1136850305 -0.7991536941
H   2.3658601365 -0.5453654205  0.1644035370
7
Iter 38 Image 8  Energy = -4188.6819968244
C   0.7840367852  0.8656586589 -0.0371164025
H   0.9809293880  1.3403901038 -1.0231241499
O   0.1875804579  1.4681235287  0.8223429327
C   1.3100769769 -0.5359012779  0.1153731248
H   1.0639489065 -0.9236344469  1.1059940899
H   0.8779311114 -1.1816924395 -0.6582837811
H   2.3967379442 -0.5425772870 -0.0312469938
7
Iter 39 Image 0  Energy = -4188.2527480593
C   0.8260657415  0.5508603911 -0.1261794589
H   0.4554445983  1.2417513435 -0.8784317668
O   0.5680753083  1.0246514429  1.1187434847
C   1.4411098584 -0.5873603774 -0.4363613732
H   0.9099091373  0.3932317500  1.7666320721
H   1.5916834696 -0.8592929697 -1.4741885892
H   1.8089534565 -1.2734747403  0.3237244514
7
Iter 39 Image 1  Energy = -4188.1896177253
C   0.8481122080  0.5847273769 -0.1547332563
H   0.4730790563  1.2683901482 -0.9021442573
O   0.6663266540  1.0452135242  1.1101379043
C   1.4243982845 -0.5777443648 -0.4168183089
H   0.8276583843  0.2795503268  1.6694946851
H   1.4442186488 -1.0054230871 -1.4023474136
H   1.9174483494 -1.1043469161  0.3903496073
7
Iter 39 Image 2  Energy = -4187.8640468439
C   0.8542047523  0.6358656265 -0.1786261670
H   0.4912566422  1.3544801968 -0.8990375998
O   0.7014337207  0.9950512522  1.1268467290
C   1.4000988223 -0.5512167834 -0.3891476871
H   0.7916284239  0.1064762913  1.4992231622
H   1.3672529989 -1.1116656157 -1.2929534839
H   1.9953662405 -0.9386238976  0.4276340096
7
Iter 39 Image 3  Energy = -4186.7068243122
C   0.8547575335  0.6987553271 -0.1751889889
H   0.5209506661  1.4229636387 -0.9106616665
O   0.7185350524  0.9852187157  1.1258413972
C   1.3176509785 -0.5617710561 -0.2891296217
H   0.8049609215 -0.0879671375  1.2529892391
H   1.3029112876 -1.1616078404 -1.1602538053
H   2.0814751551 -0.8052246977  0.4503424747
7
Iter 39 Image 4  Energy = -4186.2233066133
C   0.8379717302  0.7956815866 -0.1072622466
H   0.5281357133  1.4413823051 -0.9342339114
O   0.7223453251  1.1939923863  1.0493124515
C   1.2393317428 -0.6028353910 -0.1339615156
H   0.8455432568 -0.4131012690  1.0827349198
H   1.2888762417 -1.1505766621 -1.1014467614
H   2.1390376020 -0.7741760300  0.4387961319
7
Iter 39 Image 5  Energy = -4188.0086379966
C   0.8452483847  0.8493303731 -0.0578165215
H   0.5741580842  1.4173938052 -0.9602433450
O   0.6946045990  1.3553676639  1.0273152098
C   1.2712354074 -0.5740644808 -0.0429428930
H   0.7649142063 -0.7080736440  0.9366972122
H   1.1868733340 -1.1483512413 -0.9743797436
H   2.2642075934 -0.7012355367  0.3653091133
7
Iter 39 Image 6  Energy = -4188.6536684951
C   0.8557787163  0.8866849150 -0.0030422850
H   0.6583468165  1.3396707710 -0.9937670743
O   0.7278147434  1.5350027421  1.0036018103
C   1.2583912055 -0.5562952133  0.0338342332
H   0.7011280964 -0.9981048651  0.8548325966
H   1.0885968157 -1.0817065300 -0.9032004385
H   2.3111851657 -0.6348848002  0.3016801549
7
Iter 39 Image 7  Energy = -4188.6810915342
C   0.8084832154  0.8718898715 -0.0192521486
H   0.8069736423  1.2932728527 -1.0426557534
O   0.4657477777  1.5398941061  0.9217807664
C   1.2778759170 -0.5472217040  0.0881263187
H   0.8684094220 -1.0077695481  0.9817247570
H   1.0073519126 -1.1141628057 -0.7994376730
H   2.3663997448 -0.5455359785  0.1636524864
7
Iter 39 Image 8  Energy = -4188.6819968244
C   0.7840367852  0.8656586589 -0.0371164025
H   0.9809293880  1.3403901038 -1.0231241499
O   0.1875804579  1.4681235287  0.8223429327
C   1.3100769769 -0.5359012779  0.1153731248
H   1.0639489065 -0.9236344469  1.1059940899
H   0.8779311114 -1.1816924395 -0.6582837811
H   2.3967379442 -0.5425772870 -0.0312469938
7
Iter 40 Image 0  Energy = -4188.2527480593
C   0.8260657415  0.5508603911 -0.1261794589
H   0.4554445983  1.2417513435 -0.8784317668
O   0.5680753083  1.0246514429  1.1187434847
C   1.4411098584 -0.5873603774 -0.4363613732
H   0.9099091373  0.3932317500  1.7666320721
H   1.5916834696 -0.8592929697 -1.4741885892
H   1.8089534565 -1.2734747403  0.3237244514
7
Iter 40 Image 1  Energy = -4188.1893196574
C   0.8483734891  0.5839406401 -0.1550916745
H   0.4725334235  1.2688933387 -0.9024693096
O   0.6705664673  1.0461868997  1.1100962852
C   1.4217429098 -0.5784467379 -0.4163900581
H   0.8267539656  0.2805034258  1.6708311483
H   1.4422897307 -1.0059941964 -1.4019693481
H   1.9189815898 -1.1047163200  0.3889319228
7
Iter 40 Image 2  Energy = -4187.8616564146
C   0.8543580448  0.6341429539 -0.1768248385
H   0.4811055915  1.3482573392 -0.8963413928
O   0.6971971944  0.9930471725  1.1283607164
C   1.4064226201 -0.5466413183 -0.3892605651
H   0.7823482982  0.1019019052  1.4953780558
H   1.3762115901 -1.1074704662 -1.2939653646
H   2.0035982662 -0.9328705572  0.4265923614
7
Iter 40 Image 3  Energy = -4186.6827167442
C   0.8575020574  0.6963561279 -0.1766214194
H   0.5099759695  1.4191943940 -0.9081818217
O   0.7298642027  0.9901551587  1.1243813601
C   1.3160891255 -0.5648777564 -0.2850084420
H   0.7971543205 -0.0883516226  1.2482532154
H   1.3065512398 -1.1581316559 -1.1621725369
H   2.0841046872 -0.8039777754  0.4532887253
7
Iter 40 Image 4  Energy = -4186.2152465677
C   0.8428749291  0.7976645564 -0.1046357010
H   0.5135247148  1.4350825033 -0.9351934039
O   0.7421147108  1.1958579259  1.0480406267
C   1.2371730052 -0.6030068601 -0.1336707076
H   0.8352810344 -0.4103983037  1.0783199747
H   1.2960198289 -1.1468995631 -1.1015662280
H   2.1342533722 -0.7779333763  0.4426445636
7
Iter 40 Image 5  Energy = -4188.0032514206
C   0.8465369275  0.8489371147 -0.0590300667
H   0.5603067141  1.4128126681 -0.9597370665
O   0.7103338955  1.3608218552  1.0252239770
C   1.2707457003 -0.5754073419 -0.0420274716
H   0.7596187900 -0.7064145086  0.9356029198
H   1.1913294632 -1.1466383090 -0.9756519589
H   2.2623701302 -0.7037446608  0.3695587730
7
Iter 40 Image 6  Energy = -4188.6561960003
C   0.8489563238  0.8847599400 -0.0016659738
H   0.6628586309  1.3401806004 -0.9937040095
O   0.7125572790  1.5316599051  1.0037272215
C   1.2596779393 -0.5566262985  0.0343055119
H   0.7087138243 -1.0064847427  0.8553709314
H   1.0937605672 -1.0830086948 -0.9032979048
H   2.3147169878 -0.6201136509  0.2992032078
7
Iter 40 Image 7  Energy = -4188.6799098423
C   0.8073454497  0.8743773287 -0.0158322204
H   0.8102233100  1.2948453376 -1.0430249563
O   0.4637984912  1.5357930150  0.9194564624
C   1.2781995354 -0.5476705594  0.0876715328
H   0.8691514649 -1.0054803878  0.9833792095
H   1.0051923331 -1.1151735882 -0.7991741377
H   2.3673310394 -0.5463243620  0.1614628309
7
Iter 40 Image 8  Energy = -4188.6819968244
C   0.7840367852  0.8656586589 -0.0371164025
H   0.9809293880  1.3403901038 -1.0231241499
O   0.1875804579  1.4681235287  0.8223429327
C   1.3100769769 -0.5359012779  0.1153731248
H   1.0639489065 -0.9236344469  1.1059940899
H   0.8779311114 -1.1816924395 -0.6582837811
H   2.3967379442 -0.5425772870 -0.0312469938
7
Iter 41 Image 0  Energy = -4188.2527480593
C   0.8260657415  0.5508603911 -0.1261794589
H   0.4554445983  1.2417513435 -0.8784317668
O   0.5680753083  1.0246514429  1.1187434847
C   1.4411098584 -0.5873603774 -0.4363613732
H   0.9099091373  0.3932317500  1.7666320721
H   1.5916834696 -0.8592929697 -1.4741885892
H   1.8089534565 -1.2734747403  0.3237244514
7
Iter 41 Image 1  Energy = -4188.1893905422
C   0.8483652917  0.5845096608 -0.1552681616
H   0.4719705783  1.2686182456 -0.9022570569
O   0.6711453809  1.0458443643  1.1097489421
C   1.4222156972 -0.5788218437 -0.4164739142
H   0.8260226550  0.2804388170  1.6713355945
H   1.4420309005 -1.0057023233 -1.4014607332
H   1.9194910694 -1.1045198631  0.3883142951
7
Iter 41 Image 2  Energy = -4187.8615719995
C   0.8545806653  0.6349221105 -0.1765544123
H   0.4789727752  1.3465613371 -0.8948114609
O   0.6964883106  0.9931107928  1.1282366261
C   1.4082428981 -0.5473925370 -0.3895905797
H   0.7811306051  0.1015760053  1.4937831750
H   1.3774972334 -1.1068222365 -1.2944392380
H   2.0043291191 -0.9315884551  0.4273148695
7
Iter 41 Image 3  Energy = -4186.6779907888
C   0.8582320373  0.6968734557 -0.1762615264
H   0.5080317029  1.4184482242 -0.9082896821
O   0.7335004411  0.9904822819  1.1241895588
C   1.3153748478 -0.5666515426 -0.2844406459
H   0.7948638553 -0.0883003421  1.2474397951
H   1.3066712558 -1.1571380080 -1.1625982757
H   2.0845674634 -0.8033472077  0.4538998769
7
Iter 41 Image 4  Energy = -4186.2155890709
C   0.8445203418  0.7981626918 -0.1067929411
H   0.5108509701  1.4332768293 -0.9356758143
O   0.7461473322  1.1965844260  1.0510098933
C   1.2359599581 -0.6026689812 -0.1332735740
H   0.8338644237 -0.4099577372  1.0760476359
H   1.2975122454 -1.1460567130 -1.1009548571
H   2.1323863186 -0.7789736424  0.4435787927
7
Iter 41 Image 5  Energy = -4188.0029807857
C   0.8476756395  0.8498395134 -0.0585161866
H   0.5569103000  1.4111424712 -0.9606713720
O   0.7153011090  1.3617726109  1.0256249360
C   1.2701820602 -0.5752999289 -0.0421108835
H   0.7578653281 -0.7062604076  0.9344558075
H   1.1922843301 -1.1460710964 -0.9759681380
H   2.2610228560 -0.7047563603  0.3711249617
7
Iter 41 Image 6  Energy = -4188.6566306672
C   0.8476278858  0.8842581747 -0.0010768341
H   0.6633326321  1.3404073491 -0.9931792755
O   0.7097750828  1.5311102050  1.0028737176
C   1.2602136889 -0.5569144516  0.0345071514
H   0.7098974463 -1.0077164407  0.8554598859
H   1.0947370000 -1.0830402876 -0.9032873915
H   2.3156578171 -0.6177374848  0.2986417239
7
Iter 41 Image 7  Energy = -4188.6813644788
C   0.8081375709  0.8729703468 -0.0181710755
H   0.8108912676  1.2951149919 -1.0428677536
O   0.4625655472  1.5369798021  0.9217097656
C   1.2782196807 -0.5475465170  0.0877120270
H   0.8692520702 -1.0053974642  0.9835088752
H   1.0046625892 -1.1154164529 -0.7990265945
H   2.3675128954 -0.5463379239  0.1610734726
7
Iter 41 Image 8  Energy = -4188.6819968244
C   0.7840367852  0.8656586589 -0.0371164025
H   0.9809293880  1.3403901038 -1.0231241499
O   0.1875804579  1.4681235287  0.8223429327
C   1.3100769769 -0.5359012779  0.1153731248
H   1.0639489065 -0.9236344469  1.1059940899
H   0.8779311114 -1.1816924395 -0.6582837811
H   2.3967379442 -0.5425772870 -0.0312469938
7
Iter 42 Image 0  Energy = -4188.2527480593
C   0.8260657415  0.5508603911 -0.1261794589
H   0.4554445983  1.2417513435 -0.8784317668
O   0.5680753083  1.0246514429  1.1187434847
C   1.4411098584 -0.5873603774 -0.4363613732
H   0.9099091373  0.3932317500  1.7666320721
H   1.5916834696 -0.8592929697 -1.4741885892
H   1.8089534565 -1.2734747403  0.3237244514
7
Iter 42 Image 1  Energy = -4188.1895253381
C   0.8487580808  0.5848475585 -0.1553382258
H   0.4713060905  1.2678599564 -0.9017299394
O   0.6704687190  1.0451537400  1.1092615861
C   1.4235981210 -0.5784061218 -0.4166991610
H   0.8256886805  0.2802845049  1.6713740684
H   1.4421639603 -1.0052030718 -1.4009024061
H   1.9192579200 -1.1041695105  0.3879730460
7
Iter 42 Image 2  Energy = -4187.8616364321
C   0.8552565348  0.6352370388 -0.1769637713
H   0.4784552281  1.3468046318 -0.8937166318
O   0.6968452036  0.9938700532  1.1275514091
C   1.4081378984 -0.5493988967 -0.3894606628
H   0.7821995803  0.1024874287  1.4927084370
H   1.3768187824 -1.1071019986 -1.2955864449
H   2.0035283768 -0.9315312503  0.4294066544
7
Iter 42 Image 3  Energy = -4186.6776910445
C   0.8589691483  0.6988088645 -0.1753962395
H   0.5084714284  1.4179491417 -0.9109387659
O   0.7353759753  0.9892627445  1.1259986859
C   1.3142431313 -0.5665146715 -0.2846899658
H   0.7939441228 -0.0888454767  1.2478688266
H   1.3060892283 -1.1574473139 -1.1618040988
H   2.0841485733 -0.8028464223  0.4529006775
7
Iter 42 Image 4  Energy = -4186.2155474222
C   0.8452459129  0.7984400181 -0.1078876155
H   0.5114036900  1.4325157084 -0.9359469108
O   0.7463707147  1.1962574684  1.0535567957
C   1.2349428587 -0.6022877658 -0.1333405362
H   0.8348508566 -0.4097896740  1.0738559490
H   1.2976130099 -1.1459713133 -1.1004055583
H   2.1308145417 -0.7787975639  0.4441070070
7
Iter 42 Image 5  Energy = -4188.0042680672
C   0.8494973107  0.8520353001 -0.0576745426
H   0.5558257523  1.4092192202 -0.9630597898
O   0.7179743360  1.3609063067  1.0283300239
C   1.2694314576 -0.5739148065 -0.0427439577
H   0.7566729061 -0.7067698185  0.9329241627
H   1.1926964014 -1.1460012090 -0.9759360939
H   2.2591434601 -0.7051081769  0.3720993273
7
Iter 42 Image 6  Energy = -4188.6566872916
C   0.8477264626  0.8837684419 -0.0010185936
H   0.6626147086  1.3402459960 -0.9922732002
O   0.7094949427  1.5315212663  1.0016546010
C   1.2607317382 -0.5570269307  0.0348899011
H   0.7096829857 -1.0073277230  0.8554114041
H   1.0949711947 -1.0821517087 -0.9030756866
H   2.3160195233 -0.6186622798  0.2983505521
7
Iter 42 Image 7  Energy = -4188.6813760272
C   0.8083989893  0.8725225191 -0.0187863453
H   0.8110713387  1.2952168343 -1.0424958106
O   0.4622792136  1.5374065733  0.9218984795
C   1.2782041175 -0.5472787932  0.0877886267
H   0.8694523078 -1.0057556510  0.9830746376
H   1.0045187427 -1.1154118556 -0.7984579759
H   2.3673169087 -0.5463328440  0.1609171027
7
Iter 42 Image 8  Energy = -4188.6819968244
C   0.7840367852  0.8656586589 -0.0371164025
H   0.9809293880  1.3403901038 -1.0231241499
O   0.1875804579  1.4681235287  0.8223429327
C   1.3100769769 -0.5359012779  0.1153731248
H   1.0639489065 -0.9236344469  1.1059940899
H   0.8779311114 -1.1816924395 -0.6582837811
H   2.3967379442 -0.5425772870 -0.0312469938
7
Iter 43 Image 0  Energy = -4188.2527480593
C   0.8260657415  0.5508603911 -0.1261794589
H   0.4554445983  1.2417513435 -0.8784317668
O   0.5680753083  1.0246514429  1.1187434847
C   1.4411098584 -0.5873603774 -0.4363613732
H   0.9099091373  0.3932317500  1.7666320721
H   1.5916834696 -0.8592929697 -1.4741885892
H   1.8089534565 -1.2734747403  0.3237244514
7
Iter 43 Image 1  Energy = -4188.1896935573
C   0.8492716919  0.5848127461 -0.1552078926
H   0.4704063710  1.2669683100 -0.9011865373
O   0.6695232242  1.0448433012  1.1091284795
C   1.4250975322 -0.5775810402 -0.4169883830
H   0.8253643603  0.2800645065  1.6711192130
H   1.4423940820 -1.0048705737 -1.4009061999
H   1.9191843096 -1.1038701964  0.3879802929
7
Iter 43 Image 2  Energy = -4187.8614881656
C   0.8559148091  0.6349661353 -0.1777229917
H   0.4776010666  1.3475116240 -0.8934518620
O   0.6979107871  0.9944427765  1.1267789810
C   1.4075403873 -0.5508343514 -0.3889578323
H   0.7830309469  0.1031266806  1.4922132604
H   1.3762602558 -1.1073013497 -1.2964666805
H   2.0029833523 -0.9315445210  0.4315461266
7
Iter 43 Image 3  Energy = -4186.6759424156
C   0.8599021481  0.7007256502 -0.1744786370
H   0.5089393719  1.4166468276 -0.9136731579
O   0.7370621039  0.9886366493  1.1283122194
C   1.3132533274 -0.5648699068 -0.2851967107
H   0.7937120806 -0.0896623695  1.2478163788
H   1.3057666690 -1.1582070522 -1.1604211852
H   2.0826059089 -0.8029029318  0.4515802240
7
Iter 43 Image 4  Energy = -4186.2150022930
C   0.8456812817  0.7983627798 -0.1074950637
H   0.5121618312  1.4319757951 -0.9355781636
O   0.7473328087  1.1961424023  1.0545228367
C   1.2343653736 -0.6019958766 -0.1341700964
H   0.8352128443 -0.4097814082  1.0721815385
H   1.2974709606 -1.1460616911 -1.1006597326
H   2.1290164793 -0.7782751252  0.4451378149
7
Iter 43 Image 5  Energy = -4188.0049637726
C   0.8513949817  0.8538786305 -0.0569564012
H   0.5544691693  1.4068780056 -0.9646926740
O   0.7218102551  1.3603217414  1.0309158491
C   1.2687436177 -0.5722806244 -0.0437177720
H   0.7547631386 -0.7071784111  0.9308331251
H   1.1932689311 -1.1457282922 -0.9759407327
H   2.2567915278 -0.7055242327  0.3734977314
7
Iter 43 Image 6  Energy = -4188.6568316987
C   0.8479082306  0.8833064263 -0.0012839569
H   0.6616816856  1.3397329151 -0.9917350696
O   0.7086293823  1.5320283743  1.0010496147
C   1.2612702531 -0.5568433092  0.0353204086
H   0.7097592406 -1.0072724953  0.8553692638
H   1.0955083475 -1.0810738093 -0.9027857260
H   2.3164844218 -0.6195110452  0.2980044402
7
Iter 43 Image 7  Energy = -4188.6813879630
C   0.8086073737  0.8722480949 -0.0190113568
H   0.8114409460  1.2954205121 -1.0419918818
O   0.4618926698  1.5375405970  0.9215824002
C   1.2781806208 -0.5470025624  0.0878603822
H   0.8698194896 -1.0060697776  0.9826324616
H   1.0042868348 -1.1153930695 -0.7977134002
H   2.3670136814 -0.5463770113  0.1605801111
7
Iter 43 Image 8  Energy = -4188.6819968244
C   0.7840367852  0.8656586589 -0.0371164025
H   0.9809293880  1.3403901038 -1.0231241499
O   0.1875804579  1.4681235287  0.8223429327
C   1.3100769769 -0.5359012779  0.1153731248
H   1.0639489065 -0.9236344469  1.1059940899
H   0.8779311114 -1.1816924395 -0.6582837811
H   2.3967379442 -0.5425772870 -0.0312469938
7
Iter 44 Image 0  Energy = -4188.2527480593
C   0.8260657415  0.5508603911 -0.1261794589
H   0.4554445983  1.2417513435 -0.8784317668
O   0.5680753083  1.0246514429  1.1187434847
C   1.4411098584 -0.5873603774 -0.4363613732
H   0.9099091373  0.3932317500  1.7666320721
H   1.5916834696 -0.8592929697 -1.4741885892
H   1.8089534565 -1.2734747403  0.3237244514
7
Iter 44 Image 1  Energy = -4188.1898582301
C   0.8493614061  0.5855532914 -0.1545644312
H   0.4681932172  1.2652626356 -0.9004184973
O   0.6672842272  1.0446067407  1.1096338569
C   1.4286681277 -0.5767975909 -0.4177409372
H   0.8244058557  0.2793465927  1.6702616634
H   1.4434222837 -1.0042840012 -1.4019779976
H   1.9199064525 -1.1033206286  0.3887453111
7
Iter 44 Image 2  Energy = -4187.8609345129
C   0.8558012739  0.6358631899 -0.1795609662
H   0.4772830914  1.3485405664 -0.8948582700
O   0.7020449132  0.9948352195  1.1256072144
C   1.4060328522 -0.5530827698 -0.3882776351
H   0.7845698620  0.1042567601  1.4928475780
H   1.3747342486 -1.1080164238 -1.2956241376
H   2.0007753606 -0.9320295634  0.4338052417
7
Iter 44 Image 3  Energy = -4186.6717351398
C   0.8604174326  0.7040048708 -0.1721185218
H   0.5108353914  1.4141831013 -0.9155943586
O   0.7386086450  0.9891638959  1.1302694917
C   1.3134442159 -0.5622737981 -0.2879066044
H   0.7957161012 -0.0907086465  1.2465985686
H   1.3047654203 -1.1597778914 -1.1582595761
H   2.0774543844 -0.8042246396  0.4509501379
7
Iter 44 Image 4  Energy = -4186.2138241178
C   0.8453140021  0.7976506312 -0.1080992233
H   0.5155384474  1.4323549828 -0.9334561361
O   0.7487221900  1.1971411040  1.0558487133
C   1.2343231906 -0.6017530869 -0.1363701993
H   0.8353768901 -0.4110424773  1.0716009905
H   1.2959097595 -1.1470617086 -1.1027984727
H   2.1260570975 -0.7769225805  0.4472134490
7
Iter 44 Image 5  Energy = -4188.0059820882
C   0.8536570084  0.8548897678 -0.0551054077
H   0.5531938453  1.4038517852 -0.9637330976
O   0.7301519809  1.3607176949  1.0324352593
C   1.2678802679 -0.5706949489 -0.0458742051
H   0.7501730907 -0.7073784225  0.9259391865
H   1.1937022114 -1.1445723194 -0.9768356030
H   2.2524832027 -0.7064466984  0.3771130153
7
Iter 44 Image 6  Energy = -4188.6567142031
C   0.8484785332  0.8845811321 -0.0001033795
H   0.6591344635  1.3380908576 -0.9922911953
O   0.7080687433  1.5321188184  0.9998309239
C   1.2622126387 -0.5561530825  0.0359725736
H   0.7097079267 -1.0070358547  0.8551515485
H   1.0964043033 -1.0792175855 -0.9024407381
H   2.3172349540 -0.6220172305  0.2978192376
7
Iter 44 Image 7  Energy = -4188.6812413207
C   0.8082364603  0.8732249029 -0.0173374256
H   0.8122944035  1.2958669674 -1.0414379220
O   0.4617151865  1.5367497369  0.9193579491
C   1.2781055710 -0.5468393623  0.0879790644
H   0.8704895851 -1.0068511280  0.9821547111
H   1.0037757837 -1.1154782565 -0.7966740257
H   2.3666246260 -0.5463060599  0.1598963583
7
Iter 44 Image 8  Energy = -4188.6819968244
C   0.7840367852  0.8656586589 -0.0371164025
H   0.9809293880  1.3403901038 -1.0231241499
O   0.1875804579  1.4681235287  0.8223429327
C   1.3100769769 -0.5359012779  0.1153731248
H   1.0639489065 -0.9236344469  1.1059940899
H   0.8779311114 -1.1816924395 -0.6582837811
H   2.3967379442 -0.5425772870 -0.0312469938
7
Iter 45 Image 0  Energy = -4188.2527480593
C   0.8260657415  0.5508603911 -0.1261794589
H   0.4554445983  1.2417513435 -0.8784317668
O   0.5680753083  1.0246514429  1.1187434847
C   1.4411098584 -0.5873603774 -0.4363613732
H   0.9099091373  0.3932317500  1.7666320721
H   1.5916834696 -0.8592929697 -1.4741885892
H   1.8089534565 -1.2734747403  0.3237244514
7
Iter 45 Image 1  Energy = -4188.1900248846
C   0.8497529861  0.5849139567 -0.1544406021
H   0.4672780126  1.2647823748 -0.9002981738
O   0.6661463010  1.0445054726  1.1098445956
C   1.4296574340 -0.5756111716 -0.4178126466
H   0.8240766991  0.2789247133  1.6699045543
H   1.4440760499 -1.0040239898 -1.4024539578
H   1.9202540882 -1.1031243245  0.3891951981
7
Iter 45 Image 2  Energy = -4187.8611432335
C   0.8562468749  0.6351651335 -0.1800805344
H   0.4780603111  1.3494397750 -0.8959352294
O   0.7039439369  0.9954735815  1.1251892133
C   1.4044617744 -0.5528424347 -0.3878927846
H   0.7858560368  0.1048463795  1.4934096118
H   1.3734400258 -1.1089725183 -1.2952113575
H   1.9992326399 -0.9327429420  0.4344601158
7
Iter 45 Image 3  Energy = -4186.6722199789
C   0.8606988879  0.7039753914 -0.1720282193
H   0.5123971940  1.4142458060 -0.9159757545
O   0.7381112959  0.9893166111  1.1311357931
C   1.3132415890 -0.5602685375 -0.2884173708
H   0.7972713941 -0.0911870667  1.2463506401
H   1.3039901161 -1.1608562996 -1.1582283981
H   2.0755311075 -0.8048590019  0.4511024440
7
Iter 45 Image 4  Energy = -4186.2143265626
C   0.8448489967  0.7975052393 -0.1066725296
H   0.5179512767  1.4334969889 -0.9329872353
O   0.7476832203  1.1966106093  1.0548692783
C   1.2343365134 -0.6017068088 -0.1372839711
H   0.8363138917 -0.4115589891  1.0719678230
H   1.2946858905 -1.1477853538 -1.1035367734
H   2.1254217895 -0.7761948161  0.4475825179
7
Iter 45 Image 5  Energy = -4188.0067634007
C   0.8543170616  0.8546598175 -0.0554586523
H   0.5539752171  1.4035283478 -0.9628989317
O   0.7319774431  1.3611630926  1.0337092456
C   1.2676458657 -0.5704137523 -0.0465836204
H   0.7487476246 -0.7076526577  0.9243567254
H   1.1933680743 -1.1442983073 -0.9774629182
H   2.2512103141 -0.7066196544  0.3782772987
7
Iter 45 Image 6  Energy = -4188.6568552426
C   0.8493488480  0.8842612797 -0.0013887775
H   0.6578064949  1.3373384274 -0.9924983571
O   0.7089579110  1.5333804045  1.0009926224
C   1.2624564023 -0.5557653388  0.0361728898
H   0.7091130861 -1.0063195810  0.8549782570
H   1.0963218716 -1.0784546634 -0.9023795607
H   2.3172369503 -0.6240734801  0.2980618994
7
Iter 45 Image 7  Energy = -4188.6814992151
C   0.8087520600  0.8723562363 -0.0186419384
H   0.8123770141  1.2958919468 -1.0411561933
O   0.4612712773  1.5378343283  0.9203243804
C   1.2780257345 -0.5467122239  0.0881081513
H   0.8706287551 -1.0073539551  0.9819450095
H   1.0037231379 -1.1154329968 -0.7964684687
H   2.3664636378 -0.5462165293  0.1598277714
7
Iter 45 Image 8  Energy = -4188.6819968244
C   0.7840367852  0.8656586589 -0.0371164025
H   0.9809293880  1.3403901038 -1.0231241499
O   0.1875804579  1.4681235287  0.8223429327
C   1.3100769769 -0.5359012779  0.1153731248
H   1.0639489065 -0.9236344469  1.1059940899
H   0.8779311114 -1.1816924395 -0.6582837811
H   2.3967379442 -0.5425772870 -0.0312469938
7
Iter 46 Image 0  Energy = -4188.2527480593
C   0.8260657415  0.5508603911 -0.1261794589
H   0.4554445983  1.2417513435 -0.8784317668
O   0.5680753083  1.0246514429  1.1187434847
C   1.4411098584 -0.5873603774 -0.4363613732
H   0.9099091373  0.3932317500  1.7666320721
H   1.5916834696 -0.8592929697 -1.4741885892
H   1.8089534565 -1.2734747403  0.3237244514
7
Iter 46 Image 1  Energy = -4188.1900232306
C   0.8496200157  0.5846582608 -0.1544631889
H   0.4670266809  1.2648443386 -0.9004973343
O   0.6658484714  1.0444742262  1.1099923717
C   1.4296764981 -0.5753680425 -0.4177172134
H   0.8239750244  0.2787321868  1.6698394616
H   1.4445159901 -1.0038991665 -1.4026609314
H   1.9205788921 -1.1030747778  0.3894457992
7
Iter 46 Image 2  Energy = -4187.8612698039
C   0.8560880806  0.6351159212 -0.1799479637
H   0.4792136659  1.3495435298 -0.8968294833
O   0.7048316306  0.9957305451  1.1253923781
C   1.4037468528 -0.5520862874 -0.3880061206
H   0.7863955828  0.1049969832  1.4939916706
H   1.3727334920 -1.1096875135 -1.2943551928
H   1.9982322929 -0.9332462008  0.4336937505
7
Iter 46 Image 3  Energy = -4186.6734270400
C   0.8603096346  0.7030522042 -0.1725554115
H   0.5133629339  1.4153439840 -0.9146114426
O   0.7369118656  0.9897098241  1.1303599431
C   1.3136459186 -0.5602950588 -0.2885797074
H   0.7985447790 -0.0911183776  1.2461968374
H   1.3034731901 -1.1611155272 -1.1590957300
H   2.0749932560 -0.8052101399  0.4522246354
7
Iter 46 Image 4  Energy = -4186.2146841159
C   0.8443589244  0.7974789298 -0.1060861027
H   0.5194297778  1.4348118652 -0.9329750549
O   0.7463151245  1.1962048593  1.0538916086
C   1.2344831644 -0.6018455685 -0.1374119528
H   0.8369541982 -0.4119901412  1.0731686436
H   1.2938276312 -1.1482943177 -1.1038806996
H   2.1258727619 -0.7759987516  0.4472326560
7
Iter 46 Image 5  Energy = -4188.0070806018
C   0.8538002501  0.8537039832 -0.0555343441
H   0.5552716380  1.4047950659 -0.9613900299
O   0.7315203369  1.3616623587  1.0327232778
C   1.2677797561 -0.5712784049 -0.0466028259
H   0.7485696620 -0.7076937292  0.9243618010
H   1.1927815186 -1.1442716357 -0.9781638244
H   2.2515184343 -0.7065507338  0.3785450931
7
Iter 46 Image 6  Energy = -4188.6567005536
C   0.8497264103  0.8846705984 -0.0014413022
H   0.6572597670  1.3370036061 -0.9929819284
O   0.7101599611  1.5336835631  1.0015201597
C   1.2623877891 -0.5556085378  0.0360399141
H   0.7086552444 -1.0058476924  0.8548287619
H   1.0960154104 -1.0784273555 -0.9025110378
H   2.3170369794 -0.6251071362  0.2984844098
7
Iter 46 Image 7  Energy = -4188.6814900658
C   0.8087229056  0.8723957897 -0.0186857481
H   0.8123288973  1.2958398440 -1.0413167204
O   0.4613325006  1.5380758357  0.9205352820
C   1.2779859356 -0.5468313489  0.0881361175
H   0.8705556356 -1.0075468827  0.9820983859
H   1.0037654692 -1.1154366580 -0.7967360932
H   2.3665502738 -0.5461297700  0.1599074890
7
Iter 46 Image 8  Energy = -4188.6819968244
C   0.7840367852  0.8656586589 -0.0371164025
H   0.9809293880  1.3403901038 -1.0231241499
O   0.1875804579  1.4681235287  0.8223429327
C   1.3100769769 -0.5359012779  0.1153731248
H   1.0639489065 -0.9236344469  1.1059940899
H   0.8779311114 -1.1816924395 -0.6582837811
H   2.3967379442 -0.5425772870 -0.0312469938
7
Iter 47 Image 0  Energy = -4188.2527480593
C   0.8260657415  0.5508603911 -0.1261794589
H   0.4554445983  1.2417513435 -0.8784317668
O   0.5680753083  1.0246514429  1.1187434847
C   1.4411098584 -0.5873603774 -0.4363613732
H   0.9099091373  0.3932317500  1.7666320721
H   1.5916834696 -0.8592929697 -1.4741885892
H   1.8089534565 -1.2734747403  0.3237244514
7
Iter 47 Image 1  Energy = -4188.1900503507
C   0.8493441351  0.5845095144 -0.1546325104
H   0.4663038592  1.2646499352 -0.9007071436
O   0.6653264425  1.0440171517  1.1099258741
C   1.4301048222 -0.5750440362 -0.4175951440
H   0.8236476327  0.2783816949  1.6699101434
H   1.4453913547 -1.0033758282 -1.4025213586
H   1.9211233254 -1.1027714152  0.3895591006
7
Iter 47 Image 2  Energy = -4187.8611802778
C   0.8560643026  0.6353989269 -0.1796490794
H   0.4809152318  1.3494653734 -0.8976788188
O   0.7062394351  0.9965466084  1.1257422520
C   1.4027858716 -0.5516042638 -0.3883062791
H   0.7875438255  0.1055855351  1.4941719541
H   1.3713805545 -1.1111300593 -1.2933968471
H   1.9963123726 -0.9338951518  0.4330558696
7
Iter 47 Image 3  Energy = -4186.6735204554
C   0.8599812826  0.7021191151 -0.1732914447
H   0.5150513279  1.4177360128 -0.9130734982
O   0.7359249312  0.9897200172  1.1293560339
C   1.3135981085 -0.5613152406 -0.2886744057
H   0.8000644955 -0.0912966250  1.2460223693
H   1.3023156960 -1.1612971831 -1.1604611197
H   2.0743057354 -0.8052991852  0.4540611815
7
Iter 47 Image 4  Energy = -4186.2147727406
C   0.8440593790  0.7977213939 -0.1058337164
H   0.5219373870  1.4369328360 -0.9334006139
O   0.7442245336  1.1951653052  1.0535288011
C   1.2339924777 -0.6020167724 -0.1374242186
H   0.8385459430 -0.4125691831  1.0742893752
H   1.2925664516 -1.1489986506 -1.1038893984
H   2.1259154147 -0.7758680532  0.4466688584
7
Iter 47 Image 5  Energy = -4188.0072372130
C   0.8537588262  0.8529080716 -0.0556031742
H   0.5568264847  1.4066634105 -0.9598507623
O   0.7320974404  1.3623128169  1.0321671784
C   1.2675380299 -0.5724809082 -0.0467770434
H   0.7476775330 -0.7080998589  0.9241162179
H   1.1919996266 -1.1442465082 -0.9796316265
H   2.2513436504 -0.7066900958  0.3795183498
7
Iter 47 Image 6  Energy = -4188.6565133503
C   0.8500687568  0.8850338521 -0.0013787367
H   0.6561292196  1.3363403872 -0.9933408318
O   0.7117553037  1.5343235236  1.0018317324
C   1.2625272392 -0.5554368246  0.0359214618
H   0.7080118926 -1.0051702680  0.8544901380
H   1.0957611768 -1.0780410715 -0.9027546886
H   2.3169879736 -0.6266825572  0.2991699083
7
Iter 47 Image 7  Energy = -4188.6815326682
C   0.8084767262  0.8728093371 -0.0182262657
H   0.8125323551  1.2958684594 -1.0415686160
O   0.4613886225  1.5381086556  0.9203802612
C   1.2779247760 -0.5470192559  0.0881717128
H   0.8705549048 -1.0078978487  0.9823479941
H   1.0036654427 -1.1154838924 -0.7970218780
H   2.3666987902 -0.5460186462  0.1598555041
7
Iter 47 Image 8  Energy = -4188.6819968244
C   0.7840367852  0.8656586589 -0.0371164025
H   0.9809293880  1.3403901038 -1.0231241499
O   0.1875804579  1.4681235287  0.8223429327
C   1.3100769769 -0.5359012779  0.1153731248
H   1.0639489065 -0.9236344469  1.1059940899
H   0.8779311114 -1.1816924395 -0.6582837811
H   2.3967379442 -0.5425772870 -0.0312469938
7
Iter 48 Image 0  Energy = -4188.2527480593
C   0.8260657415  0.5508603911 -0.1261794589
H   0.4554445983  1.2417513435 -0.8784317668
O   0.5680753083  1.0246514429  1.1187434847
C   1.4411098584 -0.5873603774 -0.4363613732
H   0.9099091373  0.3932317500  1.7666320721
H   1.5916834696 -0.8592929697 -1.4741885892
H   1.8089534565 -1.2734747403  0.3237244514
7
Iter 48 Image 1  Energy = -4188.1901078841
C   0.8488232470  0.5842239626 -0.1549174996
H   0.4644607421  1.2638709975 -0.9010200095
O   0.6640100007  1.0429758059  1.1097432446
C   1.4313904048 -0.5741621693 -0.4174122545
H   0.8228545140  0.2775862446  1.6700092823
H   1.4474023522 -1.0021998965 -1.4021559845
H   1.9223003180 -1.1019279485  0.3896921823
7
Iter 48 Image 2  Energy = -4187.8606689444
C   0.8564131856  0.6362142014 -0.1794017004
H   0.4840893776  1.3497637806 -0.8989108611
O   0.7092677463  0.9984117707  1.1261215173
C   1.4007511650 -0.5517696589 -0.3888099578
H   0.7902708847  0.1071275604  1.4940891039
H   1.3681684332 -1.1141785003 -1.2919936386
H   1.9922807969 -0.9352022000  0.4328446154
7
Iter 48 Image 3  Energy = -4186.6713561288
C   0.8597656557  0.7013251678 -0.1742525190
H   0.5192085999  1.4225485550 -0.9112606045
O   0.7345787514  0.9887182926  1.1281005945
C   1.3124182257 -0.5630539083 -0.2887456315
H   0.8029525489 -0.0921307398  1.2457326373
H   1.2998162699 -1.1618068564 -1.1621620369
H   2.0725015283 -0.8052336046  0.4565266401
7
Iter 48 Image 4  Energy = -4186.2144752762
C   0.8435769430  0.7981675333 -0.1063858600
H   0.5277578796  1.4412304218 -0.9340641986
O   0.7397429025  1.1929909708  1.0539569027
C   1.2326160774 -0.6023160286 -0.1374993308
H   0.8424800753 -0.4137063865  1.0758327505
H   1.2898364374 -1.1503996332 -1.1034594668
H   2.1252312830 -0.7756000045  0.4455582827
7
Iter 48 Image 5  Energy = -4188.0071950129
C   0.8545462710  0.8529115735 -0.0544180036
H   0.5596956744  1.4100871974 -0.9579414340
O   0.7346976893  1.3623265530  1.0311792910
C   1.2664497035 -0.5741556437 -0.0474547361
H   0.7454081818 -0.7093058113  0.9231648302
H   1.1906677610 -1.1441538936 -0.9822996795
H   2.2497762984 -0.7073430084  0.3817088487
7
Iter 48 Image 6  Energy = -4188.6562008581
C   0.8505987813  0.8859662176 -0.0004409929
H   0.6533880662  1.3348069223 -0.9936399405
O   0.7147676092  1.5353607206  1.0011969100
C   1.2630921234 -0.5551619099  0.0358423452
H   0.7067547849 -1.0039519005  0.8536729234
H   1.0955642111 -1.0767913676 -0.9032676466
H   2.3170759835 -0.6298616499  0.3005753982
7
Iter 48 Image 7  Energy = -4188.6812112352
C   0.8087084391  0.8723389907 -0.0191874829
H   0.8132364907  1.2959908264 -1.0416508058
O   0.4606914139  1.5392320963  0.9215372459
C   1.2777498130 -0.5471791196  0.0883416812
H   0.8707650417 -1.0086532845  0.9826794156
H   1.0032903678 -1.1155068383 -0.7973066663
H   2.3668000515 -0.5458558575  0.1595253289
7
Iter 48 Image 8  Energy = -4188.6819968244
C   0.7840367852  0.8656586589 -0.0371164025
H   0.9809293880  1.3403901038 -1.0231241499
O   0.1875804579  1.4681235287  0.8223429327
C   1.3100769769 -0.5359012779  0.1153731248
H   1.0639489065 -0.9236344469  1.1059940899
H   0.8779311114 -1.1816924395 -0.6582837811
H   2.3967379442 -0.5425772870 -0.0312469938
7
Iter 49 Image 0  Energy = -4188.2527480593
C   0.8260657415  0.5508603911 -0.1261794589
H   0.4554445983  1.2417513435 -0.8784317668
O   0.5680753083  1.0246514429  1.1187434847
C   1.4411098584 -0.5873603774 -0.4363613732
H   0.9099091373  0.3932317500  1.7666320721
H   1.5916834696 -0.8592929697 -1.4741885892
H   1.8089534565 -1.2734747403  0.3237244514
7
Iter 49 Image 1  Energy = -4188.1901436618
C   0.8484105611  0.5841709456 -0.1551137216
H   0.4632186964  1.2632330850 -0.9011868596
O   0.6632017516  1.0422209432  1.1095456159
C   1.4322680187 -0.5736923481 -0.4173191765
H   0.8223179160  0.2770962952  1.6701268546
H   1.4487645431 -1.0013962338 -1.4017477203
H   1.9230600970 -1.1012657027  0.3896339726
7
Iter 49 Image 2  Energy = -4187.8602066061
C   0.8569882560  0.6366655714 -0.1793246764
H   0.4859942521  1.3501752462 -0.8992495468
O   0.7109726852  0.9996865052  1.1262206673
C   1.3994520493 -0.5522431603 -0.3890597756
H   0.7921516010  0.1082525280  1.4936836692
H   1.3659227282 -1.1161767584 -1.2915160706
H   1.9897600162 -0.9359929915  0.4331848311
7
Iter 49 Image 3  Energy = -4186.6689011401
C   0.8598014226  0.7012731192 -0.1748221884
H   0.5222559344  1.4258342547 -0.9106776418
O   0.7339655326  0.9875303397  1.1277310418
C   1.3110249385 -0.5643779935 -0.2886506808
H   0.8045201466 -0.0928951845  1.2456997293
H   1.2981408370 -1.1620651282 -1.1627342083
H   2.0715327747 -0.8049325120  0.4573930055
7
Iter 49 Image 4  Energy = -4186.2139750963
C   0.8433900076  0.7985216516 -0.1066789926
H   0.5316972007  1.4440332030 -0.9346425638
O   0.7365940111  1.1912318642  1.0543355128
C   1.2314224388 -0.6024307574 -0.1374390063
H   0.8454779625 -0.4142030663  1.0763798921
H   1.2880856169 -1.1512365905 -1.1026974434
H   2.1245743664 -0.7755494364  0.4446816738
7
Iter 49 Image 5  Energy = -4188.0072655550
C   0.8555487449  0.8529782442 -0.0550695239
H   0.5615670134  1.4122617138 -0.9573895367
O   0.7363844421  1.3624164079  1.0323823462
C   1.2654322606 -0.5748294819 -0.0478172405
H   0.7440473248 -0.7103584827  0.9226209253
H   1.1898786276 -1.1441451418 -0.9837177909
H   2.2483831610 -0.7079562753  0.3829299182
7
Iter 49 Image 6  Energy = -4188.6560755542
C   0.8509388775  0.8857745065 -0.0007547403
H   0.6515436746  1.3338260194 -0.9934249071
O   0.7164502657  1.5366117900  1.0012948106
C   1.2635414962 -0.5550356070  0.0358792798
H   0.7059824057 -1.0033135613  0.8530806482
H   1.0955835025 -1.0758355257 -0.9036580894
H   2.3172013358 -0.6316605962  0.3015220047
7
Iter 49 Image 7  Energy = -4188.6815453491
C   0.8082660184  0.8730948829 -0.0180878322
H   0.8139009211  1.2961371177 -1.0417449919
O   0.4606242554  1.5387983378  0.9206626251
C   1.2776463040 -0.5473213741  0.0883832884
H   0.8710270776 -1.0090498068  0.9828854741
H   1.0029607390 -1.1155205946 -0.7973224501
H   2.3668163005 -0.5457717468  0.1591626084
7
Iter 49 Image 8  Energy = -4188.6819968244
C   0.7840367852  0.8656586589 -0.0371164025
H   0.9809293880  1.3403901038 -1.0231241499
O   0.1875804579  1.4681235287  0.8223429327
C   1.3100769769 -0.5359012779  0.1153731248
H   1.0639489065 -0.9236344469  1.1059940899
H   0.8779311114 -1.1816924395 -0.6582837811
H   2.3967379442 -0.5425772870 -0.0312469938
7
Iter 50 Image 0  Energy = -4188.2527480593
C   0.8260657415  0.5508603911 -0.1261794589
H   0.4554445983  1.2417513435 -0.8784317668
O   0.5680753083  1.0246514429  1.1187434847
C   1.4411098584 -0.5873603774 -0.4363613732
H   0.9099091373  0.3932317500  1.7666320721
H   1.5916834696 -0.8592929697 -1.4741885892
H   1.8089534565 -1.2734747403  0.3237244514
7
Iter 50 Image 1  Energy = -4188.1901768318
C   0.8479164200  0.5841306270 -0.1552092334
H   0.4617402714  1.2623385655 -0.9013261433
O   0.6621589624  1.0414970797  1.1094404024
C   1.4333550001 -0.5731289821 -0.4172876199
H   0.8217102947  0.2765482066  1.6701463128
H   1.4503969060 -1.0005967273 -1.4014314458
H   1.9239637354 -1.1004218014  0.3896066953
7
Iter 50 Image 2  Energy = -4187.8596255800
C   0.8579620407  0.6371377563 -0.1796360532
H   0.4880763213  1.3512992422 -0.8993080636
O   0.7128602615  1.0009690805  1.1259157065
C   1.3978085433 -0.5534107187 -0.3891371150
H   0.7944910718  0.1096457800  1.4932159255
H   1.3630400584 -1.1183086064 -1.2912933063
H   1.9870032916 -0.9369656066  0.4341820234
7
Iter 50 Image 3  Energy = -4186.6653171128
C   0.8599508121  0.7019231031 -0.1750216524
H   0.5265174271  1.4292432647 -0.9108127212
O   0.7331136158  0.9856772831  1.1279843238
C   1.3088694104 -0.5652332610 -0.2886814336
H   0.8063715927 -0.0940269027  1.2458073411
H   1.2962202790 -1.1626198145 -1.1623003120
H   2.0701984558 -0.8045967974  0.4569634842
7
Iter 50 Image 4  Energy = -4186.2130897141
C   0.8429586848  0.7987484818 -0.1070210874
H   0.5368429720  1.4472494414 -0.9349810992
O   0.7324192172  1.1891452218  1.0546744547
C   1.2300666486 -0.6024653717 -0.1374841436
H   0.8493929089 -0.4146023857  1.0767648446
H   1.2858473688 -1.1522748362 -1.1015593226
H   2.1237138089 -0.7754336948  0.4435454169
7
Iter 50 Image 5  Energy = -4188.0073900244
C   0.8569686832  0.8538313404 -0.0552539473
H   0.5640505400  1.4146361214 -0.9574811482
O   0.7382399748  1.3615519509  1.0338488293
C   1.2639456960 -0.5749200764 -0.0483704538
H   0.7427991930 -0.7117052254  0.9218972110
H   1.1890188512 -1.1441577491 -0.9845564886
H   2.2462186277 -0.7088693638  0.3838550742
7
Iter 50 Image 6  Energy = -4188.6559221765
C   0.8513713342  0.8856099819 -0.0008354803
H   0.6492285004  1.3327152849 -0.9929454698
O   0.7183732007  1.5379046860  1.0008682206
C   1.2640996205 -0.5549616174  0.0359817403
H   0.7050566783 -1.0027567066  0.8523400827
H   1.0957750982 -1.0745654534 -0.9041211501
H   2.3173371242 -0.6335791591  0.3026510741
7
Iter 50 Image 7  Energy = -4188.6815464219
C   0.8080221123  0.8735085898 -0.0173770827
H   0.8148151813  1.2963195481 -1.0415898747
O   0.4602672081  1.5385134679  0.9199743992
C   1.2774952744 -0.5473562810  0.0884505176
H   0.8714630999 -1.0094453471  0.9829938036
H   1.0025124315 -1.1154580942 -0.7971304937
H   2.3666663082 -0.5457150638  0.1586174608
7
Iter 50 Image 8  Energy = -4188.6819968244
C   0.7840367852  0.8656586589 -0.0371164025
H   0.9809293880  1.3403901038 -1.0231241499
O   0.1875804579  1.4681235287  0.8223429327
C   1.3100769769 -0.5359012779  0.1153731248
H   1.0639489065 -0.9236344469  1.1059940899
H   0.8779311114 -1.1816924395 -0.6582837811
H   2.3967379442 -0.5425772870 -0.0312469938
7
Iter 51 Image 0  Energy = -4188.2527480593
C   0.8260657415  0.5508603911 -0.1261794589
H   0.4554445983  1.2417513435 -0.8784317668
O   0.5680753083  1.0246514429  1.1187434847
C   1.4411098584 -0.5873603774 -0.4363613732
H   0.9099091373  0.3932317500  1.7666320721
H   1.5916834696 -0.8592929697 -1.4741885892
H   1.8089534565 -1.2734747403  0.3237244514
7
Iter 51 Image 1  Energy = -4188.1902581772
C   0.8463626441  0.5838848095 -0.1552822898
H   0.4577573065  1.2599482510 -0.9018299335
O   0.6591014129  1.0398874075  1.1095000579
C   1.4360968490 -0.5716426284 -0.4172115824
H   0.8201371044  0.2750531449  1.6699806164
H   1.4551169877 -0.9986864672 -1.4010813990
H   1.9266693110 -1.0980775958  0.3898635154
7
Iter 51 Image 2  Energy = -4187.8579287699
C   0.8606034075  0.6384963725 -0.1808850419
H   0.4949137478  1.3554403913 -0.8997140670
O   0.7182931829  1.0040409957  1.1246201553
C   1.3926670347 -0.5567431679 -0.3892379841
H   0.8013771212  0.1134351076  1.4927478863
H   1.3543319976 -1.1241598442 -1.2901114093
H   1.9790550942 -0.9401429741  0.4365196325
7
Iter 51 Image 3  Energy = -4186.6546992233
C   0.8596541793  0.7036443360 -0.1751008378
H   0.5401025048  1.4388490503 -0.9106170916
O   0.7287654324  0.9807622837  1.1284635338
C   1.3031902896 -0.5666579739 -0.2892587748
H   0.8127814140 -0.0971566136  1.2462927690
H   1.2905437399 -1.1648976154 -1.1605656918
H   2.0662040548 -0.8041766429  0.4547250533
7
Iter 51 Image 4  Energy = -4186.2099811158
C   0.8407451387  0.7988268662 -0.1084336042
H   0.5530434906  1.4569623045 -0.9352529415
O   0.7183968270  1.1836672763  1.0552131007
C   1.2268763140 -0.6025783110 -0.1377147602
H   0.8611957534 -0.4158562321  1.0790095733
H   1.2786279929 -1.1558074842 -1.0985335707
H   2.1223561173 -0.7748475985  0.4396512227
7
Iter 51 Image 5  Energy = -4188.0077738932
C   0.8600918934  0.8555892850 -0.0557109166
H   0.5731974595  1.4223208512 -0.9570474799
O   0.7409944338  1.3586547546  1.0370960156
C   1.2598798599 -0.5751028186 -0.0498581834
H   0.7405982288 -0.7152993835  0.9202372047
H   1.1858978864 -1.1444052614 -0.9859040113
H   2.2405817912 -0.7113903989  0.3851263907
7
Iter 51 Image 6  Energy = -4188.6553067437
C   0.8530015631  0.8856401371 -0.0008456542
H   0.6424430580  1.3296707799 -0.9919175992
O   0.7248361869  1.5413739846  0.9997614167
C   1.2653932350 -0.5547656300  0.0361478325
H   0.7020241324 -1.0012021403  0.8501488574
H   1.0961969313 -1.0711385857 -0.9055329548
H   2.3173464414 -0.6392115583  0.3061771517
7
Iter 51 Image 7  Energy = -4188.6813206843
C   0.8077151665  0.8740254018 -0.0162777541
H   0.8173963051  1.2967435440 -1.0410246719
O   0.4589866337  1.5382294331  0.9188425582
C   1.2770182558 -0.5474095827  0.0886630060
H   0.8726994369 -1.0105021279  0.9833191386
H   1.0012656159 -1.1151817674 -0.7966639101
H   2.3661602001 -0.5455380655  0.1570803788
7
Iter 51 Image 8  Energy = -4188.6819968244
C   0.7840367852  0.8656586589 -0.0371164025
H   0.9809293880  1.3403901038 -1.0231241499
O   0.1875804579  1.4681235287  0.8223429327
C   1.3100769769 -0.5359012779  0.1153731248
H   1.0639489065 -0.9236344469  1.1059940899
H   0.8779311114 -1.1816924395 -0.6582837811
H   2.3967379442 -0.5425772870 -0.0312469938
7
Iter 52 Image 0  Energy = -4188.2527480593
C   0.8260657415  0.5508603911 -0.1261794589
H   0.4554445983  1.2417513435 -0.8784317668
O   0.5680753083  1.0246514429  1.1187434847
C   1.4411098584 -0.5873603774 -0.4363613732
H   0.9099091373  0.3932317500  1.7666320721
H   1.5916834696 -0.8592929697 -1.4741885892
H   1.8089534565 -1.2734747403  0.3237244514
7
Iter 52 Image 1  Energy = -4188.1904078743
C   0.8440600934  0.5834328294 -0.1552254964
H   0.4525979906  1.2566843727 -0.9024894662
O   0.6548761086  1.0380810686  1.1097215784
C   1.4393818535 -0.5699026008 -0.4171434387
H   0.8182322827  0.2732942747  1.6696610967
H   1.4616751126 -0.9964359656 -1.4009362512
H   1.9304182073 -1.0947871302  0.3903509869
7
Iter 52 Image 2  Energy = -4187.8554002216
C   0.8645222101  0.6400097110 -0.1830673530
H   0.5057150540  1.3628465954 -0.8997362774
O   0.7251661808  1.0075910124  1.1221479152
C   1.3849008438 -0.5616248126 -0.3891699388
H   0.8114374268  0.1185699372  1.4926972092
H   1.3414439626 -1.1319665956 -1.2884991395
H   1.9680559099 -0.9450590269  0.4395668190
7
Iter 52 Image 3  Energy = -4186.6360350943
C   0.8582325606  0.7064202688 -0.1748637287
H   0.5614840072  1.4523182044 -0.9103532347
O   0.7201179402  0.9740650827  1.1296991234
C   1.2952617451 -0.5676468444 -0.2904060086
H   0.8228179738 -0.1016281231  1.2475991005
H   1.2819981887 -1.1691735730 -1.1571858026
H   2.0613292335 -0.8039882561  0.4494494128
7
Iter 52 Image 4  Energy = -4186.2037233955
C   0.8363677298  0.7987072944 -0.1091778810
H   0.5779297930  1.4710000328 -0.9351475063
O   0.6951647037  1.1756805192  1.0544363702
C   1.2229957271 -0.6027041402 -0.1380050195
H   0.8793038113 -0.4169534847  1.0829402800
H   1.2674356181 -1.1616228735 -1.0939878080
H   2.1220442841 -0.7737405970  0.4328805088
7
Iter 52 Image 5  Energy = -4188.0096159449
C   0.8633814121  0.8583678188 -0.0553658743
H   0.5892664867  1.4341117380 -0.9568418060
O   0.7404043636  1.3532638106  1.0406412313
C   1.2542673164 -0.5747985758 -0.0517575523
H   0.7399703470 -0.7202490074  0.9188430099
H   1.1803083739 -1.1455567316 -0.9858241957
H   2.2336432448 -0.7147719950  0.3842441178
7
Iter 52 Image 6  Energy = -4188.6543755552
C   0.8555618379  0.8859361705 -0.0006552645
H   0.6328219768  1.3257887784 -0.9904054869
O   0.7348953977  1.5459724063  0.9979811430
C   1.2668520689 -0.5546603380  0.0363210021
H   0.6973189352 -0.9995136409  0.8468557445
H   1.0969133239 -1.0664938448 -0.9076143096
H   2.3168779945 -0.6466625846  0.3114562678
7
Iter 52 Image 7  Energy = -4188.6805043986
C   0.8074082385  0.8746214883 -0.0147547057
H   0.8212820538  1.2973087977 -1.0400618437
O   0.4569699441  1.5375981384  0.9172195670
C   1.2763229433 -0.5474223049  0.0889314268
H   0.8745446799 -1.0117209203  0.9837954657
H   0.9993794873 -1.1146794321 -0.7959250104
H   2.3653342626 -0.5453389110  0.1547338811
7
Iter 52 Image 8  Energy = -4188.6819968244
C   0.7840367852  0.8656586589 -0.0371164025
H   0.9809293880  1.3403901038 -1.0231241499
O   0.1875804579  1.4681235287  0.8223429327
C   1.3100769769 -0.5359012779  0.1153731248
H   1.0639489065 -0.9236344469  1.1059940899
H   0.8779311114 -1.1816924395 -0.6582837811
H   2.3967379442 -0.5425772870 -0.0312469938
7
Iter 53 Image 0  Energy = -4188.2527480593
C   0.8260657415  0.5508603911 -0.1261794589
H   0.4554445983  1.2417513435 -0.8784317668
O   0.5680753083  1.0246514429  1.1187434847
C   1.4411098584 -0.5873603774 -0.4363613732
H   0.9099091373  0.3932317500  1.7666320721
H   1.5916834696 -0.8592929697 -1.4741885892
H   1.8089534565 -1.2734747403  0.3237244514
7
Iter 53 Image 1  Energy = -4188.1908741912
C   0.8400796190  0.5823116295 -0.1549160083
H   0.4448459213  1.2513923959 -0.9034586813
O   0.6479820446  1.0358032583  1.1101459995
C   1.4437209407 -0.5676412138 -0.4170766529
H   0.8157221356  0.2712757159  1.6692098763
H   1.4724522239 -0.9933657834 -1.4012086217
H   1.9364388145 -1.0894092847  0.3912431530
7
Iter 53 Image 2  Energy = -4187.8501905969
C   0.8708829887  0.6428355788 -0.1873518721
H   0.5265044488  1.3780514771 -0.8983003803
O   0.7348081905  1.0120910318  1.1170968393
C   1.3714103665 -0.5711571197 -0.3891298189
H   0.8291342713  0.1269778934  1.4936379157
H   1.3186336502 -1.1442012301 -1.2860989739
H   1.9498676938 -0.9542309140  0.4440855974
7
Iter 53 Image 3  Energy = -4186.5900884143
C   0.8539317842  0.7118280935 -0.1725137199
H   0.6016285647  1.4751919717 -0.9102265703
O   0.7007294592  0.9623522306  1.1315190002
C   1.2818326400 -0.5678765746 -0.2927957912
H   0.8415446662 -0.1087594679  1.2509668378
H   1.2663366794 -1.1782295475 -1.1496407347
H   2.0552379210 -0.8041400932  0.4366296701
7
Iter 53 Image 4  Energy = -4186.1861108413
C   0.8267008103  0.7976201836 -0.1135902692
H   0.6240585665  1.4944587433 -0.9332883055
O   0.6481522696  1.1634398048  1.0547467124
C   1.2177685695 -0.6029212333 -0.1376837548
H   0.9129942230 -0.4178048623  1.0908046190
H   1.2465722116 -1.1730261067 -1.0856528762
H   2.1249950832 -0.7713999572  0.4186026802
7
Iter 53 Image 5  Energy = -4188.0146932623
C   0.8670991701  0.8624413817 -0.0566612133
H   0.6229695702  1.4554485723 -0.9573445001
O   0.7293069818  1.3436212605  1.0483477745
C   1.2453009615 -0.5730342263 -0.0540606158
H   0.7437985215 -0.7289379947  0.9184736503
H   1.1679997220 -1.1494030037 -0.9818582143
H   2.2247666136 -0.7197689370  0.3770418919
7
Iter 53 Image 6  Energy = -4188.6527788660
C   0.8602272643  0.8863794118 -0.0006377517
H   0.6167452590  1.3200691147 -0.9874627382
O   0.7534680082  1.5536409967  0.9950681128
C   1.2685766585 -0.5547842100  0.0365995845
H   0.6886142916 -0.9979585616  0.8407768874
H   1.0984404850 -1.0590273989 -0.9112344653
H   2.3151695439 -0.6579524762  0.3208295478
7
Iter 53 Image 7  Energy = -4188.6810310802
C   0.8079503494  0.8739501539 -0.0144768344
H   0.8283973153  1.2982161704 -1.0379401104
O   0.4523366818  1.5374206604  0.9164790338
C   1.2751175399 -0.5472192047  0.0894048645
H   0.8778397653 -1.0132221142  0.9846458722
H   0.9958398325 -1.1136112640 -0.7945456495
H   2.3637601201 -0.5451675115  0.1503716807
7
Iter 53 Image 8  Energy = -4188.6819968244
C   0.7840367852  0.8656586589 -0.0371164025
H   0.9809293880  1.3403901038 -1.0231241499
O   0.1875804579  1.4681235287  0.8223429327
C   1.3100769769 -0.5359012779  0.1153731248
H   1.0639489065 -0.9236344469  1.1059940899
H   0.8779311114 -1.1816924395 -0.6582837811
H   2.3967379442 -0.5425772870 -0.0312469938
7
Iter 54 Image 0  Energy = -4188.2527480593
C   0.8260657415  0.5508603911 -0.1261794589
H   0.4554445983  1.2417513435 -0.8784317668
O   0.5680753083  1.0246514429  1.1187434847
C   1.4411098584 -0.5873603774 -0.4363613732
H   0.9099091373  0.3932317500  1.7666320721
H   1.5916834696 -0.8592929697 -1.4741885892
H   1.8089534565 -1.2734747403  0.3237244514
7
Iter 54 Image 1  Energy = -4188.1916031858
C   0.8368653456  0.5811313517 -0.1542573016
H   0.4408125882  1.2478333356 -0.9039331695
O   0.6432988069  1.0354980969  1.1106146432
C   1.4450433656 -0.5673658627 -0.4171996294
H   0.8150946947  0.2714865606  1.6690990663
H   1.4798351445 -0.9923056995 -1.4023966440
H   1.9402917924 -1.0859111798  0.3920121531
7
Iter 54 Image 2  Energy = -4187.8451591900
C   0.8759879728  0.6432103416 -0.1913789067
H   0.5456623928  1.3939686283 -0.8951272410
O   0.7384570256  1.0130087836  1.1119430051
C   1.3601746414 -0.5782001101 -0.3887721180
H   0.8431982243  0.1326755228  1.4962070728
H   1.3003309156 -1.1517316407 -1.2853757333
H   1.9374304725 -0.9625648891  0.4464432239
7
Iter 54 Image 3  Energy = -4186.5340833610
C   0.8476870691  0.7171336935 -0.1704182613
H   0.6377081398  1.4910916670 -0.9098245761
O   0.6783143968  0.9536012599  1.1341871049
C   1.2719273251 -0.5654891985 -0.2948804019
H   0.8582330070 -0.1132397719  1.2551416856
H   1.2529814086 -1.1877424366 -1.1408082771
H   2.0543904344 -0.8049887676  0.4205412956
7
Iter 54 Image 4  Energy = -4186.1723268202
C   0.8150969371  0.7964947334 -0.1117174435
H   0.6640980885  1.5115866910 -0.9295631300
O   0.6020735176  1.1529639199  1.0485216270
C   1.2162240646 -0.6028088449 -0.1366162333
H   0.9425882777 -0.4152055112  1.0980178048
H   1.2281297663 -1.1838619081 -1.0781253721
H   2.1330311449 -0.7688027299  0.4034214081
7
Iter 54 Image 5  Energy = -4188.0288366845
C   0.8661310845  0.8674015021 -0.0532371925
H   0.6583760712  1.4732590474 -0.9594056636
O   0.7049012657  1.3327963162  1.0498692610
C   1.2396999340 -0.5698397439 -0.0545691448
H   0.7546767339 -0.7359379738  0.9214845897
H   1.1542079576 -1.1552881017 -0.9722126018
H   2.2232485151 -0.7220240887  0.3620094001
7
Iter 54 Image 6  Energy = -4188.6524603537
C   0.8640580577  0.8872836377  0.0000019089
H   0.6053928575  1.3172368556 -0.9847203878
O   0.7697003728  1.5585591583  0.9921040497
C   1.2685697469 -0.5554170272  0.0367674634
H   0.6810117379 -0.9991833953  0.8354240576
H   1.1000689603 -1.0542264430 -0.9139680803
H   2.3124397545 -0.6638859655  0.3283302288
7
Iter 54 Image 7  Energy = -4188.6781940928
C   0.8078933309  0.8746751432 -0.0119199881
H   0.8345998210  1.2989458549 -1.0359870563
O   0.4488889534  1.5348709608  0.9136793359
C   1.2742562209 -0.5469973298  0.0895391118
H   0.8805673766 -1.0132550488  0.9853658126
H   0.9926889545 -1.1125372831 -0.7932064461
H   2.3623469437 -0.5453353796  0.1464681672
7
Iter 54 Image 8  Energy = -4188.6819968244
C   0.7840367852  0.8656586589 -0.0371164025
H   0.9809293880  1.3403901038 -1.0231241499
O   0.1875804579  1.4681235287  0.8223429327
C   1.3100769769 -0.5359012779  0.1153731248
H   1.0639489065 -0.9236344469  1.1059940899
H   0.8779311114 -1.1816924395 -0.6582837811
H   2.3967379442 -0.5425772870 -0.0312469938
7
Iter 55 Image 0  Energy = -4188.2527480593
C   0.8260657415  0.5508603911 -0.1261794589
H   0.4554445983  1.2417513435 -0.8784317668
O   0.5680753083  1.0246514429  1.1187434847
C   1.4411098584 -0.5873603774 -0.4363613732
H   0.9099091373  0.3932317500  1.7666320721
H   1.5916834696 -0.8592929697 -1.4741885892
H   1.8089534565 -1.2734747403  0.3237244514
7
Iter 55 Image 1  Energy = -4188.1927682331
C   0.8352154692  0.5794179849 -0.1526950340
H   0.4462758765  1.2484212838 -0.9031708746
O   0.6439439236  1.0403077852  1.1109333665
C   1.4382609491 -0.5725150543 -0.4177656223
H   0.8196206938  0.2780835488  1.6702459707
H   1.4791846999 -0.9963380444 -1.4058705964
H   1.9387401302 -1.0870109914  0.3922619493
7
Iter 55 Image 2  Energy = -4187.8372050098
C   0.8768725606  0.6409522130 -0.1952278922
H   0.5646117658  1.4135409903 -0.8855789890
O   0.7259464904  1.0042488755  1.1062310082
C   1.3547521734 -0.5832566686 -0.3887214143
H   0.8500517159  0.1325560965  1.5035029210
H   1.2910970776 -1.1474815485 -1.2890591102
H   1.9379099504 -0.9701933505  0.4427925593
7
Iter 55 Image 3  Energy = -4186.4582379034
C   0.8348961108  0.7223830609 -0.1648658360
H   0.6687644275  1.4923346014 -0.9091556716
O   0.6437693105  0.9496343563  1.1361687159
C   1.2698461368 -0.5569791472 -0.2965283971
H   0.8721576061 -0.1100537504  1.2619465426
H   1.2430272042 -1.1998150971 -1.1268518130
H   2.0687810533 -0.8071378202  0.3932250180
7
Iter 55 Image 4  Energy = -4186.1714373177
C   0.7977785991  0.7932509638 -0.1082332257
H   0.6950466966  1.5132629934 -0.9185410567
O   0.5463105244  1.1499176539  1.0362370768
C   1.2248370796 -0.6022008232 -0.1316024405
H   0.9672629600 -0.4038760475  1.1049317299
H   1.2128680186 -1.1948260239 -1.0707687862
H   2.1571379736 -0.7651627656  0.3819151805
7
Iter 55 Image 5  Energy = -4188.0706912449
C   0.8535630514  0.8708479739 -0.0506020198
H   0.7059113079  1.4839941029 -0.9649067969
O   0.6359503035  1.3224560139  1.0472785587
C   1.2427580655 -0.5619777963 -0.0488826205
H   0.7873605092 -0.7401085692  0.9347983823
H   1.1329239993 -1.1681358125 -0.9454722481
H   2.2427744187 -0.7167093138  0.3217253153
7
Iter 55 Image 6  Energy = -4188.6553172192
C   0.8661802620  0.8875837575 -0.0001182859
H   0.6050777131  1.3217369359 -0.9816995645
O   0.7824417703  1.5588207448  0.9908296577
C   1.2636980163 -0.5574054973  0.0368258239
H   0.6749781079 -1.0086999094  0.8308470713
H   1.1023458524 -1.0558118838 -0.9148214132
H   2.3065197433 -0.6558573533  0.3320759786
7
Iter 55 Image 7  Energy = -4188.6811284444
C   0.8105649651  0.8716327194 -0.0145305269
H   0.8394248753  1.2992248253 -1.0333202515
O   0.4440776373  1.5327875604  0.9156161042
C   1.2740841690 -0.5461292639  0.0891691191
H   0.8820982932 -1.0094013687  0.9858666158
H   0.9898268714 -1.1111338510 -0.7919894054
H   2.3611647897 -0.5466137003  0.1431273935
7
Iter 55 Image 8  Energy = -4188.6819968244
C   0.7840367852  0.8656586589 -0.0371164025
H   0.9809293880  1.3403901038 -1.0231241499
O   0.1875804579  1.4681235287  0.8223429327
C   1.3100769769 -0.5359012779  0.1153731248
H   1.0639489065 -0.9236344469  1.1059940899
H   0.8779311114 -1.1816924395 -0.6582837811
H   2.3967379442 -0.5425772870 -0.0312469938
7
Iter 56 Image 0  Energy = -4188.2527480593
C   0.8260657415  0.5508603911 -0.1261794589
H   0.4554445983  1.2417513435 -0.8784317668
O   0.5680753083  1.0246514429  1.1187434847
C   1.4411098584 -0.5873603774 -0.4363613732
H   0.9099091373  0.3932317500  1.7666320721
H   1.5916834696 -0.8592929697 -1.4741885892
H   1.8089534565 -1.2734747403  0.3237244514
7
Iter 56 Image 1  Energy = -4188.1914358011
C   0.8433921122  0.5775082195 -0.1512339329
H   0.4783333961  1.2650687898 -0.8996487855
O   0.6641597056  1.0555998089  1.1096053353
C   1.4120359373 -0.5876431811 -0.4182051555
H   0.8362814268  0.2968095852  1.6740088939
H   1.4479841592 -1.0131069437 -1.4108608348
H   1.9190548608 -1.1038696121  0.3902736172
7
Iter 56 Image 2  Energy = -4187.8372485659
C   0.8609667609  0.6316990766 -0.1883093248
H   0.5502582026  1.4130774287 -0.8703233987
O   0.6738696113  0.9761345745  1.1100376359
C   1.3798456906 -0.5703276738 -0.3903080229
H   0.8183985548  0.1099213750  1.5147291096
H   1.3326280794 -1.1080784255 -1.3037163548
H   1.9852749798 -0.9620595415  0.4218287991
7
Iter 56 Image 3  Energy = -4186.4969898632
C   0.8219437151  0.7092806313 -0.1544938715
H   0.6244382025  1.4444196558 -0.9124109455
O   0.6222041252  0.9717287071  1.1316772040
C   1.3037508580 -0.5432097723 -0.2916475305
H   0.8519912610 -0.0839850572  1.2672174047
H   1.2615762159 -1.1992947843 -1.1200790800
H   2.1153374581 -0.8085733408  0.3736757157
7
Iter 56 Image 4  Energy = -4186.1916484407
C   0.7943468867  0.7784523964 -0.1085722487
H   0.6360959575  1.4640260161 -0.9127614262
O   0.5465433510  1.1825007556  1.0349815495
C   1.2557324641 -0.6000630301 -0.1224330381
H   0.9315323891 -0.3845533806  1.1046958565
H   1.2370523743 -1.1867721580 -1.0758210060
H   2.1999383774 -0.7632250328  0.3738487952
7
Iter 56 Image 5  Energy = -4188.1167749932
C   0.8164019384  0.8672045777 -0.0338974734
H   0.7172925220  1.4524928638 -0.9734996386
O   0.5154915860  1.3212659284  1.0108997500
C   1.2749695949 -0.5532503315 -0.0295312765
H   0.8502684665 -0.7215561583  0.9667651496
H   1.1197005682 -1.1849947814 -0.9019903195
H   2.3071171977 -0.6907963029  0.2551926137
7
Iter 56 Image 6  Energy = -4188.6527400038
C   0.8574958746  0.8877130737  0.0030350584
H   0.6464349326  1.3465716494 -0.9855189681
O   0.7608304910  1.5386173963  0.9953088408
C   1.2485464202 -0.5611531192  0.0354603834
H   0.6850449275 -1.0327121157  0.8375127495
H   1.1031675425 -1.0787229216 -0.9077885993
H   2.2997213010 -0.6099470506  0.3159296314
7
Iter 56 Image 7  Energy = -4188.6522043815
C   0.8086969494  0.8766141669 -0.0067460717
H   0.8317178446  1.2984025586 -1.0350155428
O   0.4507669882  1.5203456038  0.9097549388
C   1.2770807495 -0.5459656878  0.0866967976
H   0.8765454430 -0.9976151619  0.9853578738
H   0.9927735582 -1.1116059879 -0.7933382410
H   2.3636600954 -0.5498086669  0.1472293453
7
Iter 56 Image 8  Energy = -4188.6819968244
C   0.7840367852  0.8656586589 -0.0371164025
H   0.9809293880  1.3403901038 -1.0231241499
O   0.1875804579  1.4681235287  0.8223429327
C   1.3100769769 -0.5359012779  0.1153731248
H   1.0639489065 -0.9236344469  1.1059940899
H   0.8779311114 -1.1816924395 -0.6582837811
H   2.3967379442 -0.5425772870 -0.0312469938
7
Iter 57 Image 0  Energy = -4188.2527480593
C   0.8260657415  0.5508603911 -0.1261794589
H   0.4554445983  1.2417513435 -0.8784317668
O   0.5680753083  1.0246514429  1.1187434847
C   1.4411098584 -0.5873603774 -0.4363613732
H   0.9099091373  0.3932317500  1.7666320721
H   1.5916834696 -0.8592929697 -1.4741885892
H   1.8089534565 -1.2734747403  0.3237244514
7
Iter 57 Image 1  Energy = -4188.1892756990
C   0.8551438560  0.5813501740 -0.1516799888
H   0.5098769187  1.2842746828 -0.8959597067
O   0.6888399658  1.0664395754  1.1076102439
C   1.3919997155 -0.6003169408 -0.4185997964
H   0.8492575193  0.3089872837  1.6766944630
H   1.4095540331 -1.0270823398 -1.4111707776
H   1.8965694063 -1.1232854121  0.3870445658
7
Iter 57 Image 2  Energy = -4187.8630759588
C   0.8397695558  0.6226432116 -0.1742714939
H   0.4964383632  1.3776543586 -0.8676003289
O   0.6295640515  0.9547331462  1.1243981996
C   1.4216915247 -0.5441567671 -0.3913706351
H   0.7650872345  0.0814884177  1.5161749324
H   1.4025329133 -1.0642885812 -1.3162278334
H   2.0461582505 -0.9377066561  0.4028351715
7
Iter 57 Image 3  Energy = -4186.6809787920
C   0.8273956292  0.6914976695 -0.1586148691
H   0.5123054331  1.3752112398 -0.9168214229
O   0.6573345187  1.0075082366  1.1273905368
C   1.3496882402 -0.5417213272 -0.2833818780
H   0.8002668370 -0.0582476249  1.2641759546
H   1.3052245438 -1.1761695699 -1.1342748500
H   2.1490264841 -0.8077123389  0.3954659168
7
Iter 57 Image 4  Energy = -4186.1859831905
C   0.8156973255  0.7753169645 -0.0918995013
H   0.5036527294  1.3950438697 -0.9234035151
O   0.6557934874  1.2204550369  1.0323030624
C   1.2795935418 -0.5993390149 -0.1201186002
H   0.8398692629 -0.3769373534  1.0889875972
H   1.2961069214 -1.1563317783 -1.0959331137
H   2.2105283510 -0.7678419154  0.4040028681
7
Iter 57 Image 5  Energy = -4188.1385384521
C   0.7974665965  0.8508405391 -0.0378408291
H   0.6451791081  1.3915926292 -0.9763368139
O   0.4834931805  1.3463759999  0.9893813082
C   1.3099554902 -0.5534015395 -0.0142914707
H   0.8696669422 -0.6950779182  0.9822199189
H   1.1416240400 -1.1824632955 -0.8916918464
H   2.3538566238 -0.6675009715  0.2424989810
7
Iter 57 Image 6  Energy = -4188.6470604560
C   0.8428835447  0.8846668970  0.0010507083
H   0.7006909823  1.3698441664 -0.9938152669
O   0.7086890960  1.5148731017  1.0072913611
C   1.2387307627 -0.5625499458  0.0343545260
H   0.7093489459 -1.0462115124  0.8542299629
H   1.0999830246 -1.1050797956 -0.8970892541
H   2.3009152024 -0.5651757942  0.2879167946
7
Iter 57 Image 7  Energy = -4188.6799786410
C   0.8119207676  0.8706762908 -0.0187709870
H   0.8125537225  1.2960651300 -1.0397213445
O   0.4590170830  1.5248419371  0.9225135478
C   1.2808442278 -0.5457224168  0.0850986146
H   0.8667550633 -0.9897611419  0.9832587112
H   1.0018194289 -1.1141888189 -0.7972132423
H   2.3683313631 -0.5515442792  0.1587736617
7
Iter 57 Image 8  Energy = -4188.6819968244
C   0.7840367852  0.8656586589 -0.0371164025
H   0.9809293880  1.3403901038 -1.0231241499
O   0.1875804579  1.4681235287  0.8223429327
C   1.3100769769 -0.5359012779  0.1153731248
H   1.0639489065 -0.9236344469  1.1059940899
H   0.8779311114 -1.1816924395 -0.6582837811
H   2.3967379442 -0.5425772870 -0.0312469938
7
Iter 58 Image 0  Energy = -4188.2527480593
C   0.8260657415  0.5508603911 -0.1261794589
H   0.4554445983  1.2417513435 -0.8784317668
O   0.5680753083  1.0246514429  1.1187434847
C   1.4411098584 -0.5873603774 -0.4363613732
H   0.9099091373  0.3932317500  1.7666320721
H   1.5916834696 -0.8592929697 -1.4741885892
H   1.8089534565 -1.2734747403  0.3237244514
7
Iter 58 Image 1  Energy = -4188.1863011888
C   0.8719582898  0.5874651265 -0.1537952107
H   0.5442349425  1.3075383882 -0.8920817997
O   0.7193613690  1.0754874951  1.1049202417
C   1.3732366641 -0.6103891539 -0.4185551617
H   0.8611211036  0.3179762181  1.6792214223
H   1.3618166293 -1.0405075017 -1.4084778821
H   1.8695121814 -1.1472030050  0.3827071763
7
Iter 58 Image 2  Energy = -4187.8950012794
C   0.8123215758  0.6126912125 -0.1531032447
H   0.4082233164  1.3126683439 -0.8740218029
O   0.5861629585  0.9363413992  1.1477752313
C   1.4804043286 -0.5055408781 -0.3925938227
H   0.6904436849  0.0456964268  1.5112796169
H   1.5007056649 -1.0123548749 -1.3282873215
H   2.1229802876 -0.8991340743  0.3828890355
7
Iter 58 Image 3  Energy = -4186.7668314448
C   0.8477707463  0.6650558233 -0.1696448747
H   0.3380720196  1.2843960475 -0.9236673841
O   0.7379754593  1.0564091741  1.1196996460
C   1.4085574762 -0.5466224307 -0.2714156014
H   0.7198480421 -0.0294725991  1.2549491540
H   1.3718167218 -1.1345035933 -1.1665395986
H   2.1772009585 -0.8048955787  0.4505586877
7
Iter 58 Image 4  Energy = -4186.0432792178
C   0.8594819858  0.7781494739 -0.0780083470
H   0.3036527294  1.3026660086 -0.9457053667
O   0.8533639710  1.2731634278  1.0427572608
C   1.3004663098 -0.5996493212 -0.1216828242
H   0.6982338955 -0.3801135397  1.0601908555
H   1.3866793300 -1.1061888503 -1.1292243102
H   2.1993631075 -0.7776606653  0.4656121139
7
Iter 58 Image 5  Energy = -4188.0612213185
C   0.7865000477  0.8264904799 -0.0444743247
H   0.5051806068  1.3038216809 -0.9772404816
O   0.5137654263  1.3891798257  0.9654019179
C   1.3508494352 -0.5600714599 -0.0004757970
H   0.8602629548 -0.6601827027  0.9875687055
H   1.1909297133 -1.1658095001 -0.9041247275
H   2.3937538383 -0.6430629578  0.2672845961
7
Iter 58 Image 6  Energy = -4188.6237418076
C   0.8222316841  0.8815868902 -0.0008642296
H   0.7702450211  1.3942660950 -1.0063373095
O   0.6292899789  1.4840904104  1.0224773368
C   1.2317930219 -0.5625695650  0.0331462206
H   0.7463930665 -1.0540264654  0.8797099926
H   1.0934613392 -1.1365627820 -0.8824873410
H   2.3078275570 -0.5164171770  0.2482937977
7
Iter 58 Image 7  Energy = -4188.6647819898
C   0.8128672776  0.8670323077 -0.0300050762
H   0.7832448603  1.2927950782 -1.0482084483
O   0.4749481426  1.5317743240  0.9352031067
C   1.2857720159 -0.5462561244  0.0834481425
H   0.8529021827 -0.9836534116  0.9798786241
H   1.0162900822 -1.1188485604 -0.8031960542
H   2.3752171299 -0.5524770712  0.1768183754
7
Iter 58 Image 8  Energy = -4188.6819968244
C   0.7840367852  0.8656586589 -0.0371164025
H   0.9809293880  1.3403901038 -1.0231241499
O   0.1875804579  1.4681235287  0.8223429327
C   1.3100769769 -0.5359012779  0.1153731248
H   1.0639489065 -0.9236344469  1.1059940899
H   0.8779311114 -1.1816924395 -0.6582837811
H   2.3967379442 -0.5425772870 -0.0312469938
7
Iter 59 Image 0  Energy = -4188.2527480593
C   0.8260657415  0.5508603911 -0.1261794589
H   0.4554445983  1.2417513435 -0.8784317668
O   0.5680753083  1.0246514429  1.1187434847
C   1.4411098584 -0.5873603774 -0.4363613732
H   0.9099091373  0.3932317500  1.7666320721
H   1.5916834696 -0.8592929697 -1.4741885892
H   1.8089534565 -1.2734747403  0.3237244514
7
Iter 59 Image 1  Energy = -4188.1877229384
C   0.8829944568  0.5940881438 -0.1579434883
H   0.5540593389  1.3149117149 -0.8913274745
O   0.7352631317  1.0721469231  1.1020160156
C   1.3743762246 -0.6079105139 -0.4187404648
H   0.8617775194  0.3168015712  1.6828800547
H   1.3388347540 -1.0379537217 -1.4012967361
H   1.8539356309 -1.1617161305  0.3783506742
7
Iter 59 Image 2  Energy = -4187.9035281262
C   0.8003776977  0.6049847341 -0.1425047069
H   0.3332827196  1.2412409847 -0.8889981708
O   0.5831195954  0.9389061372  1.1697696600
C   1.5186973112 -0.4709911826 -0.3963816267
H   0.6413045003  0.0357479784  1.5052598308
H   1.5667138653 -0.9887317495 -1.3328008121
H   2.1577459455 -0.8707891010  0.3795936923
7
Iter 59 Image 3  Energy = -4186.5798365793
C   0.8715202195  0.6665864538 -0.1995597364
H   0.2101164013  1.2173638402 -0.9110882808
O   0.8405648001  1.0712555325  1.1102333673
C   1.4316212540 -0.5633389174 -0.2675833206
H   0.6515627089 -0.0111187857  1.2394524802
H   1.4244306333 -1.0922496731 -1.2021141042
H   2.1714251510 -0.7981309834  0.5245999257
7
Iter 59 Image 4  Energy = -4185.8434914371
C   0.8849889372  0.8109718537 -0.0696307521
H   0.1689903592  1.2317457833 -0.9352080283
O   1.0533639710  1.2914807945  1.0322295180
C   1.2989829991 -0.6063778245 -0.1279308730
H   0.5884656295 -0.3886600245  1.0136284870
H   1.4560256286 -1.0593141863 -1.1512964852
H   2.1504235362 -0.7894788518  0.5321480642
7
Iter 59 Image 5  Energy = -4187.9478486797
C   0.8036323602  0.8068129734 -0.0787972490
H   0.3624468640  1.2366584380 -0.9760645264
O   0.6284729390  1.4480737398  0.9835322132
C   1.3650406956 -0.5682927718  0.0039609366
H   0.8033513181 -0.6635914955  0.9639379438
H   1.2404701306 -1.1377556668 -0.9414478110
H   2.3978275967 -0.6315393729  0.3388188326
7
Iter 59 Image 6  Energy = -4188.6184914133
C   0.8071240354  0.8810837123 -0.0048880878
H   0.8117172437  1.3958626119 -1.0066594206
O   0.5678481752  1.4716254174  1.0279024408
C   1.2388395000 -0.5599383908  0.0350342498
H   0.7757304182 -1.0473501887  0.8949335946
H   1.0841001839 -1.1472898779 -0.8718786708
H   2.3158821921 -0.5036256586  0.2194941069
7
Iter 59 Image 7  Energy = -4188.6517927519
C   0.8115188870  0.8679990378 -0.0336673028
H   0.7606956152  1.2891807523 -1.0562411448
O   0.4868245306  1.5413722257  0.9383812182
C   1.2892434727 -0.5477021885  0.0840152352
H   0.8453213181 -0.9858545024  0.9776813421
H   1.0272952828 -1.1227884975 -0.8065667455
H   2.3803425927 -0.5518403884  0.1903357578
7
Iter 59 Image 8  Energy = -4188.6819968244
C   0.7840367852  0.8656586589 -0.0371164025
H   0.9809293880  1.3403901038 -1.0231241499
O   0.1875804579  1.4681235287  0.8223429327
C   1.3100769769 -0.5359012779  0.1153731248
H   1.0639489065 -0.9236344469  1.1059940899
H   0.8779311114 -1.1816924395 -0.6582837811
H   2.3967379442 -0.5425772870 -0.0312469938
7
Iter 60 Image 0  Energy = -4188.2527480593
C   0.8260657415  0.5508603911 -0.1261794589
H   0.4554445983  1.2417513435 -0.8784317668
O   0.5680753083  1.0246514429  1.1187434847
C   1.4411098584 -0.5873603774 -0.4363613732
H   0.9099091373  0.3932317500  1.7666320721
H   1.5916834696 -0.8592929697 -1.4741885892
H   1.8089534565 -1.2734747403  0.3237244514
7
Iter 60 Image 1  Energy = -4188.1890161654
C   0.8756454505  0.5938326973 -0.1589084046
H   0.5230871820  1.2967078166 -0.8958932915
O   0.7159789685  1.0579604218  1.1026937232
C   1.3993493813 -0.5926476389 -0.4185622916
H   0.8475799458  0.3024753910  1.6828011579
H   1.3699800679 -1.0192801792 -1.3970481359
H   1.8696202008 -1.1486806877  0.3788558513
7
Iter 60 Image 2  Energy = -4187.9020462653
C   0.8147088365  0.6165473416 -0.1518501572
H   0.3519172358  1.2364498170 -0.8990520496
O   0.6321947426  0.9649568331  1.1643026106
C   1.4976812589 -0.4864267216 -0.4002940518
H   0.6741406073  0.0654278392  1.5040897430
H   1.5254257161 -1.0239705536 -1.3223287972
H   2.1051731138 -0.8826169872  0.3990711736
7
Iter 60 Image 3  Energy = -4186.6150612256
C   0.8803744703  0.6808848798 -0.2069897347
H   0.2665831651  1.2596871794 -0.8955243368
O   0.8623347657  1.0330942793  1.1054786722
C   1.3896785126 -0.5707415731 -0.2743961905
H   0.6724267833 -0.0244657726  1.2301192021
H   1.4073451207 -1.0934190702 -1.2058224854
H   2.1224983690 -0.7946723892  0.5410747826
7
Iter 60 Image 4  Energy = -4186.0488589650
C   0.8752224225  0.8202949509 -0.0817997016
H   0.2475542484  1.2744733538 -0.9100981290
O   1.0486085619  1.2591207392  1.0235852666
C   1.2666511473 -0.6039753695 -0.1335348984
H   0.6294847513 -0.4009618989  0.9983815950
H   1.4293751248 -1.0658843775 -1.1393876167
H   2.1043448396 -0.7926995065  0.5367933624
7
Iter 60 Image 5  Energy = -4188.0609999320
C   0.8326949713  0.8339213191 -0.0739691454
H   0.3631425090  1.2641585389 -0.9679169954
O   0.7344797423  1.4436543164  0.9948319300
C   1.3354797312 -0.5724235003 -0.0106784245
H   0.7469818096 -0.7069213652  0.9277630280
H   1.2413058740 -1.1239412093 -0.9699069181
H   2.3471570671 -0.6480815746  0.3938166046
7
Iter 60 Image 6  Energy = -4188.6495091638
C   0.8149708253  0.8806899519 -0.0047547426
H   0.7736949792  1.3691102140 -0.9956642898
O   0.5905742973  1.4943075653  1.0162766100
C   1.2534879014 -0.5556585072  0.0370418238
H   0.7660685750 -1.0272953458  0.8842778246
H   1.0814342855 -1.1217432739 -0.8775286400
H   2.3210108545 -0.5490430942  0.2342897842
7
Iter 60 Image 7  Energy = -4188.6263864657
C   0.8130023804  0.8656406844 -0.0373171047
H   0.7691521822  1.2888755942 -1.0540445325
O   0.4789325483  1.5517898415  0.9382332633
C   1.2867745158 -0.5477402582  0.0869963576
H   0.8525657116 -0.9968335320  0.9787175037
H   1.0231948063 -1.1216214491 -0.8037010236
H   2.3776195256 -0.5497443674  0.1850538747
7
Iter 60 Image 8  Energy = -4188.6819968244
C   0.7840367852  0.8656586589 -0.0371164025
H   0.9809293880  1.3403901038 -1.0231241499
O   0.1875804579  1.4681235287  0.8223429327
C   1.3100769769 -0.5359012779  0.1153731248
H   1.0639489065 -0.9236344469  1.1059940899
H   0.8779311114 -1.1816924395 -0.6582837811
H   2.3967379442 -0.5425772870 -0.0312469938
7
Iter 61 Image 0  Energy = -4188.2527480593
C   0.8260657415  0.5508603911 -0.1261794589
H   0.4554445983  1.2417513435 -0.8784317668
O   0.5680753083  1.0246514429  1.1187434847
C   1.4411098584 -0.5873603774 -0.4363613732
H   0.9099091373  0.3932317500  1.7666320721
H   1.5916834696 -0.8592929697 -1.4741885892
H   1.8089534565 -1.2734747403  0.3237244514
7
Iter 61 Image 1  Energy = -4188.1899083278
C   0.8569094987  0.5886208641 -0.1566092033
H   0.4581618961  1.2588431731 -0.9056037382
O   0.6700325575  1.0355159705  1.1080600453
C   1.4471348992 -0.5649482780 -0.4181506476
H   0.8198116824  0.2757348766  1.6803209614
H   1.4413867533 -0.9853318251 -1.3969112627
H   1.9078042383 -1.1180674519  0.3828325887
7
Iter 61 Image 2  Energy = -4187.8964581659
C   0.8551562627  0.6307025903 -0.1722842345
H   0.4137894707  1.2645686936 -0.9149665569
O   0.7288378397  1.0176330173  1.1384773325
C   1.4364793900 -0.5263924693 -0.4014047106
H   0.7583939133  0.1265378032  1.5079301276
H   1.4179462050 -1.1027972049 -1.3042974180
H   1.9906382656 -0.9198854129  0.4404850373
7
Iter 61 Image 3  Energy = -4186.6813345796
C   0.8914679632  0.6923291588 -0.1999554473
H   0.4265385570  1.3774409877 -0.8761421201
O   0.8580114069  0.9657777805  1.1095200660
C   1.3079758278 -0.5748619301 -0.2925661882
H   0.7433463395 -0.0584558774  1.2170799480
H   1.3518998302 -1.1170845708 -1.1948042756
H   2.0220013974 -0.7947780571  0.5308070389
7
Iter 61 Image 4  Energy = -4186.1419463700
C   0.8574421220  0.8010772994 -0.1125679090
H   0.4475542484  1.3966584489 -0.8749707398
O   0.9597938914  1.2013091596  1.0292366269
C   1.1998178192 -0.5949245079 -0.1372837616
H   0.7551412805 -0.4195450913  0.9846390079
H   1.3486745968 -1.1016049509 -1.1115764186
H   2.0328173160 -0.7926022269  0.5164627232
7
Iter 61 Image 5  Energy = -4188.1588060132
C   0.8889528523  0.8734028255 -0.0695242908
H   0.4251476366  1.3444865982 -0.9447427292
O   0.8937259932  1.4283856343  1.0273468580
C   1.2731833424 -0.5726877937 -0.0394327150
H   0.6554953275 -0.7893736674  0.8585355844
H   1.2246969546 -1.1063592833 -1.0069825886
H   2.2400392420 -0.6874866252  0.4687392737
7
Iter 61 Image 6  Energy = -4188.6491784176
C   0.8393929233  0.8776322354  0.0031605395
H   0.6790214606  1.3196110094 -0.9835995945
O   0.6604716811  1.5428052023  0.9926761924
C   1.2740007328 -0.5476959385  0.0385541633
H   0.7337119388 -0.9925049802  0.8605805479
H   1.0809023429 -1.0681272302 -0.8939795621
H   2.3337405447 -0.6413531117  0.2765465127
7
Iter 61 Image 7  Energy = -4188.6739639959
C   0.8101281273  0.8730954314 -0.0226970663
H   0.7953343674  1.2916254071 -1.0476291279
O   0.4667365153  1.5545369693  0.9215693768
C   1.2798233729 -0.5481660941  0.0902349992
H   0.8676624362 -1.0176375042  0.9798976911
H   1.0125038901 -1.1177327889 -0.7979085013
H   2.3690529015 -0.5453547023  0.1704710505
7
Iter 61 Image 8  Energy = -4188.6819968244
C   0.7840367852  0.8656586589 -0.0371164025
H   0.9809293880  1.3403901038 -1.0231241499
O   0.1875804579  1.4681235287  0.8223429327
C   1.3100769769 -0.5359012779  0.1153731248
H   1.0639489065 -0.9236344469  1.1059940899
H   0.8779311114 -1.1816924395 -0.6582837811
H   2.3967379442 -0.5425772870 -0.0312469938
7
Iter 62 Image 0  Energy = -4188.2527480593
C   0.8260657415  0.5508603911 -0.1261794589
H   0.4554445983  1.2417513435 -0.8784317668
O   0.5680753083  1.0246514429  1.1187434847
C   1.4411098584 -0.5873603774 -0.4363613732
H   0.9099091373  0.3932317500  1.7666320721
H   1.5916834696 -0.8592929697 -1.4741885892
H   1.8089534565 -1.2734747403  0.3237244514
7
Iter 62 Image 1  Energy = -4188.1942386648
C   0.8373764479  0.5825251136 -0.1541507063
H   0.4111136384  1.2273224452 -0.9101416550
O   0.6311371962  1.0232536714  1.1139862953
C   1.4755454239 -0.5476379855 -0.4181189154
H   0.8013371779  0.2604919373  1.6757381826
H   1.5021951962 -0.9656998193 -1.4024688863
H   1.9425367231 -1.0898886035  0.3890946526
7
Iter 62 Image 2  Energy = -4187.8943258396
C   0.8859544930  0.6479478740 -0.1934995294
H   0.4967309473  1.3285653367 -0.9155712145
O   0.7940808604  1.0464791819  1.1081523829
C   1.3769773357 -0.5819227992 -0.3994693626
H   0.8416157827  0.1757684410  1.5134778379
H   1.3099333863 -1.1641255343 -1.2888919142
H   1.8959485411 -0.9623459704  0.4697419724
7
Iter 62 Image 3  Energy = -4186.7007392815
C   0.8785700635  0.7086324306 -0.1850241100
H   0.6070012082  1.4942560441 -0.8736485339
O   0.7938407086  0.9281068410  1.1299959781
C   1.2496844682 -0.5804084170 -0.3146373961
H   0.8267797921 -0.0960358385  1.2290004969
H   1.2841817606 -1.1601537468 -1.1689016243
H   1.9611835485 -0.8040301941  0.4771534827
7
Iter 62 Image 4  Energy = -4186.0604557565
C   0.8402236866  0.7860228703 -0.1255112024
H   0.6475542484  1.5262486817 -0.8796012342
O   0.7838266450  1.1548055444  1.0485932597
C   1.1600371413 -0.6064640433 -0.1529483199
H   0.8956355089 -0.4324606281  1.0161324751
H   1.2544026252 -1.1528572032 -1.0798682615
H   2.0195616924 -0.7849275604  0.4671422597
7
Iter 62 Image 5  Energy = -4188.2338837108
C   0.9181618227  0.8922191392 -0.0446665209
H   0.5520942462  1.4417869084 -0.9376811052
O   0.9256469229  1.3912691791  1.0442808120
C   1.2242169350 -0.5641707589 -0.0550902373
H   0.6309232758 -0.8396818233  0.8217461633
H   1.1846193924 -1.1106902012 -1.0030699581
H   2.1655785941 -0.7203642805  0.4684195375
7
Iter 62 Image 6  Energy = -4188.6295958927
C   0.8648148032  0.8829697176  0.0050525147
H   0.5942873966  1.2859993970 -0.9768914467
O   0.7429994717  1.5819866915  0.9793442662
C   1.2889675705 -0.5481125660  0.0417779495
H   0.6932854514 -0.9794673029  0.8362332638
H   1.0852138092 -1.0270150545 -0.9115947161
H   2.3316730115 -0.7059940164  0.3200173853
7
Iter 62 Image 7  Energy = -4188.6779598019
C   0.8075490312  0.8770216347 -0.0126805045
H   0.8269244368  1.2944098761 -1.0386377470
O   0.4501556538  1.5502787621  0.9079281084
C   1.2736818986 -0.5469737179  0.0936484784
H   0.8837532384 -1.0286835586  0.9833162084
H   0.9977855076 -1.1130028066 -0.7912524631
H   2.3613918021 -0.5426832894  0.1516165807
7
Iter 62 Image 8  Energy = -4188.6819968244
C   0.7840367852  0.8656586589 -0.0371164025
H   0.9809293880  1.3403901038 -1.0231241499
O   0.1875804579  1.4681235287  0.8223429327
C   1.3100769769 -0.5359012779  0.1153731248
H   1.0639489065 -0.9236344469  1.1059940899
H   0.8779311114 -1.1816924395 -0.6582837811
H   2.3967379442 -0.5425772870 -0.0312469938
7
Iter 63 Image 0  Energy = -4188.2527480593
C   0.8260657415  0.5508603911 -0.1261794589
H   0.4554445983  1.2417513435 -0.8784317668
O   0.5680753083  1.0246514429  1.1187434847
C   1.4411098584 -0.5873603774 -0.4363613732
H   0.9099091373  0.3932317500  1.7666320721
H   1.5916834696 -0.8592929697 -1.4741885892
H   1.8089534565 -1.2734747403  0.3237244514
7
Iter 63 Image 1  Energy = -4188.1975984296
C   0.8217513090  0.5750197796 -0.1512766826
H   0.3822921908  1.2061951443 -0.9117286864
O   0.6027877471  1.0186743339  1.1173110615
C   1.4881027213 -0.5396082034 -0.4181978361
H   0.7920673575  0.2551055927  1.6725246335
H   1.5460638802 -0.9562937908 -1.4093538996
H   1.9681768030 -1.0687266186  0.3946606079
7
Iter 63 Image 2  Energy = -4187.8867877296
C   0.9121857503  0.6480710624 -0.2103677045
H   0.5797507132  1.4023993958 -0.9094370386
O   0.8288171999  1.0612521736  1.0815019287
C   1.3212974421 -0.6182626886 -0.3945279773
H   0.9110379510  0.2073456434  1.5211776440
H   1.2199564808 -1.2081619043 -1.2801137817
H   1.8281959063 -1.0022775346  0.4857073012
7
Iter 63 Image 3  Energy = -4186.4867850414
C   0.8573876630  0.7188010536 -0.1688232279
H   0.7703336134  1.5889073231 -0.8766503310
O   0.7046635907  0.9078051543  1.1495577432
C   1.2074151946 -0.5725242516 -0.3294296028
H   0.9045782648 -0.1264034771  1.2509525570
H   1.2195696157 -1.2094509171 -1.1440922144
H   1.9372938575 -0.8167682789  0.4124228451
7
Iter 63 Image 4  Energy = -4185.8367043754
C   0.8146873010  0.7798119968 -0.1349387556
H   0.8252840992  1.6275846154 -0.8895141638
O   0.5838266450  1.1206075627  1.0655227458
C   1.1415669059 -0.6165373115 -0.1615472325
H   1.0241583457 -0.4380751088  1.0638734421
H   1.1676695964 -1.2078859512 -1.0558939469
H   2.0440489421 -0.7751389468  0.4064363023
7
Iter 63 Image 5  Energy = -4188.2095978728
C   0.9233440667  0.8982456325 -0.0318470504
H   0.6976264676  1.5288939317 -0.9371181319
O   0.8769463201  1.3566011349  1.0649237265
C   1.1925070660 -0.5562564472 -0.0631410876
H   0.6463536582 -0.8672373309  0.8134405122
H   1.1348866132 -1.1277947616 -0.9786166572
H   2.1295769846 -0.7420840187  0.4262967808
7
Iter 63 Image 6  Energy = -4188.6185867658
C   0.8855897137  0.8904234803  0.0075838789
H   0.5296659801  1.2664575490 -0.9732379489
O   0.8194473820  1.6090653469  0.9698825451
C   1.2944378171 -0.5509819006  0.0441948594
H   0.6560006289 -0.9802046507  0.8144339702
H   1.0919260562 -0.9998206776 -0.9255384733
H   2.3241738343 -0.7445725563  0.3566207290
7
Iter 63 Image 7  Energy = -4188.6703599116
C   0.8071604788  0.8769758876 -0.0076811993
H   0.8556700445  1.2975171547 -1.0302575316
O   0.4339105500  1.5443786191  0.9012716592
C   1.2689746145 -0.5456492949  0.0953632653
H   0.8962626243 -1.0326004002  0.9870521895
H   0.9837149042 -1.1084412737 -0.7861168338
H   2.3555483247 -0.5418136466  0.1343074052
7
Iter 63 Image 8  Energy = -4188.6819968244
C   0.7840367852  0.8656586589 -0.0371164025
H   0.9809293880  1.3403901038 -1.0231241499
O   0.1875804579  1.4681235287  0.8223429327
C   1.3100769769 -0.5359012779  0.1153731248
H   1.0639489065 -0.9236344469  1.1059940899
H   0.8779311114 -1.1816924395 -0.6582837811
H   2.3967379442 -0.5425772870 -0.0312469938
7
Iter 64 Image 0  Energy = -4188.2527480593
C   0.8260657415  0.5508603911 -0.1261794589
H   0.4554445983  1.2417513435 -0.8784317668
O   0.5680753083  1.0246514429  1.1187434847
C   1.4411098584 -0.5873603774 -0.4363613732
H   0.9099091373  0.3932317500  1.7666320721
H   1.5916834696 -0.8592929697 -1.4741885892
H   1.8089534565 -1.2734747403  0.3237244514
7
Iter 64 Image 1  Energy = -4188.1993926635
C   0.8291905737  0.5720120354 -0.1502323622
H   0.4157065067  1.2226129364 -0.9048309206
O   0.6221130398  1.0346076266  1.1156055958
C   1.4587349905 -0.5556714485 -0.4189945789
H   0.8079952659  0.2751774345  1.6745590292
H   1.5158610902 -0.9743982840 -1.4160755173
H   1.9516403966 -1.0839739163  0.3939079427
7
Iter 64 Image 2  Energy = -4187.8971635124
C   0.8947019113  0.6301763702 -0.2054782267
H   0.5670594813  1.4103615117 -0.8945230374
O   0.7757123552  1.0308003331  1.0854957126
C   1.3426982111 -0.6004051878 -0.3918214608
H   0.8786895114  0.1828679684  1.5301153238
H   1.2621683403 -1.1661961647 -1.2918268088
H   1.8802117796 -0.9972384309  0.4619781701
7
Iter 64 Image 3  Energy = -4186.5679721257
C   0.8405318065  0.7236890367 -0.1693313616
H   0.7227776186  1.5332299930 -0.8797042721
O   0.6736837741  0.9523280013  1.1557255644
C   1.2486257324 -0.5636651659 -0.3295725937
H   0.8849211735 -0.1060795622  1.2691573771
H   1.2330796233 -1.2176762599 -1.1449484745
H   1.9976220596 -0.8314595183  0.3926120075
7
Iter 64 Image 4  Energy = -4186.1011521539
C   0.8177056012  0.7988889836 -0.1090265714
H   0.7529564919  1.5687025625 -0.9015711852
O   0.5765788339  1.1511677956  1.0558754657
C   1.1800782870 -0.6235517612 -0.1541194860
H   0.9793908708 -0.4190754200  1.0846213051
H   1.1886322188 -1.2111264570 -1.0750255453
H   2.1058995193 -0.7746393193  0.3931844020
7
Iter 64 Image 5  Energy = -4188.2376108637
C   0.8844027551  0.8749847101 -0.0196621162
H   0.7147400691  1.5007613283 -0.9483781584
O   0.7534181126  1.3651499582  1.0451970770
C   1.2246870140 -0.5511297685 -0.0472363366
H   0.7032227744 -0.8322094212  0.8487793626
H   1.1251439244 -1.1455913761 -0.9383205549
H   2.1956267499 -0.7215980708  0.3535590756
7
Iter 64 Image 6  Energy = -4188.6385698488
C   0.8761890185  0.9002074174  0.0100242123
H   0.5696800608  1.2911462462 -0.9815030780
O   0.8022767546  1.5842461600  0.9758786266
C   1.2798230171 -0.5579334855  0.0454789824
H   0.6637331660 -1.0093019345  0.8221389687
H   1.0952032225 -1.0257797590 -0.9180417845
H   2.3143361987 -0.6922179398  0.3399634831
7
Iter 64 Image 7  Energy = -4188.5916644877
C   0.8026118038  0.8839141269  0.0030147838
H   0.8484589571  1.2971565538 -1.0331529787
O   0.4426607462  1.5280021820  0.8943489865
C   1.2723371351 -0.5459925135  0.0925248041
H   0.8894373914 -1.0188066292  0.9874046180
H   0.9863606518 -1.1092800515 -0.7886561070
H   2.3593748885 -0.5446267142  0.1384548975
7
Iter 64 Image 8  Energy = -4188.6819968244
C   0.7840367852  0.8656586589 -0.0371164025
H   0.9809293880  1.3403901038 -1.0231241499
O   0.1875804579  1.4681235287  0.8223429327
C   1.3100769769 -0.5359012779  0.1153731248
H   1.0639489065 -0.9236344469  1.1059940899
H   0.8779311114 -1.1816924395 -0.6582837811
H   2.3967379442 -0.5425772870 -0.0312469938
7
Iter 65 Image 0  Energy = -4188.2527480593
C   0.8260657415  0.5508603911 -0.1261794589
H   0.4554445983  1.2417513435 -0.8784317668
O   0.5680753083  1.0246514429  1.1187434847
C   1.4411098584 -0.5873603774 -0.4363613732
H   0.9099091373  0.3932317500  1.7666320721
H   1.5916834696 -0.8592929697 -1.4741885892
H   1.8089534565 -1.2734747403  0.3237244514
7
Iter 65 Image 1  Energy = -4188.2021158060
C   0.8420440830  0.5758710148 -0.1486327338
H   0.4640835584  1.2504455321 -0.8972810701
O   0.6558855031  1.0535592580  1.1101336704
C   1.4252302909 -0.5829355577 -0.4206408949
H   0.8297739489  0.2999288440  1.6799868997
H   1.4633460264 -0.9964149425 -1.4185766149
H   1.9208782042 -1.1100873693  0.3889498218
7
Iter 65 Image 2  Energy = -4187.9184713832
C   0.8605209728  0.6200419158 -0.1912154018
H   0.5174083081  1.3816327912 -0.8801928536
O   0.7022869525  0.9952759156  1.1041110072
C   1.3925991915 -0.5703184246 -0.3947769425
H   0.8126750814  0.1420259589  1.5381741684
H   1.3498840639 -1.1024403447 -1.3102948816
H   1.9658671310 -0.9758509732  0.4281337321
7
Iter 65 Image 3  Energy = -4186.7338296047
C   0.8380325087  0.7070703902 -0.1624366368
H   0.5934508339  1.4418639093 -0.8879850093
O   0.6844213090  1.0022157311  1.1422515501
C   1.3082775897 -0.5494787212 -0.3150363933
H   0.8287989325 -0.0661368573  1.2736405376
H   1.2753576750 -1.2050630855 -1.1617945462
H   2.0729028125 -0.8401046945  0.4052995006
7
Iter 65 Image 4  Energy = -4186.2191087848
C   0.8360468328  0.8084140039 -0.0860152470
H   0.5945045020  1.4653853293 -0.9138052191
O   0.6587840510  1.2036161157  1.0486065706
C   1.2314241163 -0.6172151977 -0.1358572138
H   0.8736116975 -0.3993957833  1.0859236448
H   1.2497726957 -1.1912804693 -1.1091654307
H   2.1570977893 -0.7791577642  0.4042515366
7
Iter 65 Image 5  Energy = -4188.3277707121
C   0.8412431790  0.8532883790 -0.0318892929
H   0.6692030099  1.4263394395 -0.9554544047
O   0.6402590236  1.3997086774  1.0300890627
C   1.2727798810 -0.5558872829 -0.0269470183
H   0.7535702965 -0.7864259737  0.8924783431
H   1.1346092543 -1.1576946846 -0.9098423060
H   2.2895770025 -0.6889620165  0.2955045111
7
Iter 65 Image 6  Energy = -4188.6633736214
C   0.8582955572  0.8927861108 -0.0002160884
H   0.6422277925  1.3282056761 -0.9944380070
O   0.7490975832  1.5555963057  1.0008398350
C   1.2563829000 -0.5599039716  0.0446828601
H   0.6889675234 -1.0411977026  0.8401926045
H   1.0957925546 -1.0661472239 -0.9036824446
H   2.3104776001 -0.6189722384  0.3065603326
7
Iter 65 Image 7  Energy = -4188.6630584767
C   0.8130756781  0.8654130804 -0.0262707848
H   0.8270158625  1.2949684880 -1.0385798464
O   0.4460883003  1.5386892784  0.9265219139
C   1.2776876491 -0.5456864527  0.0892483581
H   0.8754048878 -1.0032992829  0.9861573717
H   0.9956723320 -1.1117581849 -0.7946574370
H   2.3662969102 -0.5479601369  0.1515193429
7
Iter 65 Image 8  Energy = -4188.6819968244
C   0.7840367852  0.8656586589 -0.0371164025
H   0.9809293880  1.3403901038 -1.0231241499
O   0.1875804579  1.4681235287  0.8223429327
C   1.3100769769 -0.5359012779  0.1153731248
H   1.0639489065 -0.9236344469  1.1059940899
H   0.8779311114 -1.1816924395 -0.6582837811
H   2.3967379442 -0.5425772870 -0.0312469938
7
Iter 66 Image 0  Energy = -4188.2527480593
C   0.8260657415  0.5508603911 -0.1261794589
H   0.4554445983  1.2417513435 -0.8784317668
O   0.5680753083  1.0246514429  1.1187434847
C   1.4411098584 -0.5873603774 -0.4363613732
H   0.9099091373  0.3932317500  1.7666320721
H   1.5916834696 -0.8592929697 -1.4741885892
H   1.8089534565 -1.2734747403  0.3237244514
7
Iter 66 Image 1  Energy = -4188.2034792474
C   0.8520269058  0.5799467945 -0.1506810738
H   0.4828158048  1.2649902400 -0.8964904765
O   0.6741837825  1.0564013506  1.1066286668
C   1.4166855499 -0.5892723422 -0.4201115900
H   0.8365507872  0.3045156285  1.6832107440
H   1.4350427097 -1.0021939611 -1.4133099555
H   1.9039359434 -1.1240206117  0.3846926298
7
Iter 66 Image 2  Energy = -4187.9432275912
C   0.8438553889  0.6195262172 -0.1771698231
H   0.4677710885  1.3370200826 -0.8843559727
O   0.6776489366  0.9884533254  1.1228168317
C   1.4261812218 -0.5460927953 -0.3987061580
H   0.7698796616  0.1211425123  1.5337722052
H   1.4072066053 -1.0764203856 -1.3188988872
H   2.0086987482 -0.9532618784  0.4164804723
7
Iter 66 Image 3  Energy = -4186.8637347540
C   0.8549431723  0.6932368158 -0.1672339650
H   0.4883658225  1.3911488313 -0.8935697343
O   0.7385414884  1.0130800448  1.1273654980
C   1.3355918536 -0.5560232882 -0.3017809760
H   0.7799266770 -0.0463290764  1.2625315207
H   1.3135874091 -1.1733343463 -1.1787428127
H   2.0902850886 -0.8314120245  0.4453697950
7
Iter 66 Image 4  Energy = -4186.2361563838
C   0.8546338138  0.8064590851 -0.0893843533
H   0.4830820071  1.4077937865 -0.9167863456
O   0.7766014952  1.2292914478  1.0517769269
C   1.2443732656 -0.6084041586 -0.1305258728
H   0.7944019483 -0.4004636235  1.0630832708
H   1.3026844376 -1.1577720751 -1.1235543507
H   2.1454645470 -0.7865377751  0.4393297189
7
Iter 66 Image 5  Energy = -4188.3156557700
C   0.8359310472  0.8545989059 -0.0401300079
H   0.5835573007  1.3723232731 -0.9568919057
O   0.6625505099  1.4208479780  1.0172656224
C   1.2939115575 -0.5636218024 -0.0191946804
H   0.7461954699 -0.7699784377  0.9025593881
H   1.1617768344 -1.1497357777 -0.9269141783
H   2.3173189499 -0.6740676376  0.3172450231
7
Iter 66 Image 6  Energy = -4188.6637336484
C   0.8448657825  0.8873629356  0.0011479309
H   0.6835412067  1.3416930311 -0.9987540582
O   0.7029869057  1.5385212608  1.0061880286
C   1.2510828538 -0.5570834492  0.0427524694
H   0.7117591056 -1.0432562073  0.8534418067
H   1.0917288358 -1.0836784777 -0.8948097675
H   2.3152768836 -0.5931919649  0.2839724661
7
Iter 66 Image 7  Energy = -4188.6754074118
C   0.8109079585  0.8693527897 -0.0233763046
H   0.8095932345  1.2934982605 -1.0446241482
O   0.4580354415  1.5382693188  0.9258562428
C   1.2807844691 -0.5470650308  0.0878013402
H   0.8673428912 -1.0002567261  0.9842036104
H   1.0042077700 -1.1147906919 -0.7980372658
H   2.3703698722 -0.5486412222  0.1621152715
7
Iter 66 Image 8  Energy = -4188.6819968244
C   0.7840367852  0.8656586589 -0.0371164025
H   0.9809293880  1.3403901038 -1.0231241499
O   0.1875804579  1.4681235287  0.8223429327
C   1.3100769769 -0.5359012779  0.1153731248
H   1.0639489065 -0.9236344469  1.1059940899
H   0.8779311114 -1.1816924395 -0.6582837811
H   2.3967379442 -0.5425772870 -0.0312469938
7
Iter 67 Image 0  Energy = -4188.2527480593
C   0.8260657415  0.5508603911 -0.1261794589
H   0.4554445983  1.2417513435 -0.8784317668
O   0.5680753083  1.0246514429  1.1187434847
C   1.4411098584 -0.5873603774 -0.4363613732
H   0.9099091373  0.3932317500  1.7666320721
H   1.5916834696 -0.8592929697 -1.4741885892
H   1.8089534565 -1.2734747403  0.3237244514
7
Iter 67 Image 1  Energy = -4188.1981733909
C   0.8629268151  0.5848619183 -0.1563175917
H   0.4843328025  1.2726792062 -0.9002374286
O   0.6860403236  1.0481549264  1.1046418561
C   1.4245599417 -0.5803545017 -0.4179989196
H   0.8334565476  0.2960465862  1.6862264001
H   1.4173346789 -0.9963694427 -1.4020177902
H   1.8925902873 -1.1346512057  0.3796422042
7
Iter 67 Image 2  Energy = -4187.9331146798
C   0.8365775287  0.6228378154 -0.1579371308
H   0.3960865002  1.2637842390 -0.9056640390
O   0.6838494220  1.0022816172  1.1465145839
C   1.4594704824 -0.5178676278 -0.4038083044
H   0.7287032990  0.1109079133  1.5201753640
H   1.4629741195 -1.0684849830 -1.3236959209
H   2.0335800908 -0.9230917183  0.4183544462
7
Iter 67 Image 3  Energy = -4186.7729428431
C   0.8952199877  0.6811683887 -0.1948069009
H   0.3630436978  1.3465591843 -0.8947124025
O   0.8494775804  1.0025001467  1.1139255419
C   1.3475608264 -0.5780424436 -0.2866208260
H   0.7162730720 -0.0365701974  1.2382467895
H   1.3626149817 -1.1162395666 -1.2018188047
H   2.0670511300 -0.8090080218  0.5197260511
7
Iter 67 Image 4  Energy = -4186.2129099092
C   0.8827259319  0.8025158008 -0.1027408731
H   0.3617903049  1.3607446455 -0.9105071551
O   0.9766014952  1.2416207533  1.0534449530
C   1.2298833065 -0.5955979374 -0.1349225032
H   0.7025445996 -0.4157936133  1.0087393918
H   1.3681631927 -1.1013462034 -1.1288084050
H   2.0795324200 -0.8017756296  0.5087341493
7
Iter 67 Image 5  Energy = -4188.2568762025
C   0.8630076956  0.8647681986 -0.0459480517
H   0.4302028596  1.3151594506 -0.9613875348
O   0.8080465193  1.4483471687  1.0095832801
C   1.2998901850 -0.5724997409 -0.0192430623
H   0.6833421821 -0.7766193065  0.8843382027
H   1.2138624919 -1.1204285270 -0.9842490146
H   2.3028895795 -0.6683601318  0.4108458078
7
Iter 67 Image 6  Energy = -4188.6647642872
C   0.8295879384  0.8802917118  0.0057916871
H   0.7163226732  1.3398190939 -0.9966974602
O   0.6444272445  1.5282629156  1.0024362019
C   1.2592100822 -0.5508165782  0.0408440875
H   0.7416571427 -1.0244002186  0.8678326064
H   1.0820644047 -1.0888829234 -0.8865506718
H   2.3279721684 -0.5939066994  0.2602822128
7
Iter 67 Image 7  Energy = -4188.6780995896
C   0.8083237232  0.8742121158 -0.0220494715
H   0.7886761570  1.2908434408 -1.0510476723
O   0.4711900229  1.5460099527  0.9231614085
C   1.2830018492 -0.5483525982  0.0886680500
H   0.8613736495 -1.0060638119  0.9809821963
H   1.0151688802 -1.1189903091 -0.8005454409
H   2.3735073587 -0.5472921691  0.1747693592
7
Iter 67 Image 8  Energy = -4188.6819968244
C   0.7840367852  0.8656586589 -0.0371164025
H   0.9809293880  1.3403901038 -1.0231241499
O   0.1875804579  1.4681235287  0.8223429327
C   1.3100769769 -0.5359012779  0.1153731248
H   1.0639489065 -0.9236344469  1.1059940899
H   0.8779311114 -1.1816924395 -0.6582837811
H   2.3967379442 -0.5425772870 -0.0312469938
7
Iter 68 Image 0  Energy = -4188.2527480593
C   0.8260657415  0.5508603911 -0.1261794589
H   0.4554445983  1.2417513435 -0.8784317668
O   0.5680753083  1.0246514429  1.1187434847
C   1.4411098584 -0.5873603774 -0.4363613732
H   0.9099091373  0.3932317500  1.7666320721
H   1.5916834696 -0.8592929697 -1.4741885892
H   1.8089534565 -1.2734747403  0.3237244514
7
Iter 68 Image 1  Energy = -4188.1945817789
C   0.8473267217  0.5850264336 -0.1549072994
H   0.4409526003  1.2468949334 -0.9066198453
O   0.6545730653  1.0321759529  1.1061778241
C   1.4572270173 -0.5660325423 -0.4182827259
H   0.8158734433  0.2793660502  1.6859848741
H   1.4666038711 -0.9732982044 -1.4000169420
H   1.9186849059 -1.1137655211  0.3816029748
7
Iter 68 Image 2  Energy = -4187.9280597439
C   0.8632963110  0.6372546809 -0.1766541866
H   0.4496965939  1.2880500501 -0.9118818030
O   0.7463000998  1.0352914590  1.1343858042
C   1.4133302179 -0.5483829196 -0.4053918105
H   0.7907616535  0.1559817937  1.5220744194
H   1.3848479148 -1.1244423529 -1.3128091074
H   1.9530085699 -0.9533858423  0.4442163721
7
Iter 68 Image 3  Energy = -4186.7653818822
C   0.8948267853  0.6964913668 -0.1902014091
H   0.4864593248  1.4341977442 -0.8876859691
O   0.8378940216  0.9460431266  1.1134254549
C   1.2886465563 -0.5836968058 -0.2945159279
H   0.7690060870 -0.0610514250  1.2354158705
H   1.3178639881 -1.1327984901 -1.1904339526
H   2.0065446473 -0.8088181922  0.5079347243
7
Iter 68 Image 4  Energy = -4186.1855067781
C   0.8645650791  0.8080300182 -0.1129953755
H   0.5155045116  1.4517119995 -0.8917138227
O   0.8849310215  1.1847947870  1.0410495007
C   1.1939064968 -0.5968868775 -0.1392536960
H   0.8017030129 -0.4283745481  1.0115688356
H   1.3040583889 -1.1258943375 -1.0992291276
H   2.0365728953 -0.8030132151  0.4845129595
7
Iter 68 Image 5  Energy = -4188.2456183454
C   0.8946946506  0.8991046348 -0.0600982988
H   0.4922915181  1.3751730287 -0.9426717197
O   0.8964383975  1.4309030280  1.0398772150
C   1.2562011648 -0.5768404933 -0.0351268864
H   0.6356761287 -0.8295152175  0.8480662986
H   1.1938520854 -1.1119254513 -1.0066270594
H   2.2320873632 -0.6965317483  0.4505195568
7
Iter 68 Image 6  Energy = -4188.6531371048
C   0.8465969442  0.8804316536  0.0091192405
H   0.6507868171  1.3059576881 -0.9863035917
O   0.6984250321  1.5621781537  0.9863611235
C   1.2735644708 -0.5468603173  0.0428489750
H   0.7171184114 -1.0041925221  0.8492363003
H   1.0821928490 -1.0517812134 -0.8988955198
H   2.3325570580 -0.6553663754  0.2915724420
7
Iter 68 Image 7  Energy = -4188.6399929246
C   0.8025030779  0.8839343585 -0.0048583318
H   0.8094617330  1.2931938740 -1.0462226531
O   0.4640014468  1.5416230111  0.9038776663
C   1.2783420808 -0.5487220264  0.0908897231
H   0.8732986973 -1.0188076210  0.9830095853
H   1.0059893514 -1.1162102673 -0.7953028012
H   2.3676452163 -0.5446445640  0.1625453470
7
Iter 68 Image 8  Energy = -4188.6819968244
C   0.7840367852  0.8656586589 -0.0371164025
H   0.9809293880  1.3403901038 -1.0231241499
O   0.1875804579  1.4681235287  0.8223429327
C   1.3100769769 -0.5359012779  0.1153731248
H   1.0639489065 -0.9236344469  1.1059940899
H   0.8779311114 -1.1816924395 -0.6582837811
H   2.3967379442 -0.5425772870 -0.0312469938
7
Iter 69 Image 0  Energy = -4188.2527480593
C   0.8260657415  0.5508603911 -0.1261794589
H   0.4554445983  1.2417513435 -0.8784317668
O   0.5680753083  1.0246514429  1.1187434847
C   1.4411098584 -0.5873603774 -0.4363613732
H   0.9099091373  0.3932317500  1.7666320721
H   1.5916834696 -0.8592929697 -1.4741885892
H   1.8089534565 -1.2734747403  0.3237244514
7
Iter 69 Image 1  Energy = -4188.2057394257
C   0.8331097446  0.5766254842 -0.1513132047
H   0.4176233510  1.2283260609 -0.9071894161
O   0.6291392647  1.0307600891  1.1092608396
C   1.4651078100 -0.5612950621 -0.4187428341
H   0.8097027203  0.2787722938  1.6840349749
H   1.5056122633 -0.9662009034 -1.4088879664
H   1.9409466521 -1.0966213545  0.3867767006
7
Iter 69 Image 2  Energy = -4187.9464621863
C   0.8839962182  0.6391241248 -0.1954239513
H   0.5310583124  1.3587388962 -0.9009172496
O   0.7723749279  1.0437911518  1.1087083994
C   1.3637517399 -0.5851384587 -0.4023929430
H   0.8541841570  0.1870714365  1.5353687018
H   1.3035712958 -1.1589027887 -1.3057935680
H   1.8923048281 -0.9943178224  0.4543903811
7
Iter 69 Image 3  Energy = -4186.7848892307
C   0.8671166842  0.7109210620 -0.1720912548
H   0.6433003049  1.5151009251 -0.8859452486
O   0.7464186251  0.9298929869  1.1293914280
C   1.2525490060 -0.5732015840 -0.3124544192
H   0.8429635760 -0.0824769853  1.2580202572
H   1.2558819556 -1.1830471406 -1.1662092580
H   1.9930115072 -0.8268224493  0.4432268532
7
Iter 69 Image 4  Energy = -4186.1476813129
C   0.8385332716  0.8062002613 -0.1165516410
H   0.6832384489  1.5397816946 -0.8953916195
O   0.6849310215  1.1529565376  1.0478395247
C   1.1843776973 -0.6057840902 -0.1413484661
H   0.9214482010 -0.4268451653  1.0586335230
H   1.2200375468 -1.1811398470 -1.0787400038
H   2.0686755040 -0.7948024328  0.4194973748
7
Iter 69 Image 5  Energy = -4188.3284261099
C   0.8931980096  0.9067723991 -0.0428139169
H   0.6407482487  1.4535957096 -0.9374311485
O   0.8297700072  1.3986778565  1.0500509942
C   1.2288839311 -0.5692383718 -0.0415513393
H   0.6587292370 -0.8541435696  0.8434577115
H   1.1413342509 -1.1305768613 -0.9741356296
H   2.2085776434 -0.7147195209  0.3963618821
7
Iter 69 Image 6  Energy = -4188.6525402537
C   0.8660935476  0.8877244697  0.0095018573
H   0.5932045492  1.2898608721 -0.9836360428
O   0.7715934675  1.5872448361  0.9796400736
C   1.2750905530 -0.5503796816  0.0458087863
H   0.6815446247 -1.0110163899  0.8287357317
H   1.0893205528 -1.0285249706 -0.9112779382
H   2.3243941913 -0.6845423226  0.3251668208
7
Iter 69 Image 7  Energy = -4188.6549989602
C   0.8039944202  0.8799028271 -0.0052163690
H   0.8364463372  1.2963424616 -1.0382973784
O   0.4474549059  1.5381186354  0.9031871766
C   1.2741924328 -0.5474648360  0.0919607075
H   0.8841337482 -1.0205372687  0.9866813239
H   0.9926316659 -1.1116693489 -0.7907653797
H   2.3623880726 -0.5443255771  0.1463887556
7
Iter 69 Image 8  Energy = -4188.6819968244
C   0.7840367852  0.8656586589 -0.0371164025
H   0.9809293880  1.3403901038 -1.0231241499
O   0.1875804579  1.4681235287  0.8223429327
C   1.3100769769 -0.5359012779  0.1153731248
H   1.0639489065 -0.9236344469  1.1059940899
H   0.8779311114 -1.1816924395 -0.6582837811
H   2.3967379442 -0.5425772870 -0.0312469938
7
Iter 70 Image 0  Energy = -4188.2527480593
C   0.8260657415  0.5508603911 -0.1261794589
H   0.4554445983  1.2417513435 -0.8784317668
O   0.5680753083  1.0246514429  1.1187434847
C   1.4411098584 -0.5873603774 -0.4363613732
H   0.9099091373  0.3932317500  1.7666320721
H   1.5916834696 -0.8592929697 -1.4741885892
H   1.8089534565 -1.2734747403  0.3237244514
7
Iter 70 Image 1  Energy = -4188.2098858228
C   0.8240070102  0.5680393151 -0.1484522419
H   0.4168745299  1.2209871213 -0.9032122263
O   0.6174597976  1.0379525566  1.1107679169
C   1.4548111883 -0.5673518489 -0.4197511983
H   0.8139011110  0.2908888203  1.6837018709
H   1.5230364071 -0.9702290288 -1.4199089444
H   1.9511518477 -1.0899207050  0.3907941252
7
Iter 70 Image 2  Energy = -4187.9213953933
C   0.8931625187  0.6284887060 -0.2040789968
H   0.6017359245  1.4319049071 -0.8840072830
O   0.7641017272  1.0341050387  1.0858715207
C   1.3291458683 -0.6070375154 -0.3983068032
H   0.8948383302  0.1976206242  1.5511910093
H   1.2518545416 -1.1668026766 -1.3050031301
H   1.8664027764 -1.0279127157  0.4482730979
7
Iter 70 Image 3  Energy = -4186.5194924644
C   0.8335543109  0.7258526360 -0.1645577150
H   0.7620252269  1.5561137896 -0.8825853993
O   0.6365097387  0.9431350552  1.1514041042
C   1.2447033192 -0.5583099721 -0.3278942197
H   0.9032084011 -0.0933612313  1.2893236404
H   1.2041341126 -1.2339419984 -1.1437285537
H   2.0171067877 -0.8491220265  0.3719763703
7
Iter 70 Image 4  Energy = -4186.0998199752
C   0.8127481756  0.8097718743 -0.1030920501
H   0.8012093563  1.5870707193 -0.9060378481
O   0.4849310215  1.1423093351  1.0479688537
C   1.1959296486 -0.6151971945 -0.1419475250
H   1.0109739147 -0.4136796130  1.1140008554
H   1.1530282467 -1.2342565232 -1.0691095772
H   2.1424216030 -0.7856527776  0.3521554280
7
Iter 70 Image 5  Energy = -4188.3631151786
C   0.8709153063  0.8809723917 -0.0310412320
H   0.7911076703  1.5161224558 -0.9474579262
O   0.6845516483  1.3810478169  1.0666918313
C   1.2220789907 -0.5557066279 -0.0389821840
H   0.7174208401 -0.8528729928  0.8652903095
H   1.0851194688 -1.1603992187 -0.9225291727
H   2.2300475679 -0.7187968167  0.3019665536
7
Iter 70 Image 6  Energy = -4188.6588801166
C   0.8777286134  0.8978494384  0.0075843294
H   0.5636663788  1.2898539992 -0.9843929767
O   0.8307261614  1.5975107835  0.9797319015
C   1.2682917881 -0.5575957735  0.0491593276
H   0.6528059757 -1.0335496257  0.8135404579
H   1.0984407546 -1.0229399562 -0.9185077906
H   2.3095817361 -0.6807622223  0.3468242509
7
Iter 70 Image 7  Energy = -4188.6600833854
C   0.8062057401  0.8769068745 -0.0052548065
H   0.8571470377  1.2990284561 -1.0320473295
O   0.4344898923  1.5287497978  0.9042570742
C   1.2721709849 -0.5462182681  0.0917090627
H   0.8898406701 -1.0140822811  0.9902335641
H   0.9814374124 -1.1081588991 -0.7887733609
H   2.3599498462 -0.5458587116  0.1338149465
7
Iter 70 Image 8  Energy = -4188.6819968244
C   0.7840367852  0.8656586589 -0.0371164025
H   0.9809293880  1.3403901038 -1.0231241499
O   0.1875804579  1.4681235287  0.8223429327
C   1.3100769769 -0.5359012779  0.1153731248
H   1.0639489065 -0.9236344469  1.1059940899
H   0.8779311114 -1.1816924395 -0.6582837811
H   2.3967379442 -0.5425772870 -0.0312469938
7
Iter 71 Image 0  Energy = -4188.2527480593
C   0.8260657415  0.5508603911 -0.1261794589
H   0.4554445983  1.2417513435 -0.8784317668
O   0.5680753083  1.0246514429  1.1187434847
C   1.4411098584 -0.5873603774 -0.4363613732
H   0.9099091373  0.3932317500  1.7666320721
H   1.5916834696 -0.8592929697 -1.4741885892
H   1.8089534565 -1.2734747403  0.3237244514
7
Iter 71 Image 1  Energy = -4188.2072410902
C   0.8364979583  0.5672955017 -0.1488487477
H   0.4555995381  1.2422303358 -0.8973147402
O   0.6440515587  1.0532138430  1.1086365036
C   1.4254671228 -0.5826705214 -0.4201970925
H   0.8311591191  0.3107795775  1.6870405270
H   1.4812635185 -0.9887570828 -1.4233511377
H   1.9272028802 -1.1117251161  0.3879738953
7
Iter 71 Image 2  Energy = -4187.9306170216
C   0.8675291716  0.6211653701 -0.1923327143
H   0.5614671983  1.4085943367 -0.8730166552
O   0.7075024531  1.0008098230  1.0996336815
C   1.3693971963 -0.5844053614 -0.3991298226
H   0.8419280389  0.1660010010  1.5547967729
H   1.3203612013 -1.1140764082 -1.3168529847
H   1.9330565191 -1.0077220518  0.4208404740
7
Iter 71 Image 3  Energy = -4186.6358159801
C   0.8297090662  0.7209631701 -0.1707147828
H   0.6625539505  1.4725395449 -0.8791762392
O   0.6402518233  0.9869622647  1.1468910583
C   1.2967997157 -0.5513352218 -0.3204725785
H   0.8587975450 -0.0643802958  1.2898199717
H   1.2375376314 -1.2214454131 -1.1513608838
H   2.0755920796 -0.8529377188  0.3789522562
7
Iter 71 Image 4  Energy = -4186.1513501054
C   0.8208213336  0.8202144010 -0.0733664456
H   0.6757317410  1.4999305956 -0.9059559210
O   0.5522762503  1.1789077859  1.0233487335
C   1.2374078483 -0.6164703970 -0.1300972487
H   0.9293881806 -0.3915492398  1.1072946833
H   1.2020417641 -1.2128649596 -1.0894745450
H   2.1835747425 -0.7878025016  0.3621890900
7
Iter 71 Image 5  Energy = -4188.3543718478
C   0.8378689818  0.8637846775 -0.0028981476
H   0.7520564010  1.4602443245 -0.9572181577
O   0.5958968945  1.3926785441  1.0206187340
C   1.2614586516 -0.5538173005 -0.0226679103
H   0.7624572097 -0.8124833616  0.8982984785
H   1.0935352832 -1.1677039440 -0.8962894555
H   2.2979682719 -0.6923365927  0.2540950696
7
Iter 71 Image 6  Energy = -4188.6641185305
C   0.8619986559  0.8978393353  0.0020860758
H   0.6211095391  1.3180270336 -0.9913360506
O   0.7889970807  1.5710717176  0.9938490090
C   1.2535058632 -0.5619577762  0.0490216878
H   0.6730823534 -1.0571400284  0.8276462953
H   1.0991247776 -1.0547150464 -0.9073156886
H   2.3034231927 -0.6227583944  0.3199879222
7
Iter 71 Image 7  Energy = -4188.6128530076
C   0.8172130836  0.8595001146 -0.0344790073
H   0.8397556203  1.2969303320 -1.0345491968
O   0.4352472223  1.5399309820  0.9335699555
C   1.2763067527 -0.5450360863  0.0900626685
H   0.8791298033 -1.0019094257  0.9888298848
H   0.9885495477 -1.1103521268 -0.7934793165
H   2.3650395921 -0.5486969471  0.1439840956
7
Iter 71 Image 8  Energy = -4188.6819968244
C   0.7840367852  0.8656586589 -0.0371164025
H   0.9809293880  1.3403901038 -1.0231241499
O   0.1875804579  1.4681235287  0.8223429327
C   1.3100769769 -0.5359012779  0.1153731248
H   1.0639489065 -0.9236344469  1.1059940899
H   0.8779311114 -1.1816924395 -0.6582837811
H   2.3967379442 -0.5425772870 -0.0312469938
7
Iter 72 Image 0  Energy = -4188.2527480593
C   0.8260657415  0.5508603911 -0.1261794589
H   0.4554445983  1.2417513435 -0.8784317668
O   0.5680753083  1.0246514429  1.1187434847
C   1.4411098584 -0.5873603774 -0.4363613732
H   0.9099091373  0.3932317500  1.7666320721
H   1.5916834696 -0.8592929697 -1.4741885892
H   1.8089534565 -1.2734747403  0.3237244514
7
Iter 72 Image 1  Energy = -4188.2100937238
C   0.8416507754  0.5720868651 -0.1501160066
H   0.4610164603  1.2483949521 -0.8983456138
O   0.6527203698  1.0517317902  1.1072516310
C   1.4268537300 -0.5828885505 -0.4197681178
H   0.8316139159  0.3075385571  1.6876006966
H   1.4679603022 -0.9894521572 -1.4183343662
H   1.9194260796 -1.1170447163  0.3856508803
7
Iter 72 Image 2  Energy = -4187.9532850704
C   0.8610787667  0.6229734251 -0.1844676857
H   0.5254888477  1.3751787280 -0.8804228557
O   0.7034165018  1.0031275138  1.1104679231
C   1.3889230414 -0.5705354332 -0.4010275916
H   0.8180193713  0.1549232367  1.5480873077
H   1.3512859498 -1.1049628315 -1.3191028701
H   1.9530292227 -0.9903378168  0.4204045946
7
Iter 72 Image 3  Energy = -4186.8220265454
C   0.8463223793  0.7066286514 -0.1696618564
H   0.5964550190  1.4498172561 -0.8852719160
O   0.6880164617  0.9870667528  1.1356147601
C   1.3070894127 -0.5566810784 -0.3124787657
H   0.8267704414 -0.0565407205  1.2777852165
H   1.2643376306 -1.1970905573 -1.1625568423
H   2.0722503525 -0.8428337328  0.4105083249
7
Iter 72 Image 4  Energy = -4186.2406199446
C   0.8377368544  0.8101002347 -0.0937339432
H   0.6080385257  1.4724521221 -0.9074990726
O   0.6427798366  1.1968504649  1.0421594383
C   1.2350789831 -0.6105788103 -0.1294249588
H   0.8807013075 -0.3993367673  1.0848129593
H   1.2376702845 -1.1871929815 -1.0962435342
H   2.1592359361 -0.7919281022  0.3938677247
7
Iter 72 Image 5  Energy = -4188.3898848912
C   0.8471500063  0.8649469169 -0.0213845681
H   0.6814218644  1.4270000497 -0.9550642284
O   0.6431910925  1.4080879663  1.0237193232
C   1.2699388875 -0.5591738437 -0.0207320682
H   0.7436704891 -0.8074943217  0.8943175525
H   1.1188339440 -1.1559544164 -0.9162669278
H   2.2970353656 -0.6870458186  0.2893497420
7
Iter 72 Image 6  Energy = -4188.6671668461
C   0.8552326540  0.8924484084  0.0032444687
H   0.6410193442  1.3220426491 -0.9928096747
O   0.7579864800  1.5634341336  0.9958170626
C   1.2544116033 -0.5588117556  0.0469902580
H   0.6880009214 -1.0500329257  0.8361494455
H   1.0952267141 -1.0612249901 -0.9028969827
H   2.3093637867 -0.6174885804  0.3074445496
7
Iter 72 Image 7  Energy = -4188.6692409387
C   0.8125268073  0.8670232100 -0.0246528512
H   0.8288853295  1.2960499206 -1.0390140792
O   0.4453116956  1.5374641159  0.9252184548
C   1.2778388495 -0.5463798844  0.0893653692
H   0.8754006699 -1.0029953693  0.9872093735
H   0.9943661366 -1.1124072031 -0.7947559254
H   2.3669121367 -0.5483879946  0.1505685951
7
Iter 72 Image 8  Energy = -4188.6819968244
C   0.7840367852  0.8656586589 -0.0371164025
H   0.9809293880  1.3403901038 -1.0231241499
O   0.1875804579  1.4681235287  0.8223429327
C   1.3100769769 -0.5359012779  0.1153731248
H   1.0639489065 -0.9236344469  1.1059940899
H   0.8779311114 -1.1816924395 -0.6582837811
H   2.3967379442 -0.5425772870 -0.0312469938
7
Iter 73 Image 0  Energy = -4188.2527480593
C   0.8260657415  0.5508603911 -0.1261794589
H   0.4554445983  1.2417513435 -0.8784317668
O   0.5680753083  1.0246514429  1.1187434847
C   1.4411098584 -0.5873603774 -0.4363613732
H   0.9099091373  0.3932317500  1.7666320721
H   1.5916834696 -0.8592929697 -1.4741885892
H   1.8089534565 -1.2734747403  0.3237244514
7
Iter 73 Image 1  Energy = -4188.2078367642
C   0.8513207600  0.5796582012 -0.1527203436
H   0.4705552357  1.2593010228 -0.9002895082
O   0.6678649493  1.0492466529  1.1055153158
C   1.4285995075 -0.5818154600 -0.4188960236
H   0.8324248619  0.3018221381  1.6884367019
H   1.4446137956 -0.9907566314 -1.4098909030
H   1.9058624149 -1.1270888191  0.3817836778
7
Iter 73 Image 2  Energy = -4187.9629160038
C   0.8508287442  0.6245087479 -0.1695091134
H   0.4605495315  1.3170691554 -0.8948326941
O   0.6964732174  1.0075649705  1.1292490251
C   1.4231545506 -0.5458547439 -0.4036114880
H   0.7755548191  0.1354821062  1.5362018952
H   1.4060675921 -1.0886576381 -1.3233892580
H   1.9886131062 -0.9597455711  0.4198305852
7
Iter 73 Image 3  Energy = -4186.9159083015
C   0.8762319885  0.6866313768 -0.1783594163
H   0.4788362773  1.4063317187 -0.8944000702
O   0.7732540019  0.9899673312  1.1218409213
C   1.3261532443 -0.5682011086 -0.2987611186
H   0.7702064726 -0.0466510628  1.2586129118
H   1.3123501092 -1.1523726142 -1.1811175685
H   2.0642094013 -0.8253386351  0.4661234659
7
Iter 73 Image 4  Energy = -4186.2599504760
C   0.8646941059  0.7967826639 -0.1060387781
H   0.4859700903  1.4270331143 -0.9150652839
O   0.8112806043  1.2204129176  1.0570182739
C   1.2293297440 -0.6011271235 -0.1327418200
H   0.7939015869 -0.4113287554  1.0452579178
H   1.3007835411 -1.1406717644 -1.1072427525
H   2.1152818160 -0.8007340310  0.4527515360
7
Iter 73 Image 5  Energy = -4188.3538386545
C   0.8614817651  0.8672343613 -0.0402674682
H   0.5544411486  1.3708038739 -0.9571502375
O   0.7336754877  1.4313577937  1.0212653941
C   1.2828625583 -0.5668658452 -0.0185326930
H   0.7093879766 -0.7994011770  0.8867689620
H   1.1643675058 -1.1339795434 -0.9519352772
H   2.2950251280 -0.6787825963  0.3537905248
7
Iter 73 Image 6  Energy = -4188.6678981653
C   0.8429326503  0.8843005379  0.0060030245
H   0.6767991114  1.3286101478 -0.9951237006
O   0.7023186722  1.5495340958  0.9982196196
C   1.2568568974 -0.5539899640  0.0438709586
H   0.7148613675 -1.0376689661  0.8514137839
H   1.0878557829 -1.0723146852 -0.8952137193
H   2.3196170950 -0.6081040526  0.2847689392
7
Iter 73 Image 7  Energy = -4188.6762803218
C   0.8066186481  0.8765231612 -0.0141342130
H   0.8100031934  1.2939271257 -1.0456411902
O   0.4602466749  1.5363913045  0.9151017161
C   1.2803418905 -0.5477384218  0.0888758353
H   0.8695258317 -1.0050317245  0.9845632130
H   1.0044000023 -1.1161264774 -0.7966588573
H   2.3701053952 -0.5475782559  0.1618321714
7
Iter 73 Image 8  Energy = -4188.6819968244
C   0.7840367852  0.8656586589 -0.0371164025
H   0.9809293880  1.3403901038 -1.0231241499
O   0.1875804579  1.4681235287  0.8223429327
C   1.3100769769 -0.5359012779  0.1153731248
H   1.0639489065 -0.9236344469  1.1059940899
H   0.8779311114 -1.1816924395 -0.6582837811
H   2.3967379442 -0.5425772870 -0.0312469938
7
Iter 74 Image 0  Energy = -4188.2527480593
C   0.8260657415  0.5508603911 -0.1261794589
H   0.4554445983  1.2417513435 -0.8784317668
O   0.5680753083  1.0246514429  1.1187434847
C   1.4411098584 -0.5873603774 -0.4363613732
H   0.9099091373  0.3932317500  1.7666320721
H   1.5916834696 -0.8592929697 -1.4741885892
H   1.8089534565 -1.2734747403  0.3237244514
7
Iter 74 Image 1  Energy = -4188.2084762177
C   0.8477339642  0.5785998436 -0.1524035445
H   0.4604795560  1.2530805930 -0.9017164299
O   0.6600310459  1.0461620470  1.1067465796
C   1.4350186425 -0.5775229432 -0.4188547008
H   0.8284354224  0.2980282345  1.6876168541
H   1.4568435251 -0.9862201800 -1.4102226212
H   1.9126994256 -1.1217605977  0.3827728166
7
Iter 74 Image 2  Energy = -4187.9624182007
C   0.8585101745  0.6260822866 -0.1741932114
H   0.4751261570  1.3279537841 -0.8962785538
O   0.7107881293  1.0144505587  1.1247739083
C   1.4104355399 -0.5540974310 -0.4026888082
H   0.7916414032  0.1458299078  1.5366203423
H   1.3850908505 -1.1017557411 -1.3208577073
H   1.9696492975 -0.9680964347  0.4265631226
7
Iter 74 Image 3  Energy = -4186.9129135928
C   0.8739945238  0.6937713312 -0.1812873779
H   0.5133787157  1.4280566032 -0.8942946156
O   0.7648407041  0.9795435504  1.1272984251
C   1.3133725979 -0.5698524012 -0.3019309238
H   0.7848085413 -0.0556294665  1.2624678088
H   1.2996955043 -1.1588402160 -1.1770054963
H   2.0511509471 -0.8266824595  0.4586911415
7
Iter 74 Image 4  Energy = -4186.2633498704
C   0.8595680891  0.8018456149 -0.1058984722
H   0.5253773560  1.4517223343 -0.9153074275
O   0.7829953586  1.2057913880  1.0549322380
C   1.2208172033 -0.6038939252 -0.1356268980
H   0.8207829189 -0.4153408878  1.0502409449
H   1.2831227015 -1.1489431621 -1.1005746789
H   2.1085779059 -0.8008143876  0.4461732926
7
Iter 74 Image 5  Energy = -4188.3623273543
C   0.8683189520  0.8715856549 -0.0400452720
H   0.5739942036  1.3900148893 -0.9583483522
O   0.7485864752  1.4250108858  1.0300013365
C   1.2713110959 -0.5658959421 -0.0230091459
H   0.7019774376 -0.8108677129  0.8798216408
H   1.1579633211 -1.1328903236 -0.9542140352
H   2.2790900428 -0.6865904634  0.3597328956
7
Iter 74 Image 6  Energy = -4188.6676263234
C   0.8475232369  0.8858115435  0.0070277672
H   0.6604008909  1.3208530590 -0.9929252622
O   0.7170094977  1.5571526995  0.9942556846
C   1.2603497654 -0.5540243789  0.0446306786
H   0.7079849676 -1.0337998752  0.8467702873
H   1.0881022167 -1.0634255915 -0.8988524908
H   2.3198709806 -0.6222004055  0.2930323208
7
Iter 74 Image 7  Energy = -4188.6815198234
C   0.8078556583  0.8737918995 -0.0175642870
H   0.8157732248  1.2944709131 -1.0433905240
O   0.4558291896  1.5393459332  0.9170688575
C   1.2789532567 -0.5472108598  0.0897327814
H   0.8727051575 -1.0078302023  0.9849540143
H   1.0018027763 -1.1151951525 -0.7952727314
H   2.3683223639 -0.5470057828  0.1584106005
7
Iter 74 Image 8  Energy = -4188.6819968244
C   0.7840367852  0.8656586589 -0.0371164025
H   0.9809293880  1.3403901038 -1.0231241499
O   0.1875804579  1.4681235287  0.8223429327
C   1.3100769769 -0.5359012779  0.1153731248
H   1.0639489065 -0.9236344469  1.1059940899
H   0.8779311114 -1.1816924395 -0.6582837811
H   2.3967379442 -0.5425772870 -0.0312469938
7
Iter 75 Image 0  Energy = -4188.2527480593
C   0.8260657415  0.5508603911 -0.1261794589
H   0.4554445983  1.2417513435 -0.8784317668
O   0.5680753083  1.0246514429  1.1187434847
C   1.4411098584 -0.5873603774 -0.4363613732
H   0.9099091373  0.3932317500  1.7666320721
H   1.5916834696 -0.8592929697 -1.4741885892
H   1.8089534565 -1.2734747403  0.3237244514
7
Iter 75 Image 1  Energy = -4188.2107730827
C   0.8380356305  0.5737287796 -0.1508341675
H   0.4412318278  1.2390931314 -0.9030079876
O   0.6414261788  1.0426903378  1.1092267670
C   1.4437366891 -0.5716175223 -0.4190280578
H   0.8224461761  0.2950037788  1.6859568967
H   1.4855169946 -0.9789858523 -1.4143147140
H   1.9288482194 -1.1095459820  0.3859403604
7
Iter 75 Image 2  Energy = -4187.9571738562
C   0.8739332818  0.6297296550 -0.1868102423
H   0.5274324155  1.3711700606 -0.8924137899
O   0.7356362218  1.0235027068  1.1095860257
C   1.3758822868 -0.5794919279 -0.4003906431
H   0.8354094097  0.1693164139  1.5426704329
H   1.3284686807 -1.1285582608 -1.3148632124
H   1.9244793043 -0.9953019609  0.4361606677
7
Iter 75 Image 3  Energy = -4186.8373981512
C   0.8602103875  0.7096981348 -0.1788718932
H   0.6172684958  1.4835896256 -0.8929886605
O   0.7124188477  0.9632651646  1.1403403867
C   1.2853114492 -0.5644456881 -0.3129903093
H   0.8326938468 -0.0753419941  1.2785656852
H   1.2575619591 -1.1890175546 -1.1636024823
H   2.0357767029 -0.8373810609  0.4234858887
7
Iter 75 Image 4  Energy = -4186.2324327400
C   0.8402900558  0.8120407479 -0.1010210483
H   0.6390288614  1.5135029203 -0.9181167397
O   0.6646464772  1.1742879848  1.0490028272
C   1.2103083080 -0.6096595020 -0.1381062213
H   0.9006410243 -0.4183779206  1.0786511524
H   1.2271056110 -1.1831117118 -1.0865946394
H   2.1192213744 -0.7983160197  0.4101233088
7
Iter 75 Image 5  Energy = -4188.3799583784
C   0.8713662282  0.8787642151 -0.0252628687
H   0.6617525318  1.4459007368 -0.9616033872
O   0.7302897571  1.4023024132  1.0402662812
C   1.2480832846 -0.5619622353 -0.0305567238
H   0.7071664107 -0.8311830652  0.8740783987
H   1.1266297091 -1.1405833705 -0.9425354337
H   2.2559535839 -0.7028716830  0.3395524187
7
Iter 75 Image 6  Energy = -4188.6658494940
C   0.8601891371  0.8905758200  0.0060964756
H   0.6196452462  1.3062066112 -0.9893064953
O   0.7645996329  1.5762396536  0.9891475622
C   1.2640988215 -0.5560449660  0.0470573120
H   0.6853860762 -1.0342394375  0.8330767081
H   1.0917142858 -1.0447770995 -0.9081179638
H   2.3156082923 -0.6475937034  0.3159856060
7
Iter 75 Image 7  Energy = -4188.6806579402
C   0.8094541393  0.8708447739 -0.0193125151
H   0.8334561813  1.2965870985 -1.0376143609
O   0.4447337934  1.5388959423  0.9171713536
C   1.2757393501 -0.5461284621  0.0909297486
H   0.8803182399 -1.0109510711  0.9870537445
H   0.9931837153 -1.1124242824 -0.7921602401
H   2.3643561906 -0.5464571573  0.1478711539
7
Iter 75 Image 8  Energy = -4188.6819968244
C   0.7840367852  0.8656586589 -0.0371164025
H   0.9809293880  1.3403901038 -1.0231241499
O   0.1875804579  1.4681235287  0.8223429327
C   1.3100769769 -0.5359012779  0.1153731248
H   1.0639489065 -0.9236344469  1.1059940899
H   0.8779311114 -1.1816924395 -0.6582837811
H   2.3967379442 -0.5425772870 -0.0312469938
7
Iter 76 Image 0  Energy = -4188.2527480593
C   0.8260657415  0.5508603911 -0.1261794589
H   0.4554445983  1.2417513435 -0.8784317668
O   0.5680753083  1.0246514429  1.1187434847
C   1.4411098584 -0.5873603774 -0.4363613732
H   0.9099091373  0.3932317500  1.7666320721
H   1.5916834696 -0.8592929697 -1.4741885892
H   1.8089534565 -1.2734747403  0.3237244514
7
Iter 76 Image 1  Energy = -4188.2108192018
C   0.8419268669  0.5747832501 -0.1511916749
H   0.4519988424  1.2456001746 -0.9015338187
O   0.6496370731  1.0460805314  1.1079654728
C   1.4368864451 -0.5760102883 -0.4190528253
H   0.8269743707  0.2994539516  1.6870871456
H   1.4725486539 -0.9835762761 -1.4140875812
H   1.9212694043 -1.1159645619  0.3847523361
7
Iter 76 Image 2  Energy = -4187.9610735795
C   0.8667207512  0.6264681526 -0.1816459997
H   0.5117626007  1.3596675129 -0.8915007577
O   0.7207241169  1.0164475408  1.1147140170
C   1.3884317397 -0.5690886026 -0.4009083347
H   0.8182228720  0.1584736020  1.5424971375
H   1.3509219315 -1.1143202264 -1.3179786413
H   1.9444575962 -0.9872811905  0.4287616629
7
Iter 76 Image 3  Energy = -4186.8760774529
C   0.8621347651  0.7050017086 -0.1777395795
H   0.5802997258  1.4596805758 -0.8929728619
O   0.7221973373  0.9741926823  1.1351579304
C   1.3001910411 -0.5639907755 -0.3101045926
H   0.8166761932 -0.0663643178  1.2754556015
H   1.2704650088 -1.1813216092 -1.1682102792
H   2.0492775762 -0.8368315722  0.4323525624
7
Iter 76 Image 4  Energy = -4186.2572141683
C   0.8458867776  0.8088635946 -0.1016526977
H   0.5965227417  1.4874760881 -0.9186004046
O   0.6962450579  1.1894867532  1.0512381807
C   1.2197381899 -0.6069500085 -0.1352465203
H   0.8716562071 -0.4150761561  1.0736289184
H   1.2452762560 -1.1739275456 -1.0936461764
H   2.1259164342 -0.7995061744  0.4182174351
7
Iter 76 Image 5  Energy = -4188.3848909012
C   0.8648230938  0.8716962492 -0.0299377938
H   0.6402685268  1.4255907264 -0.9616222360
O   0.7157865791  1.4116599501  1.0359846093
C   1.2600584690 -0.5628406926 -0.0252431647
H   0.7147166168 -0.8197376012  0.8816538216
H   1.1328381145 -1.1406783193 -0.9409170316
H   2.2727501498 -0.6953234324  0.3340206247
7
Iter 76 Image 6  Energy = -4188.6677525660
C   0.8549421689  0.8902556425  0.0065647915
H   0.6375136558  1.3140525723 -0.9918294839
O   0.7489572083  1.5675589857  0.9919787412
C   1.2604012205 -0.5562401220  0.0464019341
H   0.6929852582 -1.0389742233  0.8381212486
H   1.0911834155 -1.0538583622 -0.9043042169
H   2.3152585863 -0.6324275485  0.3070061048
7
Iter 76 Image 7  Energy = -4188.6795055738
C   0.8098843150  0.8704879238 -0.0208328615
H   0.8273842982  1.2960494393 -1.0396041130
O   0.4477760629  1.5388360694  0.9196125718
C   1.2771225617 -0.5464048828  0.0902376162
H   0.8770045823 -1.0080851223  0.9866763896
H   0.9958727449 -1.1135007878 -0.7936094731
H   2.3661970557 -0.5470158368  0.1514587128
7
Iter 76 Image 8  Energy = -4188.6819968244
C   0.7840367852  0.8656586589 -0.0371164025
H   0.9809293880  1.3403901038 -1.0231241499
O   0.1875804579  1.4681235287  0.8223429327
C   1.3100769769 -0.5359012779  0.1153731248
H   1.0639489065 -0.9236344469  1.1059940899
H   0.8779311114 -1.1816924395 -0.6582837811
H   2.3967379442 -0.5425772870 -0.0312469938
7
Iter 77 Image 0  Energy = -4188.2527480593
C   0.8260657415  0.5508603911 -0.1261794589
H   0.4554445983  1.2417513435 -0.8784317668
O   0.5680753083  1.0246514429  1.1187434847
C   1.4411098584 -0.5873603774 -0.4363613732
H   0.9099091373  0.3932317500  1.7666320721
H   1.5916834696 -0.8592929697 -1.4741885892
H   1.8089534565 -1.2734747403  0.3237244514
7
Iter 77 Image 1  Energy = -4188.2092883757
C   0.8509530372  0.5791912954 -0.1521857899
H   0.4724685346  1.2595090632 -0.8998783028
O   0.6675814223  1.0510963878  1.1056841360
C   1.4263175829 -0.5832865754 -0.4189758116
H   0.8346233549  0.3047992649  1.6889016531
H   1.4444436732 -0.9917007931 -1.4112816206
H   1.9048539207 -1.1292415705  0.3816746637
7
Iter 77 Image 2  Energy = -4187.9652994296
C   0.8508621500  0.6252302206 -0.1699074936
H   0.4668448551  1.3236151787 -0.8934781804
O   0.6944047156  1.0052301487  1.1288295756
C   1.4204498366 -0.5486462409 -0.4028165860
H   0.7774982652  0.1355912820  1.5383671118
H   1.4033485999 -1.0857173451 -1.3242136739
H   1.9878331599 -0.9649362224  0.4171581159
7
Iter 77 Image 3  Energy = -4186.9248131236
C   0.8743989693  0.6902961484 -0.1788205372
H   0.4856390290  1.4083964802 -0.8974875668
O   0.7634756209  0.9925579060  1.1248040693
C   1.3298467095 -0.5653482613 -0.3003274161
H   0.7735265918 -0.0493229682  1.2649405600
H   1.3060056705 -1.1556280912 -1.1801516375
H   2.0683489281 -0.8305843006  0.4609816397
7
Iter 77 Image 4  Energy = -4186.2706732920
C   0.8629942850  0.8024562642 -0.1047061320
H   0.4908690196  1.4313735576 -0.9213355721
O   0.7983654422  1.2200586857  1.0571758475
C   1.2336050365 -0.6021302564 -0.1326952655
H   0.7989371210 -0.4129837223  1.0534157646
H   1.2936423767 -1.1443502551 -1.1070530989
H   2.1228282352 -0.8040573863  0.4491374918
7
Iter 77 Image 5  Energy = -4188.3619177809
C   0.8575751887  0.8658103394 -0.0354842785
H   0.5673392131  1.3759845413 -0.9630196125
O   0.7202951043  1.4288227378  1.0207059893
C   1.2827282769 -0.5664342550 -0.0171696692
H   0.7175047543 -0.7987620484  0.8921286292
H   1.1569304666 -1.1339569891 -0.9474454123
H   2.2988685923 -0.6810975644  0.3442235222
7
Iter 77 Image 6  Energy = -4188.6683618149
C   0.8432490196  0.8853873454  0.0053922626
H   0.6773617958  1.3289606548 -0.9962592484
O   0.7063573409  1.5507625305  0.9996234784
C   1.2550662217 -0.5551428760  0.0446771935
H   0.7135030566 -1.0427960284  0.8509130527
H   1.0880104693 -1.0719062456 -0.8960860322
H   2.3176936642 -0.6048982768  0.2856782115
7
Iter 77 Image 7  Energy = -4188.6803619435
C   0.8076022419  0.8746419963 -0.0168638156
H   0.8119984226  1.2946474481 -1.0448897200
O   0.4582753024  1.5363216837  0.9174475769
C   1.2801247494 -0.5474025587  0.0888056023
H   0.8700397024 -1.0038717204  0.9850977381
H   1.0033261027 -1.1162917528 -0.7962250414
H   2.3698751202 -0.5476783829  0.1605663548
7
Iter 77 Image 8  Energy = -4188.6819968244
C   0.7840367852  0.8656586589 -0.0371164025
H   0.9809293880  1.3403901038 -1.0231241499
O   0.1875804579  1.4681235287  0.8223429327
C   1.3100769769 -0.5359012779  0.1153731248
H   1.0639489065 -0.9236344469  1.1059940899
H   0.8779311114 -1.1816924395 -0.6582837811
H   2.3967379442 -0.5425772870 -0.0312469938
7
Iter 78 Image 0  Energy = -4188.2527480593
C   0.8260657415  0.5508603911 -0.1261794589
H   0.4554445983  1.2417513435 -0.8784317668
O   0.5680753083  1.0246514429  1.1187434847
C   1.4411098584 -0.5873603774 -0.4363613732
H   0.9099091373  0.3932317500  1.7666320721
H   1.5916834696 -0.8592929697 -1.4741885892
H   1.8089534565 -1.2734747403  0.3237244514
7
Iter 78 Image 1  Energy = -4188.2102416179
C   0.8464085727  0.5771595744 -0.1516663961
H   0.4611120619  1.2520595146 -0.9011154557
O   0.6580123885  1.0481181278  1.1070730077
C   1.4326558326 -0.5787803839 -0.4189211766
H   0.8303723582  0.3012902873  1.6878709584
H   1.4593673598 -0.9869412550 -1.4124147286
H   1.9133130199 -1.1225389365  0.3831127760
7
Iter 78 Image 2  Energy = -4187.9641620836
C   0.8601209523  0.6258061970 -0.1760118420
H   0.4884756419  1.3409117689 -0.8936156012
O   0.7098940186  1.0123233869  1.1219355420
C   1.4035589365 -0.5587339541 -0.4015194253
H   0.7984024937  0.1476328733  1.5399575863
H   1.3760435644 -1.1010832686 -1.3210852590
H   1.9647459783 -0.9764901070  0.4242780034
7
Iter 78 Image 3  Energy = -4186.9116242921
C   0.8698268638  0.6981062481 -0.1786495487
H   0.5328945917  1.4356809815 -0.8967181064
O   0.7462132075  0.9813566347  1.1305316452
C   1.3137211872 -0.5644865776 -0.3051987451
H   0.7944975348 -0.0594194686  1.2701656752
H   1.2881739838 -1.1671401243 -1.1742355098
H   2.0559142113 -0.8337308930  0.4480435144
7
Iter 78 Image 4  Energy = -4186.2714155188
C   0.8553039019  0.8063413783 -0.1039006918
H   0.5439141185  1.4616930689 -0.9207122623
O   0.7522939777  1.2034320573  1.0542902533
C   1.2248659472 -0.6040348618 -0.1344356533
H   0.8353876213 -0.4158865044  1.0623251742
H   1.2692011513 -1.1581185246 -1.0998412669
H   2.1202748683 -0.8030598638  0.4362133390
7
Iter 78 Image 5  Energy = -4188.3739184609
C   0.8629607615  0.8699856814 -0.0348290745
H   0.6005856192  1.4011894440 -0.9629112188
O   0.7265288305  1.4202507092  1.0304204605
C   1.2698126374 -0.5646808258 -0.0217687403
H   0.7132538532 -0.8110748653  0.8855807745
H   1.1458526197 -1.1353165964 -0.9464162946
H   2.2822472410 -0.6899866911  0.3438630830
7
Iter 78 Image 6  Energy = -4188.6685850790
C   0.8492442938  0.8879437763  0.0068197048
H   0.6567855530  1.3203873560 -0.9938560187
O   0.7271710042  1.5596350805  0.9947856093
C   1.2583769253 -0.5555223214  0.0455826292
H   0.7036414443 -1.0399588764  0.8446210537
H   1.0890378054 -1.0616240421 -0.9005215285
H   2.3169845154 -0.6204939500  0.2965075715
7
Iter 78 Image 7  Energy = -4188.6816059819
C   0.8081084382  0.8735394005 -0.0173829324
H   0.8198405234  1.2954772043 -1.0422077330
O   0.4535241778  1.5369654909  0.9168848561
C   1.2784704568 -0.5469290731  0.0895683379
H   0.8738615536 -1.0065094356  0.9857903069
H   0.9996632136 -1.1150045792 -0.7946334948
H   2.3677732678 -0.5471722473  0.1559194196
7
Iter 78 Image 8  Energy = -4188.6819968244
C   0.7840367852  0.8656586589 -0.0371164025
H   0.9809293880  1.3403901038 -1.0231241499
O   0.1875804579  1.4681235287  0.8223429327
C   1.3100769769 -0.5359012779  0.1153731248
H   1.0639489065 -0.9236344469  1.1059940899
H   0.8779311114 -1.1816924395 -0.6582837811
H   2.3967379442 -0.5425772870 -0.0312469938
7
Iter 79 Image 0  Energy = -4188.2527480593
C   0.8260657415  0.5508603911 -0.1261794589
H   0.4554445983  1.2417513435 -0.8784317668
O   0.5680753083  1.0246514429  1.1187434847
C   1.4411098584 -0.5873603774 -0.4363613732
H   0.9099091373  0.3932317500  1.7666320721
H   1.5916834696 -0.8592929697 -1.4741885892
H   1.8089534565 -1.2734747403  0.3237244514
7
Iter 79 Image 1  Energy = -4188.2105905435
C   0.8442425973  0.5767845819 -0.1513313215
H   0.4566908086  1.2490712395 -0.9015296490
O   0.6539878750  1.0469862715  1.1074850789
C   1.4351926814 -0.5776208145 -0.4189299240
H   0.8290007194  0.3000883551  1.6873909796
H   1.4655248555 -0.9850585283 -1.4127766466
H   1.9166020882 -1.1198842422  0.3836305032
7
Iter 79 Image 2  Energy = -4187.9623707405
C   0.8630454441  0.6284840566 -0.1782183967
H   0.4995037151  1.3492106304 -0.8933133456
O   0.7164919560  1.0149629124  1.1189612780
C   1.3966062331 -0.5653111434 -0.4013191669
H   0.8077774128  0.1524579594  1.5405995414
H   1.3634650945 -1.1071753689 -1.3194202166
H   1.9543517368 -0.9822622095  0.4266493525
7
Iter 79 Image 3  Energy = -4186.8975729442
C   0.8681430602  0.7017064639 -0.1773847552
H   0.5540177095  1.4486370306 -0.8974339191
O   0.7373857290  0.9768084565  1.1329780295
C   1.3076059506 -0.5641171440 -0.3075815632
H   0.8042811600 -0.0643588010  1.2730416618
H   1.2789992355 -1.1722703868 -1.1716249257
H   2.0508087667 -0.8360388749  0.4419443147
7
Iter 79 Image 4  Energy = -4186.2685609481
C   0.8523240618  0.8066656966 -0.1051539194
H   0.5674763009  1.4763679716 -0.9224277535
O   0.7307442891  1.1977428055  1.0555616217
C   1.2214991389 -0.6041319461 -0.1352552873
H   0.8517489985 -0.4180311565  1.0678527653
H   1.2572184910 -1.1647609478 -1.0967387463
H   2.1202303488 -0.8034857569  0.4301001395
7
Iter 79 Image 5  Energy = -4188.3759086898
C   0.8646845660  0.8725516773 -0.0317796021
H   0.6170709241  1.4132375997 -0.9635371362
O   0.7276793746  1.4149489895  1.0323163312
C   1.2640340866 -0.5641511701 -0.0237805167
H   0.7127968920 -0.8155930581  0.8840923417
H   1.1397104374 -1.1359757049 -0.9459360126
H   2.2752652709 -0.6946514548  0.3425634996
7
Iter 79 Image 6  Energy = -4188.6681501737
C   0.8521631083  0.8876644516  0.0055981190
H   0.6481089204  1.3168158375 -0.9931426214
O   0.7365627898  1.5648449534  0.9947840841
C   1.2592764827 -0.5555276442  0.0460458541
H   0.6992200287 -1.0395652229  0.8419145773
H   1.0894293643 -1.0569891097 -0.9026308511
H   2.3164808388 -0.6268762789  0.3013699003
7
Iter 79 Image 7  Energy = -4188.6804067960
C   0.8095037360  0.8711343346 -0.0205203817
H   0.8234741894  1.2960016411 -1.0407805353
O   0.4504260841  1.5388697266  0.9194299468
C   1.2776666569 -0.5466033310  0.0899095432
H   0.8754499903 -1.0075608240  0.9861387796
H   0.9978962305 -1.1144798868 -0.7940222733
H   2.3668247403 -0.5469948781  0.1537837067
7
Iter 79 Image 8  Energy = -4188.6819968244
C   0.7840367852  0.8656586589 -0.0371164025
H   0.9809293880  1.3403901038 -1.0231241499
O   0.1875804579  1.4681235287  0.8223429327
C   1.3100769769 -0.5359012779  0.1153731248
H   1.0639489065 -0.9236344469  1.1059940899
H   0.8779311114 -1.1816924395 -0.6582837811
H   2.3967379442 -0.5425772870 -0.0312469938
7
Iter 80 Image 0  Energy = -4188.2527480593
C   0.8260657415  0.5508603911 -0.1261794589
H   0.4554445983  1.2417513435 -0.8784317668
O   0.5680753083  1.0246514429  1.1187434847
C   1.4411098584 -0.5873603774 -0.4363613732
H   0.9099091373  0.3932317500  1.7666320721
H   1.5916834696 -0.8592929697 -1.4741885892
H   1.8089534565 -1.2734747403  0.3237244514
7
Iter 80 Image 1  Energy = -4188.2105451545
C   0.8448628495  0.5767173621 -0.1514327719
H   0.4577702420  1.2498415265 -0.9014663400
O   0.6549212818  1.0472921761  1.1074150072
C   1.4344690471 -0.5777308136 -0.4188738575
H   0.8294200864  0.3004044766  1.6874838397
H   1.4640432415 -0.9855223046 -1.4126985848
H   1.9157548695 -1.1206355456  0.3835117190
7
Iter 80 Image 2  Energy = -4187.9629192969
C   0.8627498943  0.6272814397 -0.1777031622
H   0.4971055172  1.3475424291 -0.8935282367
O   0.7150355890  1.0144297802  1.1197985168
C   1.3977814908 -0.5631673731 -0.4011648521
H   0.8056553832  0.1512430545  1.5403734233
H   1.3662052563 -1.1057907485 -1.3199343871
H   1.9567084606 -0.9811717326  0.4260977323
7
Iter 80 Image 3  Energy = -4186.9008774704
C   0.8687432430  0.7008668319 -0.1778715502
H   0.5491756371  1.4458100714 -0.8975120158
O   0.7394867691  0.9778741408  1.1326468900
C   1.3090214975 -0.5639048265 -0.3069440760
H   0.8020469696 -0.0634951443  1.2724825456
H   1.2808485140 -1.1710151939 -1.1723146679
H   2.0519189744 -0.8357691249  0.4434517343
7
Iter 80 Image 4  Energy = -4186.2699916831
C   0.8529831404  0.8071120301 -0.1041414636
H   0.5620407201  1.4732388213 -0.9223911908
O   0.7361026228  1.1987405193  1.0546106127
C   1.2223558227 -0.6041562446 -0.1351448860
H   0.8479817104 -0.4176681430  1.0667485954
H   1.2597232904 -1.1632053638 -1.0973939918
H   2.1200543142 -0.8036949368  0.4316511610
7
Iter 80 Image 5  Energy = -4188.3753100506
C   0.8643944653  0.8717378044 -0.0331745682
H   0.6133695400  1.4106024065 -0.9635054871
O   0.7276374083  1.4163732696  1.0324956948
C   1.2652478952 -0.5643153688 -0.0233129631
H   0.7129900594 -0.8145009437  0.8846533543
H   1.1409140938 -1.1356356667 -0.9462068060
H   2.2766880930 -0.6938946296  0.3429896981
7
Iter 80 Image 6  Energy = -4188.6685225686
C   0.8513917321  0.8882545319  0.0066779768
H   0.6502129486  1.3175940764 -0.9934107447
O   0.7344923029  1.5632529791  0.9941050655
C   1.2590344966 -0.5555935989  0.0459499494
H   0.7002832280 -1.0398117594  0.8425589515
H   1.0892665289 -1.0579437815 -0.9021790992
H   2.3165602978 -0.6253854521  0.3002369537
7
Iter 80 Image 7  Energy = -4188.6819000414
C   0.8085648880  0.8727889629 -0.0181102784
H   0.8227392259  1.2959719507 -1.0412363579
O   0.4516319573  1.5373450194  0.9173241219
C   1.2778581434 -0.5467764979  0.0897634314
H   0.8751287584 -1.0072771807  0.9860962494
H   0.9982751966 -1.1146669828 -0.7941105446
H   2.3670434584 -0.5470184941  0.1542121575
7
Iter 80 Image 8  Energy = -4188.6819968244
C   0.7840367852  0.8656586589 -0.0371164025
H   0.9809293880  1.3403901038 -1.0231241499
O   0.1875804579  1.4681235287  0.8223429327
C   1.3100769769 -0.5359012779  0.1153731248
H   1.0639489065 -0.9236344469  1.1059940899
H   0.8779311114 -1.1816924395 -0.6582837811
H   2.3967379442 -0.5425772870 -0.0312469938
7
Iter 81 Image 0  Energy = -4188.2527480593
C   0.8260657415  0.5508603911 -0.1261794589
H   0.4554445983  1.2417513435 -0.8784317668
O   0.5680753083  1.0246514429  1.1187434847
C   1.4411098584 -0.5873603774 -0.4363613732
H   0.9099091373  0.3932317500  1.7666320721
H   1.5916834696 -0.8592929697 -1.4741885892
H   1.8089534565 -1.2734747403  0.3237244514
7
Iter 81 Image 1  Energy = -4188.2105399689
C   0.8451459443  0.5768051201 -0.1514643079
H   0.4584862605  1.2503147679 -0.9014076619
O   0.6554329147  1.0475008207  1.1073439343
C   1.4340100626 -0.5779751076 -0.4188434588
H   0.8298016091  0.3006690991  1.6875161820
H   1.4631853694 -0.9858088422 -1.4126261583
H   1.9151794540 -1.1211389747  0.3834204800
7
Iter 81 Image 2  Energy = -4187.9628728798
C   0.8624380591  0.6271982896 -0.1773475927
H   0.4964187714  1.3469943348 -0.8935613794
O   0.7143080588  1.0140495408  1.1202781935
C   1.3983439612 -0.5625246675 -0.4011358395
H   0.8046865066  0.1504907207  1.5402111727
H   1.3672899781 -1.1049279987 -1.3201403059
H   1.9577562564 -0.9809133656  0.4256347759
7
Iter 81 Image 3  Energy = -4186.9016666880
C   0.8690877156  0.7007669721 -0.1779322976
H   0.5469995881  1.4446266181 -0.8978223419
O   0.7402769550  0.9784289207  1.1325475656
C   1.3099630462 -0.5638328261 -0.3067050620
H   0.8011128433 -0.0632798353  1.2723546327
H   1.2812960292 -1.1703496732 -1.1726037032
H   2.0525054254 -0.8359934218  0.4441000729
7
Iter 81 Image 4  Energy = -4186.2711514926
C   0.8533734560  0.8072756557 -0.1039435608
H   0.5595241129  1.4720321389 -0.9228245941
O   0.7385344322  1.1995273733  1.0545360786
C   1.2229144116 -0.6040127269 -0.1350667296
H   0.8462548542 -0.4177131516  1.0665925090
H   1.2604990806 -1.1625863978 -1.0976915990
H   2.1201412711 -0.8041562097  0.4323367371
7
Iter 81 Image 5  Energy = -4188.3742345890
C   0.8641418736  0.8714791746 -0.0334108740
H   0.6121099470  1.4096226978 -0.9636631434
O   0.7273182417  1.4167163873  1.0321588405
C   1.2657451938 -0.5644477133 -0.0230933009
H   0.7134917273 -0.8136980853  0.8853783785
H   1.1410748698 -1.1354263652 -0.9463766513
H   2.2773597055 -0.6938792345  0.3429456796
7
Iter 81 Image 6  Energy = -4188.6686129591
C   0.8510673587  0.8882416940  0.0067637400
H   0.6513962492  1.3179921653 -0.9936106525
O   0.7335587398  1.5628096587  0.9942669271
C   1.2587702322 -0.5556104097  0.0459484171
H   0.7008031395 -1.0402138735  0.8428878844
H   1.0891331346 -1.0583197142 -0.9020160005
H   2.3165126828 -0.6245325213  0.2996987332
7
Iter 81 Image 7  Energy = -4188.6818934700
C   0.8085658516  0.8728399315 -0.0181041771
H   0.8224452447  1.2960122208 -1.0413373143
O   0.4518325134  1.5372595976  0.9173866726
C   1.2779180289 -0.5468078586  0.0897097465
H   0.8749473363 -1.0071172887  0.9860758018
H   0.9984071795 -1.1147755250 -0.7941814646
H   2.3671254737 -0.5470443024  0.1543895117
7
Iter 81 Image 8  Energy = -4188.6819968244
C   0.7840367852  0.8656586589 -0.0371164025
H   0.9809293880  1.3403901038 -1.0231241499
O   0.1875804579  1.4681235287  0.8223429327
C   1.3100769769 -0.5359012779  0.1153731248
H   1.0639489065 -0.9236344469  1.1059940899
H   0.8779311114 -1.1816924395 -0.6582837811
H   2.3967379442 -0.5425772870 -0.0312469938
7
Iter 82 Image 0  Energy = -4188.2527480593
C   0.8260657415  0.5508603911 -0.1261794589
H   0.4554445983  1.2417513435 -0.8784317668
O   0.5680753083  1.0246514429  1.1187434847
C   1.4411098584 -0.5873603774 -0.4363613732
H   0.9099091373  0.3932317500  1.7666320721
H   1.5916834696 -0.8592929697 -1.4741885892
H   1.8089534565 -1.2734747403  0.3237244514
7
Iter 82 Image 1  Energy = -4188.2105787566
C   0.8466354552  0.5775393237 -0.1515510136
H   0.4628471285  1.2531013466 -0.9011428127
O   0.6581347796  1.0488600438  1.1071042036
C   1.4311276247 -0.5794954961 -0.4186147546
H   0.8325434303  0.3022797494  1.6874669681
H   1.4584035903 -0.9875147702 -1.4122287099
H   1.9115495898 -1.1244033021  0.3829051300
7
Iter 82 Image 2  Energy = -4187.9613408616
C   0.8612965386  0.6281228492 -0.1754805121
H   0.4952803223  1.3460113829 -0.8935797175
O   0.7112192136  1.0117971897  1.1230624629
C   1.4003233754 -0.5604271229 -0.4007908632
H   0.8004037637  0.1460229574  1.5388976015
H   1.3706529934 -1.0999561727 -1.3211410064
H   1.9620653886 -0.9812042573  0.4229710008
7
Iter 82 Image 3  Energy = -4186.9003492317
C   0.8714222786  0.7016144053 -0.1780610472
H   0.5379321944  1.4396710543 -0.9007700677
O   0.7441115417  0.9808604928  1.1328987921
C   1.3145342293 -0.5621819289 -0.3055050397
H   0.7971082237 -0.0637383591  1.2721931976
H   1.2811140004 -1.1667784613 -1.1734896593
H   2.0550191393 -0.8390804602  0.4466727651
7
Iter 82 Image 4  Energy = -4186.2795209906
C   0.8556867926  0.8096199609 -0.1041738776
H   0.5482664420  1.4672928263 -0.9260409695
O   0.7510697188  1.2038771373  1.0546085485
C   1.2257641364 -0.6031178494 -0.1343065036
H   0.8384668989 -0.4187554506  1.0665496612
H   1.2617792537 -1.1598467467 -1.0985929179
H   2.1202083973 -0.8087032289  0.4358948645
7
Iter 82 Image 5  Energy = -4188.3642360738
C   0.8632447966  0.8703886783 -0.0343404040
H   0.6080374881  1.4066437669 -0.9654807308
O   0.7262220190  1.4170814982  1.0302463414
C   1.2670657020 -0.5650519334 -0.0223320889
H   0.7175398686 -0.8085225182  0.8908742139
H   1.1398355628 -1.1337544448 -0.9474215224
H   2.2792961611 -0.6964182704  0.3423931707
7
Iter 82 Image 6  Energy = -4188.6692357680
C   0.8495485376  0.8883043369  0.0071618462
H   0.6579968964  1.3196721048 -0.9946956372
O   0.7294358039  1.5611764962  0.9951805659
C   1.2570424969 -0.5559349733  0.0462427331
H   0.7034715969 -1.0435392101  0.8445352625
H   1.0879674828 -1.0592721198 -0.9015678994
H   2.3157787378 -0.6200396353  0.2970821340
7
Iter 82 Image 7  Energy = -4188.6816959253
C   0.8084345488  0.8734818845 -0.0174592462
H   0.8216327363  1.2966609361 -1.0415903060
O   0.4528230245  1.5360790905  0.9171456031
C   1.2780701749 -0.5469878424  0.0893223402
H   0.8741853282 -1.0061650557  0.9860078436
H   0.9987693899 -1.1155170988 -0.7943904829
H   2.3673264391 -0.5471851395  0.1549029997
7
Iter 82 Image 8  Energy = -4188.6819968244
C   0.7840367852  0.8656586589 -0.0371164025
H   0.9809293880  1.3403901038 -1.0231241499
O   0.1875804579  1.4681235287  0.8223429327
C   1.3100769769 -0.5359012779  0.1153731248
H   1.0639489065 -0.9236344469  1.1059940899
H   0.8779311114 -1.1816924395 -0.6582837811
H   2.3967379442 -0.5425772870 -0.0312469938
7
Iter 83 Image 0  Energy = -4188.2527480593
C   0.8260657415  0.5508603911 -0.1261794589
H   0.4554445983  1.2417513435 -0.8784317668
O   0.5680753083  1.0246514429  1.1187434847
C   1.4411098584 -0.5873603774 -0.4363613732
H   0.9099091373  0.3932317500  1.7666320721
H   1.5916834696 -0.8592929697 -1.4741885892
H   1.8089534565 -1.2734747403  0.3237244514
7
Iter 83 Image 1  Energy = -4188.2105282119
C   0.8486599356  0.5786501142 -0.1515404974
H   0.4687950923  1.2568634043 -0.9008591348
O   0.6619218043  1.0506806842  1.1068247289
C   1.4273597419 -0.5815098479 -0.4183672324
H   0.8361162931  0.3041451209  1.6874172157
H   1.4518278497 -0.9897666111 -1.4117435163
H   1.9065608579 -1.1286959510  0.3822074475
7
Iter 83 Image 2  Energy = -4187.9588576725
C   0.8606527808  0.6280825073 -0.1730812311
H   0.4930098457  1.3444189661 -0.8935074633
O   0.7071890015  1.0089158935  1.1265415736
C   1.4028997584 -0.5562589174 -0.4001730752
H   0.7943450110  0.1397255383  1.5369913276
H   1.3751289191 -1.0933952496 -1.3227222539
H   1.9680162841 -0.9811219441  0.4198900110
7
Iter 83 Image 3  Energy = -4186.8968601471
C   0.8744577187  0.7024743950 -0.1774956944
H   0.5255398891  1.4322515874 -0.9039343219
O   0.7507465461  0.9839619049  1.1326069359
C   1.3198997102 -0.5605654656 -0.3039430472
H   0.7911207572 -0.0634013646  1.2708316348
H   1.2814761659 -1.1617754603 -1.1740235482
H   2.0580008307 -0.8425788814  0.4498970396
7
Iter 83 Image 4  Energy = -4186.2897303274
C   0.8598817081  0.8110893094 -0.1038054404
H   0.5324694728  1.4598571442 -0.9286893954
O   0.7690978111  1.2099941344  1.0538043747
C   1.2285486050 -0.6012559927 -0.1329230040
H   0.8273186559 -0.4189780665  1.0641852800
H   1.2640664033 -1.1557646449 -1.0995327333
H   2.1198590041 -0.8145752556  0.4408996887
7
Iter 83 Image 5  Energy = -4188.3494857869
C   0.8626321699  0.8691730744 -0.0373659417
H   0.6014549219  1.4018694146 -0.9671257885
O   0.7257300820  1.4180920800  1.0286944585
C   1.2689776029 -0.5658647668 -0.0211990581
H   0.7223607084 -0.8011712441  0.8975387731
H   1.1386959170 -1.1318835385 -0.9485796998
H   2.2813902430 -0.6998483478  0.3419762886
7
Iter 83 Image 6  Energy = -4188.6698776653
C   0.8476555217  0.8878347723  0.0075526979
H   0.6670779911  1.3219151157 -0.9957823983
O   0.7233133668  1.5591993163  0.9963566423
C   1.2547536438 -0.5561974415  0.0465338439
H   0.7071872500 -1.0477730745  0.8467484752
H   1.0862882083 -1.0605490474 -0.9008110747
H   2.3149655943 -0.6140626378  0.2933407662
7
Iter 83 Image 7  Energy = -4188.6818196645
C   0.8090186544  0.8728395038 -0.0187894129
H   0.8204267549  1.2974422031 -1.0417248037
O   0.4535281648  1.5359809185  0.9187903121
C   1.2782513127 -0.5470878371  0.0888520287
H   0.8731375791 -1.0049634979  0.9858108816
H   0.9993233659 -1.1164318410 -0.7946722767
H   2.3675558252 -0.5474126752  0.1556719896
7
Iter 83 Image 8  Energy = -4188.6819968244
C   0.7840367852  0.8656586589 -0.0371164025
H   0.9809293880  1.3403901038 -1.0231241499
O   0.1875804579  1.4681235287  0.8223429327
C   1.3100769769 -0.5359012779  0.1153731248
H   1.0639489065 -0.9236344469  1.1059940899
H   0.8779311114 -1.1816924395 -0.6582837811
H   2.3967379442 -0.5425772870 -0.0312469938
7
Iter 84 Image 0  Energy = -4188.2527480593
C   0.8260657415  0.5508603911 -0.1261794589
H   0.4554445983  1.2417513435 -0.8784317668
O   0.5680753083  1.0246514429  1.1187434847
C   1.4411098584 -0.5873603774 -0.4363613732
H   0.9099091373  0.3932317500  1.7666320721
H   1.5916834696 -0.8592929697 -1.4741885892
H   1.8089534565 -1.2734747403  0.3237244514
7
Iter 84 Image 1  Energy = -4188.2105121335
C   0.8493322150  0.5789762323 -0.1514996451
H   0.4707068741  1.2579918217 -0.9008372028
O   0.6630865474  1.0512400778  1.1069263721
C   1.4261457646 -0.5819441389 -0.4182915515
H   0.8372694895  0.3045862356  1.6873190166
H   1.4498258063 -0.9903910491 -1.4116810300
H   1.9048748711 -1.1300922643  0.3820030492
7
Iter 84 Image 2  Energy = -4187.9578292242
C   0.8606833369  0.6289905360 -0.1724950238
H   0.4927824123  1.3441973387 -0.8931969432
O   0.7066100957  1.0078527325  1.1274301175
C   1.4038199248 -0.5559344182 -0.4001168814
H   0.7926834295  0.1378651779  1.5361589588
H   1.3754714531 -1.0913146502 -1.3230655250
H   1.9691909512 -0.9812899352  0.4192241652
7
Iter 84 Image 3  Energy = -4186.8938682175
C   0.8754871407  0.7030776950 -0.1775780169
H   0.5228333274  1.4299827278 -0.9044851209
O   0.7535622416  0.9848878909  1.1328442426
C   1.3207360067 -0.5600786876 -0.3033807816
H   0.7893377471 -0.0632887076  1.2698818888
H   1.2810586653 -1.1603680584 -1.1736935958
H   2.0582264976 -0.8438461704  0.4503503615
7
Iter 84 Image 4  Energy = -4186.2938820964
C   0.8616823422  0.8116902056 -0.1035594566
H   0.5283710253  1.4574853586 -0.9285251025
O   0.7752093797  1.2118857192  1.0530202100
C   1.2288561740 -0.6009087263 -0.1324525418
H   0.8240693047 -0.4185517226  1.0622132521
H   1.2640624548 -1.1544378864 -1.0992698366
H   2.1189909838 -0.8167963333  0.4425122281
7
Iter 84 Image 5  Energy = -4188.3437703422
C   0.8630161194  0.8694584277 -0.0372452083
H   0.5995178079  1.4009722080 -0.9677141516
O   0.7270829527  1.4175803936  1.0273381118
C   1.2689802410 -0.5658905912 -0.0211768455
H   0.7235480327 -0.7984879960  0.8993456211
H   1.1380485334 -1.1314227934 -0.9487517162
H   2.2810479722 -0.7018430120  0.3421432181
7
Iter 84 Image 6  Energy = -4188.6701054892
C   0.8472294058  0.8876989672  0.0078201075
H   0.6699303248  1.3223221740 -0.9958356588
O   0.7214676489  1.5588715687  0.9963938696
C   1.2540946801 -0.5563363187  0.0467278319
H   0.7083147162 -1.0492297159  0.8473190422
H   1.0855330623 -1.0605064264 -0.9006643857
H   2.3146717454 -0.6124532441  0.2921781336
7
Iter 84 Image 7  Energy = -4188.6818209758
C   0.8090217113  0.8729058524 -0.0187357625
H   0.8203175296  1.2977810548 -1.0416443798
O   0.4538033306  1.5356305462  0.9188254423
C   1.2782445229 -0.5471118778  0.0886880096
H   0.8729335719 -1.0046160118  0.9857161312
H   0.9994005542 -1.1167285873 -0.7946696013
H   2.3675204386 -0.5474942036  0.1557588732
7
Iter 84 Image 8  Energy = -4188.6819968244
C   0.7840367852  0.8656586589 -0.0371164025
H   0.9809293880  1.3403901038 -1.0231241499
O   0.1875804579  1.4681235287  0.8223429327
C   1.3100769769 -0.5359012779  0.1153731248
H   1.0639489065 -0.9236344469  1.1059940899
H   0.8779311114 -1.1816924395 -0.6582837811
H   2.3967379442 -0.5425772870 -0.0312469938
7
Iter 85 Image 0  Energy = -4188.2527480593
C   0.8260657415  0.5508603911 -0.1261794589
H   0.4554445983  1.2417513435 -0.8784317668
O   0.5680753083  1.0246514429  1.1187434847
C   1.4411098584 -0.5873603774 -0.4363613732
H   0.9099091373  0.3932317500  1.7666320721
H   1.5916834696 -0.8592929697 -1.4741885892
H   1.8089534565 -1.2734747403  0.3237244514
7
Iter 85 Image 1  Energy = -4188.2103204897
C   0.8532126728  0.5813575260 -0.1510485985
H   0.4821146249  1.2644855728 -0.9007935549
O   0.6700977378  1.0544600645  1.1078134651
C   1.4192398853 -0.5845158418 -0.4180117667
H   0.8439498679  0.3066755685  1.6866524910
H   1.4379896601 -0.9938183420 -1.4114543924
H   1.8946370817 -1.1382776297  0.3807813480
7
Iter 85 Image 2  Energy = -4187.9498962185
C   0.8624771029  0.6333944964 -0.1694429014
H   0.4911391526  1.3431619034 -0.8910474758
O   0.7044102741  1.0017985908  1.1321685469
C   1.4089530361 -0.5533186467 -0.3995789799
H   0.7828643543  0.1267455310  1.5307905970
H   1.3760183407 -1.0792898799 -1.3252519906
H   1.9753793602 -0.9821252920  0.4163009581
7
Iter 85 Image 3  Energy = -4186.8694584093
C   0.8821491612  0.7060241759 -0.1774025961
H   0.5079789064  1.4163329080 -0.9066100069
O   0.7726788336  0.9905432216  1.1339091706
C   1.3235928435 -0.5572286427 -0.2999593072
H   0.7783131601 -0.0617578219  1.2625963766
H   1.2783942042 -1.1524854668 -1.1708356081
H   2.0581345823 -0.8510618754  0.4522407678
7
Iter 85 Image 4  Energy = -4186.3192055097
C   0.8739278029  0.8141398741 -0.1034304123
H   0.5047005672  1.4423877904 -0.9247712337
O   0.8135504806  1.2241210900  1.0490196459
C   1.2291400432 -0.5990443006 -0.1294038157
H   0.8042156902 -0.4147977329  1.0469847063
H   1.2636029130 -1.1462257060 -1.0969752513
H   2.1121041847 -0.8302144780  0.4525150177
7
Iter 85 Image 5  Energy = -4188.3040319851
C   0.8669674118  0.8706590766 -0.0391795714
H   0.5868962094  1.3957683826 -0.9705111985
O   0.7385125229  1.4154623088  1.0216317751
C   1.2682744175 -0.5655876208 -0.0214664288
H   0.7290826474 -0.7817985582  0.9086124266
H   1.1344270357 -1.1291507252 -0.9492891824
H   2.2770815019 -0.7149864339  0.3441411629
7
Iter 85 Image 6  Energy = -4188.6711987725
C   0.8450792561  0.8864018775  0.0091600120
H   0.6869999862  1.3242474823 -0.9954666145
O   0.7099839078  1.5576913355  0.9964407938
C   1.2504306938 -0.5571587962  0.0479908406
H   0.7150542984 -1.0577621690  0.8505610139
H   1.0806056577 -1.0596224779 -0.8998178880
H   2.3130878289 -0.6034302419  0.2850707160
7
Iter 85 Image 7  Energy = -4188.6817531905
C   0.8091997914  0.8728354033 -0.0189848448
H   0.8199448653  1.2998244245 -1.0408828636
O   0.4551785347  1.5339960860  0.9194435293
C   1.2781025216 -0.5471516406  0.0877269186
H   0.8718932621 -1.0026949996  0.9850379350
H   0.9997899290 -1.1184300060 -0.7945253211
H   2.3671327628 -0.5480125015  0.1561233260
7
Iter 85 Image 8  Energy = -4188.6819968244
C   0.7840367852  0.8656586589 -0.0371164025
H   0.9809293880  1.3403901038 -1.0231241499
O   0.1875804579  1.4681235287  0.8223429327
C   1.3100769769 -0.5359012779  0.1153731248
H   1.0639489065 -0.9236344469  1.1059940899
H   0.8779311114 -1.1816924395 -0.6582837811
H   2.3967379442 -0.5425772870 -0.0312469938
7
Iter 86 Image 0  Energy = -4188.2527480593
C   0.8260657415  0.5508603911 -0.1261794589
H   0.4554445983  1.2417513435 -0.8784317668
O   0.5680753083  1.0246514429  1.1187434847
C   1.4411098584 -0.5873603774 -0.4363613732
H   0.9099091373  0.3932317500  1.7666320721
H   1.5916834696 -0.8592929697 -1.4741885892
H   1.8089534565 -1.2734747403  0.3237244514
7
Iter 86 Image 1  Energy = -4188.2097727230
C   0.8598722675  0.5857318648 -0.1500306826
H   0.5015746247  1.2752313470 -0.9007801610
O   0.6822334792  1.0597654515  1.1097023381
C   1.4078006964 -0.5886575764 -0.4177571288
H   0.8549982178  0.3094868361  1.6854708226
H   1.4179171944 -0.9991148914 -1.4113435277
H   1.8768449842 -1.1520761134  0.3786772859
7
Iter 86 Image 2  Energy = -4187.9332933745
C   0.8675230487  0.6397757485 -0.1647858046
H   0.4877322895  1.3415601357 -0.8868888135
O   0.7027318112  0.9919497509  1.1395013518
C   1.4175023469 -0.5482777438 -0.3985429117
H   0.7660368130  0.1079718684  1.5210488207
H   1.3749696052 -1.0593719447 -1.3291143115
H   1.9847457416 -0.9832412550  0.4127202414
7
Iter 86 Image 3  Energy = -4186.8051409295
C   0.8945901201  0.7102278860 -0.1765235847
H   0.4839411571  1.3929664243 -0.9082363445
O   0.8087676459  1.0012696297  1.1354572193
C   1.3258704715 -0.5532779123 -0.2940718955
H   0.7588468184 -0.0575614225  1.2478141286
H   1.2734736789 -1.1402404714 -1.1652493298
H   2.0557519125 -0.8630179783  0.4547481735
7
Iter 86 Image 4  Energy = -4186.3612983620
C   0.8968934439  0.8173665412 -0.1033379683
H   0.4650882161  1.4153137622 -0.9149619687
O   0.8828235913  1.2462450589  1.0425200541
C   1.2278584723 -0.5965374949 -0.1243252047
H   0.7687161213 -0.4067810821  1.0162683271
H   1.2622540742 -1.1320380693 -1.0925398051
H   2.0976077862 -0.8532022867  0.4703150324
7
Iter 86 Image 5  Energy = -4188.2260490528
C   0.8758905529  0.8722818416 -0.0445530791
H   0.5633918877  1.3869457473 -0.9741677450
O   0.7639104530  1.4132953154  1.0140580160
C   1.2662128011 -0.5646528699 -0.0226973969
H   0.7354711987 -0.7522412375  0.9216163572
H   1.1286534614 -1.1261210264 -0.9495379491
H   2.2677115261 -0.7391416789  0.3492206440
7
Iter 86 Image 6  Energy = -4188.6716226509
C   0.8418218929  0.8840728136  0.0118125985
H   0.7163764872  1.3268510067 -0.9941056992
O   0.6895532422  1.5563310859  0.9958380576
C   1.2446008042 -0.5586291062  0.0503202686
H   0.7265932850 -1.0721387640  0.8559118789
H   1.0715444622 -1.0572940562 -0.8984040913
H   2.3107515351 -0.5888259517  0.2725657570
7
Iter 86 Image 7  Energy = -4188.6814794263
C   0.8094788500  0.8725885287 -0.0194604403
H   0.8197061100  1.3033380120 -1.0393300458
O   0.4573462097  1.5314224016  0.9204724463
C   1.2777382047 -0.5471484231  0.0860970122
H   0.8703485011 -0.9996450443  0.9837895401
H   1.0003384383 -1.1212558175 -0.7941501822
H   2.3662853610 -0.5489329040  0.1565203003
7
Iter 86 Image 8  Energy = -4188.6819968244
C   0.7840367852  0.8656586589 -0.0371164025
H   0.9809293880  1.3403901038 -1.0231241499
O   0.1875804579  1.4681235287  0.8223429327
C   1.3100769769 -0.5359012779  0.1153731248
H   1.0639489065 -0.9236344469  1.1059940899
H   0.8779311114 -1.1816924395 -0.6582837811
H   2.3967379442 -0.5425772870 -0.0312469938
7
Iter 87 Image 0  Energy = -4188.2527480593
C   0.8260657415  0.5508603911 -0.1261794589
H   0.4554445983  1.2417513435 -0.8784317668
O   0.5680753083  1.0246514429  1.1187434847
C   1.4411098584 -0.5873603774 -0.4363613732
H   0.9099091373  0.3932317500  1.7666320721
H   1.5916834696 -0.8592929697 -1.4741885892
H   1.8089534565 -1.2734747403  0.3237244514
7
Iter 87 Image 1  Energy = -4188.2065943798
C   0.8787015552  0.5982502297 -0.1468885071
H   0.5561673257  1.3048943783 -0.9007880925
O   0.7165121264  1.0743770917  1.1154693846
C   1.3760875537 -0.5998327284 -0.4173009648
H   0.8855852285  0.3164415794  1.6821610734
H   1.3618167932 -1.0131253443 -1.4114312048
H   1.8263706933 -1.1906383001  0.3727171153
7
Iter 87 Image 2  Energy = -4187.8721019945
C   0.8843058764  0.6564785377 -0.1524277326
H   0.4777711020  1.3374023700 -0.8745022298
O   0.7012110384  0.9649782431  1.1591776745
C   1.4410826632 -0.5337140397 -0.3956367384
H   0.7188807683  0.0559572624  1.4929155479
H   1.3689929828 -1.0044356201 -1.3400740432
H   2.0089973305 -0.9863006049  0.4044855913
7
Iter 87 Image 3  Energy = -4186.4850536755
C   0.9310479517  0.7215448575 -0.1733432606
H   0.4185717716  1.3275638336 -0.9098694283
O   0.9148959348  1.0326665877  1.1393338687
C   1.3287766159 -0.5437602345 -0.2774172640
H   0.7035495169 -0.0433913894  1.2029777285
H   1.2586554154 -1.1077610608 -1.1488621645
H   2.0457449242 -0.8964974300  0.4611175325
7
Iter 87 Image 4  Energy = -4186.4795161507
C   0.9639666841  0.8259342781 -0.1020838515
H   0.3556536983  1.3375904872 -0.8824988014
O   1.0828235913  1.3094890073  1.0235736052
C   1.2220745590 -0.5903433407 -0.1101543591
H   0.6665794936 -0.3820140913  0.9235345883
H   1.2571534269 -1.0922899971 -1.0796103997
H   2.0529903007 -0.9180002105  0.5211771210
7
Iter 87 Image 5  Energy = -4187.9563007674
C   0.9037943559  0.8769506108 -0.0616258695
H   0.4952324554  1.3623367903 -0.9826018314
O   0.8441284269  1.4092981068  0.9949966656
C   1.2592025269 -0.5617552702 -0.0269870261
H   0.7486637848 -0.6682769585  0.9537600204
H   1.1125287519 -1.1187306897 -0.9494227806
H   2.2376919412 -0.8094574337  0.3658192077
7
Iter 87 Image 6  Energy = -4188.6622325948
C   0.8332359244  0.8774432863  0.0196740520
H   0.7991929935  1.3331182709 -0.9892703902
O   0.6311711124  1.5535303689  0.9933214538
C   1.2288150787 -0.5628508843  0.0571703512
H   0.7589914504 -1.1123269841  0.8705982861
H   1.0451707024 -1.0494961464 -0.8945455739
H   2.3046646734 -0.5490508257  0.2369903160
7
Iter 87 Image 7  Energy = -4188.6797263792
C   0.8103311971  0.8716108663 -0.0210705223
H   0.8197086607  1.3132812882 -1.0346252099
O   0.4630268640  1.5246217166  0.9235649123
C   1.2765277266 -0.5470628616  0.0815468400
H   0.8663523417 -0.9914331475  0.9802152731
H   1.0016364638 -1.1290960142 -0.7929424625
H   2.3636584328 -0.5515551349  0.1572496763
7
Iter 87 Image 8  Energy = -4188.6819968244
C   0.7840367852  0.8656586589 -0.0371164025
H   0.9809293880  1.3403901038 -1.0231241499
O   0.1875804579  1.4681235287  0.8223429327
C   1.3100769769 -0.5359012779  0.1153731248
H   1.0639489065 -0.9236344469  1.1059940899
H   0.8779311114 -1.1816924395 -0.6582837811
H   2.3967379442 -0.5425772870 -0.0312469938
7
Iter 88 Image 0  Energy = -4188.2527480593
C   0.8260657415  0.5508603911 -0.1261794589
H   0.4554445983  1.2417513435 -0.8784317668
O   0.5680753083  1.0246514429  1.1187434847
C   1.4411098584 -0.5873603774 -0.4363613732
H   0.9099091373  0.3932317500  1.7666320721
H   1.5916834696 -0.8592929697 -1.4741885892
H   1.8089534565 -1.2734747403  0.3237244514
7
Iter 88 Image 1  Energy = -4188.2018862090
C   0.8924699333  0.6079862944 -0.1435651316
H   0.5954187087  1.3239770521 -0.9015023786
O   0.7412411223  1.0838971004  1.1224183621
C   1.3544902808 -0.6050710386 -0.4177368033
H   0.9066119400  0.3175672481  1.6790986812
H   1.3231430163 -1.0201798677 -1.4131802283
H   1.7878661480 -1.2178099577  0.3684061392
7
Iter 88 Image 2  Energy = -4187.7984130999
C   0.9066923355  0.6707579259 -0.1470717501
H   0.4739239800  1.3383970460 -0.8613882047
O   0.7141416478  0.9457622654  1.1689128993
C   1.4567816162 -0.5287423900 -0.3945487422
H   0.6880037407  0.0222375135  1.4689005740
H   1.3470862035 -0.9678658075 -1.3473288566
H   2.0146123382 -0.9901807547  0.4064618666
7
Iter 88 Image 3  Energy = -4186.0791121891
C   0.9609383318  0.7314670357 -0.1706202729
H   0.3891634752  1.2814474817 -0.8984550715
O   1.0098225047  1.0562683946  1.1426004227
C   1.3133303906 -0.5409673393 -0.2643672721
H   0.6637550310 -0.0257526108  1.1568982802
H   1.2411379358 -1.0907166492 -1.1305097351
H   2.0230947737 -0.9213821282  0.4583889644
7
Iter 88 Image 4  Energy = -4186.5730542561
C   1.0227283854  0.8326880433 -0.0973966193
H   0.2922457335  1.2758069803 -0.8335623009
O   1.2420907856  1.3561204574  1.0004793702
C   1.2077405887 -0.5901566586 -0.0994073249
H   0.5895917411 -0.3530370051  0.8275720567
H   1.2432550599 -1.0632975629 -1.0632654118
H   2.0035894415 -0.9677583386  0.5595176131
7
Iter 88 Image 5  Energy = -4187.7068453750
C   0.9362502549  0.8855163935 -0.0744641648
H   0.4436422669  1.3504094131 -0.9840140974
O   0.9364000913  1.4070518803  0.9832111776
C   1.2458115018 -0.5566158980 -0.0338120171
H   0.7435781570 -0.6050115521  0.9621632882
H   1.0977333289 -1.1174959864 -0.9444936312
H   2.1978268675 -0.8734897393  0.3853471276
7
Iter 88 Image 6  Energy = -4188.6457325390
C   0.8302236401  0.8722919986  0.0268818096
H   0.8588589302  1.3318871821 -0.9795669935
O   0.5876018016  1.5571544074  0.9863142490
C   1.2198817502 -0.5666295444  0.0638466163
H   0.7817964351 -1.1411669573  0.8787344994
H   1.0219205502 -1.0365400330 -0.8929019611
H   2.3009589962 -0.5266299145  0.2106301586
7
Iter 88 Image 7  Energy = -4188.6766816250
C   0.8104334996  0.8707955782 -0.0213866551
H   0.8238548830  1.3213312896 -1.0289642532
O   0.4656511289  1.5197091322  0.9242702252
C   1.2745660199 -0.5465471794  0.0783103636
H   0.8655726011 -0.9868184057  0.9771209815
H   1.0010662122 -1.1344588917 -0.7907906414
H   2.3600973004 -0.5536448504  0.1553784649
7
Iter 88 Image 8  Energy = -4188.6819968244
C   0.7840367852  0.8656586589 -0.0371164025
H   0.9809293880  1.3403901038 -1.0231241499
O   0.1875804579  1.4681235287  0.8223429327
C   1.3100769769 -0.5359012779  0.1153731248
H   1.0639489065 -0.9236344469  1.1059940899
H   0.8779311114 -1.1816924395 -0.6582837811
H   2.3967379442 -0.5425772870 -0.0312469938
7
Iter 89 Image 0  Energy = -4188.2527480593
C   0.8260657415  0.5508603911 -0.1261794589
H   0.4554445983  1.2417513435 -0.8784317668
O   0.5680753083  1.0246514429  1.1187434847
C   1.4411098584 -0.5873603774 -0.4363613732
H   0.9099091373  0.3932317500  1.7666320721
H   1.5916834696 -0.8592929697 -1.4741885892
H   1.8089534565 -1.2734747403  0.3237244514
7
Iter 89 Image 1  Energy = -4188.2037791780
C   0.8728455504  0.5993196546 -0.1422873210
H   0.5381441771  1.2864656919 -0.9044897073
O   0.7054774011  1.0655146329  1.1264311434
C   1.3925516549 -0.5853743132 -0.4211542102
H   0.8708259600  0.2961518133  1.6793406716
H   1.3870115410 -0.9960328328 -1.4188366996
H   1.8343850835 -1.1756780230  0.3749347107
7
Iter 89 Image 2  Energy = -4187.8100382260
C   0.9234491887  0.6624686746 -0.1725796052
H   0.4940412766  1.3559688959 -0.8605099874
O   0.7620114573  0.9768186302  1.1323824092
C   1.4285763214 -0.5625953977 -0.3991418395
H   0.7465953439  0.0827212737  1.4846306296
H   1.2945249219 -1.0344848555 -1.3332569544
H   1.9520433240 -0.9905311546  0.4424139137
7
Iter 89 Image 3  Energy = -4186.2917962393
C   0.9371466383  0.7196378565 -0.1719861917
H   0.5144520253  1.3532893405 -0.8627619236
O   0.9625395400  1.0277561861  1.1444933487
C   1.2494521442 -0.5604841331 -0.2797607633
H   0.7199762398 -0.0182832889  1.1591636829
H   1.2325136555 -1.1469478556 -1.1190149994
H   1.9851621434 -0.8846038040  0.4238010285
7
Iter 89 Image 4  Energy = -4186.2168360522
C   0.9910343337  0.8134752567 -0.1018050103
H   0.4516142002  1.3456103372 -0.7984764254
O   1.0780922215  1.3049920999  1.0107221080
C   1.1743230186 -0.6084724449 -0.1116243645
H   0.6921115377 -0.3510010108  0.8343984014
H   1.2143155469 -1.1036476254 -1.0499145635
H   1.9997506598 -0.9105904397  0.5106374794
7
Iter 89 Image 5  Energy = -4187.9277927896
C   0.9512617693  0.8945215517 -0.0595406288
H   0.5002487325  1.3974136533 -0.9626509622
O   0.9662283343  1.4044215946  1.0113966744
C   1.2238954906 -0.5477722132 -0.0478579332
H   0.6848385981 -0.6701455022  0.8875507894
H   1.1095130376 -1.1392420058 -0.9314254497
H   2.1652560006 -0.8488315096  0.3964644415
7
Iter 89 Image 6  Energy = -4188.6481702051
C   0.8505998490  0.8748088116  0.0233021669
H   0.7723572906  1.3073217252 -0.9664136914
O   0.6431904006  1.5803813816  0.9738079115
C   1.2434146935 -0.5639709496  0.0615794576
H   0.7460003775 -1.0999575416  0.8568247267
H   1.0351591897 -1.0202900404 -0.9004247465
H   2.3105200894 -0.5879262567  0.2452631115
7
Iter 89 Image 7  Energy = -4188.6756689420
C   0.8079483638  0.8708111050 -0.0174498887
H   0.8372451338  1.3139316332 -1.0259009435
O   0.4552917568  1.5269549808  0.9162743910
C   1.2721323296 -0.5448600897  0.0831018222
H   0.8765477633 -0.9995802433  0.9786175127
H   0.9950809651 -1.1252447212 -0.7876894844
H   2.3569951623 -0.5516459863  0.1469854262
7
Iter 89 Image 8  Energy = -4188.6819968244
C   0.7840367852  0.8656586589 -0.0371164025
H   0.9809293880  1.3403901038 -1.0231241499
O   0.1875804579  1.4681235287  0.8223429327
C   1.3100769769 -0.5359012779  0.1153731248
H   1.0639489065 -0.9236344469  1.1059940899
H   0.8779311114 -1.1816924395 -0.6582837811
H   2.3967379442 -0.5425772870 -0.0312469938
7
Iter 90 Image 0  Energy = -4188.2527480593
C   0.8260657415  0.5508603911 -0.1261794589
H   0.4554445983  1.2417513435 -0.8784317668
O   0.5680753083  1.0246514429  1.1187434847
C   1.4411098584 -0.5873603774 -0.4363613732
H   0.9099091373  0.3932317500  1.7666320721
H   1.5916834696 -0.8592929697 -1.4741885892
H   1.8089534565 -1.2734747403  0.3237244514
7
Iter 90 Image 1  Energy = -4188.2102171055
C   0.8579722142  0.5853568192 -0.1487975781
H   0.4933622595  1.2698705683 -0.9007447098
O   0.6777054611  1.0552605951  1.1107215763
C   1.4140326848 -0.5859330821 -0.4186037915
H   0.8496509615  0.3038030552  1.6850585654
H   1.4282171428 -0.9917360487 -1.4125721005
H   1.8803007975 -1.1462551149  0.3788769377
7
Iter 90 Image 2  Energy = -4187.9332540354
C   0.8798176214  0.6323051537 -0.1705712295
H   0.5007201531  1.3526684022 -0.8854162143
O   0.7251396782  1.0024760668  1.1358350859
C   1.4052703296 -0.5500929649 -0.4010202089
H   0.7789700985  0.1202921399  1.5212362752
H   1.3489739770 -1.0755257453 -1.3274982432
H   1.9623498299 -0.9917565810  0.4213732084
7
Iter 90 Image 3  Energy = -4186.7951805240
C   0.9075456842  0.7063841076 -0.1623719963
H   0.5112443069  1.4223924968 -0.9058808791
O   0.8145971131  0.9994031631  1.1309295067
C   1.3068025170 -0.5609111926 -0.2939325969
H   0.7712007269 -0.0486786105  1.2417365184
H   1.2532850211 -1.1622974607 -1.1698283074
H   2.0365664828 -0.8659265843  0.4532855255
7
Iter 90 Image 4  Energy = -4186.3620442471
C   0.9095970072  0.8183022610 -0.0916137389
H   0.4981740258  1.4378323165 -0.9163771438
O   0.8780922215  1.2461017200  1.0499912755
C   1.2320051400 -0.6028978960 -0.1415721280
H   0.7579759280 -0.4092014078  1.0215213199
H   1.2357334768 -1.1470122130 -1.0913173525
H   2.0896638810 -0.8527585226  0.4633060118
7
Iter 90 Image 5  Energy = -4188.2520975789
C   0.8837727567  0.8785983424 -0.0437339466
H   0.5805496067  1.4010289928 -0.9599602465
O   0.8072708917  1.4204458963  1.0189287341
C   1.2602194156 -0.5681680942 -0.0267770068
H   0.7070246677 -0.7590566624  0.8990801701
H   1.1178775936 -1.1330228680 -0.9512908020
H   2.2445268740 -0.7494593996  0.3576915015
7
Iter 90 Image 6  Energy = -4188.6718091092
C   0.8464485026  0.8857924937  0.0170728830
H   0.7046460114  1.3196094497 -0.9964458072
O   0.6982804420  1.5643923177  0.9934222497
C   1.2481237214 -0.5580832852  0.0506823700
H   0.7197138342 -1.0694699373  0.8528518149
H   1.0691316035 -1.0470062811 -0.9011769263
H   2.3148975659 -0.6048677492  0.2775323340
7
Iter 90 Image 7  Energy = -4188.6813603810
C   0.8103306480  0.8721666160 -0.0200153272
H   0.8270483019  1.3041003914 -1.0383547344
O   0.4522590039  1.5336981552  0.9218951995
C   1.2763027257 -0.5474671314  0.0867357041
H   0.8733132695 -1.0032542065  0.9854107907
H   0.9966144855 -1.1203923495 -0.7939273691
H   2.3653731697 -0.5484847276  0.1521944831
7
Iter 90 Image 8  Energy = -4188.6819968244
C   0.7840367852  0.8656586589 -0.0371164025
H   0.9809293880  1.3403901038 -1.0231241499
O   0.1875804579  1.4681235287  0.8223429327
C   1.3100769769 -0.5359012779  0.1153731248
H   1.0639489065 -0.9236344469  1.1059940899
H   0.8779311114 -1.1816924395 -0.6582837811
H   2.3967379442 -0.5425772870 -0.0312469938
7
Iter 91 Image 0  Energy = -4188.2527480593
C   0.8260657415  0.5508603911 -0.1261794589
H   0.4554445983  1.2417513435 -0.8784317668
O   0.5680753083  1.0246514429  1.1187434847
C   1.4411098584 -0.5873603774 -0.4363613732
H   0.9099091373  0.3932317500  1.7666320721
H   1.5916834696 -0.8592929697 -1.4741885892
H   1.8089534565 -1.2734747403  0.3237244514
7
Iter 91 Image 1  Energy = -4188.2101292035
C   0.8595823075  0.5853762926 -0.1494081480
H   0.4964126691  1.2717307119 -0.9001100598
O   0.6800163902  1.0561241786  1.1112169726
C   1.4118455683 -0.5854005749 -0.4187739998
H   0.8509027262  0.3034602271  1.6850712452
H   1.4249637836 -0.9920820367 -1.4131237364
H   1.8775180703 -1.1488420174  0.3790666067
7
Iter 91 Image 2  Energy = -4187.9287188819
C   0.8768634362  0.6433477756 -0.1676439864
H   0.5017032911  1.3512537026 -0.8837711118
O   0.7285304099  1.0017397256  1.1347020659
C   1.4095091289 -0.5578664799 -0.4009107402
H   0.7765268614  0.1181604867  1.5203509273
H   1.3472583547 -1.0743056346 -1.3278266280
H   1.9608502199 -0.9919631600  0.4190380890
7
Iter 91 Image 3  Energy = -4186.7940855494
C   0.9058086912  0.7188996131 -0.1812965699
H   0.5119776080  1.4130171183 -0.8981230197
O   0.8235808709  1.0082642202  1.1399382110
C   1.3108440164 -0.5706201731 -0.3019774353
H   0.7646163664 -0.0505104468  1.2432475941
H   1.2492917477 -1.1584774941 -1.1643449520
H   2.0351225520 -0.8702069599  0.4564938746
7
Iter 91 Image 4  Energy = -4186.3816748878
C   0.9130454372  0.8205216261 -0.1041686432
H   0.4962213692  1.4321076824 -0.9119130033
O   0.8934564801  1.2496701111  1.0579150375
C   1.2263299568 -0.5964019385 -0.1305183770
H   0.7506768696 -0.4081220617  1.0136467667
H   1.2337082331 -1.1489421962 -1.0977610158
H   2.0878033484 -0.8584670068  0.4667373875
7
Iter 91 Image 5  Energy = -4188.2427641919
C   0.8921382073  0.8693164798 -0.0511252162
H   0.5746561641  1.4015276191 -0.9616948571
O   0.8172484867  1.4286401775  1.0291601841
C   1.2537581007 -0.5668421834 -0.0314483871
H   0.7013169403 -0.7534592743  0.8991856831
H   1.1158319704 -1.1333529688 -0.9521664876
H   2.2462919500 -0.7554636995  0.3620274166
7
Iter 91 Image 6  Energy = -4188.6716188809
C   0.8459999501  0.8852494564  0.0120990402
H   0.7099066471  1.3187980049 -0.9950898224
O   0.6943016408  1.5663057702  0.9970617903
C   1.2480835218 -0.5584942995  0.0531207410
H   0.7216285121 -1.0718588082  0.8531819326
H   1.0670297231 -1.0460957114 -0.9013060983
H   2.3142916994 -0.6035374011  0.2748713281
7
Iter 91 Image 7  Energy = -4188.6806763729
C   0.8090064667  0.8747000716 -0.0162011822
H   0.8277269053  1.3047945441 -1.0383783880
O   0.4533383205  1.5309533689  0.9186680188
C   1.2762521645 -0.5477585293  0.0865617634
H   0.8733117828 -1.0028540474  0.9854007828
H   0.9962784620 -1.1208338707 -0.7939023865
H   2.3653274996 -0.5486347892  0.1517901356
7
Iter 91 Image 8  Energy = -4188.6819968244
C   0.7840367852  0.8656586589 -0.0371164025
H   0.9809293880  1.3403901038 -1.0231241499
O   0.1875804579  1.4681235287  0.8223429327
C   1.3100769769 -0.5359012779  0.1153731248
H   1.0639489065 -0.9236344469  1.1059940899
H   0.8779311114 -1.1816924395 -0.6582837811
H   2.3967379442 -0.5425772870 -0.0312469938
7
Iter 92 Image 0  Energy = -4188.2527480593
C   0.8260657415  0.5508603911 -0.1261794589
H   0.4554445983  1.2417513435 -0.8784317668
O   0.5680753083  1.0246514429  1.1187434847
C   1.4411098584 -0.5873603774 -0.4363613732
H   0.9099091373  0.3932317500  1.7666320721
H   1.5916834696 -0.8592929697 -1.4741885892
H   1.8089534565 -1.2734747403  0.3237244514
7
Iter 92 Image 1  Energy = -4188.2099139264
C   0.8610465277  0.5874258707 -0.1483824317
H   0.5011556097  1.2733475212 -0.9004795709
O   0.6831321834  1.0569045270  1.1130276282
C   1.4099889575 -0.5856859558 -0.4191882046
H   0.8529676275  0.3022586043  1.6844019820
H   1.4207375984 -0.9920145994 -1.4139359740
H   1.8722129969 -1.1518692162  0.3784954130
7
Iter 92 Image 2  Energy = -4187.9251326939
C   0.8850073122  0.6415913783 -0.1689509418
H   0.5013667393  1.3530219371 -0.8812973452
O   0.7344002564  1.0000273565  1.1349129207
C   1.4091076416 -0.5550801629 -0.4005478307
H   0.7734784932  0.1147779057  1.5159043287
H   1.3392123835 -1.0711514711 -1.3286755790
H   1.9586688963 -0.9928205831  0.4225930480
7
Iter 92 Image 3  Energy = -4186.7712651065
C   0.9129508895  0.7140233315 -0.1763844884
H   0.5127583020  1.4091018142 -0.8949190862
O   0.8418438174  1.0104495981  1.1380894439
C   1.3015188868 -0.5645907877 -0.2968492860
H   0.7590168244 -0.0456638315  1.2324267857
H   1.2453358920 -1.1600988326 -1.1613892909
H   2.0278173023 -0.8728556103  0.4529631782
7
Iter 92 Image 4  Energy = -4186.4085282555
C   0.9236807468  0.8216748905 -0.0987047541
H   0.4927532989  1.4229643502 -0.8983998413
O   0.9175425414  1.2547021934  1.0491719439
C   1.2198083800 -0.5990718019 -0.1301419015
H   0.7417293639 -0.4005998260  0.9917802182
H   1.2295181782 -1.1441750487 -1.0918258133
H   2.0762091637 -0.8651285642  0.4720582070
7
Iter 92 Image 5  Energy = -4188.2255319080
C   0.8999169760  0.8760414697 -0.0475964904
H   0.5662676505  1.4014452321 -0.9605357458
O   0.8401726430  1.4244152494  1.0230045822
C   1.2503111194 -0.5656490433 -0.0330612525
H   0.6960832565 -0.7434111226  0.8956565388
H   1.1140356784 -1.1347877943 -0.9505368146
H   2.2344545085 -0.7676879079  0.3670073141
7
Iter 92 Image 6  Energy = -4188.6726646593
C   0.8465440976  0.8852618785  0.0158156529
H   0.7171679935  1.3170675225 -0.9920888180
O   0.6885356492  1.5672939627  0.9925221853
C   1.2476455034 -0.5590650284  0.0539634152
H   0.7242370490 -1.0752505947  0.8535546042
H   1.0629146574 -1.0423195812 -0.9011678944
H   2.3141967680 -0.6026211347  0.2713397771
7
Iter 92 Image 7  Energy = -4188.6818541756
C   0.8096450335  0.8730205303 -0.0182504912
H   0.8293805496  1.3059328248 -1.0366984599
O   0.4525923936  1.5317703354  0.9202176733
C   1.2756508072 -0.5473603340  0.0862394748
H   0.8738527143 -1.0027317294  0.9847240525
H   0.9958259388 -1.1212807886 -0.7932019444
H   2.3642941438 -0.5489840999  0.1509084575
7
Iter 92 Image 8  Energy = -4188.6819968244
C   0.7840367852  0.8656586589 -0.0371164025
H   0.9809293880  1.3403901038 -1.0231241499
O   0.1875804579  1.4681235287  0.8223429327
C   1.3100769769 -0.5359012779  0.1153731248
H   1.0639489065 -0.9236344469  1.1059940899
H   0.8779311114 -1.1816924395 -0.6582837811
H   2.3967379442 -0.5425772870 -0.0312469938
7
Iter 93 Image 0  Energy = -4188.2527480593
C   0.8260657415  0.5508603911 -0.1261794589
H   0.4554445983  1.2417513435 -0.8784317668
O   0.5680753083  1.0246514429  1.1187434847
C   1.4411098584 -0.5873603774 -0.4363613732
H   0.9099091373  0.3932317500  1.7666320721
H   1.5916834696 -0.8592929697 -1.4741885892
H   1.8089534565 -1.2734747403  0.3237244514
7
Iter 93 Image 1  Energy = -4188.2098513863
C   0.8612460722  0.5879499555 -0.1479671782
H   0.5010456699  1.2729988159 -0.9003020806
O   0.6836184053  1.0563669490  1.1136572760
C   1.4106236083 -0.5852960102 -0.4196017809
H   0.8522308269  0.3008109236  1.6842908975
H   1.4210646534 -0.9906896011 -1.4146274362
H   1.8714122680 -1.1517743090  0.3784891226
7
Iter 93 Image 2  Energy = -4187.9235277346
C   0.8892417782  0.6397288616 -0.1701922924
H   0.5025185760  1.3545274820 -0.8804782435
O   0.7406038345  1.0020375400  1.1341389885
C   1.4064290584 -0.5542171677 -0.4005426607
H   0.7741750014  0.1162490898  1.5147646419
H   1.3335743824 -1.0739700288 -1.3284265117
H   1.9546991061 -0.9939894514  0.4246746634
7
Iter 93 Image 3  Energy = -4186.7610446310
C   0.9168020685  0.7123440972 -0.1746139917
H   0.5170443179  1.4111319565 -0.8918349983
O   0.8495864931  1.0124185158  1.1362553515
C   1.2971142009 -0.5638267707 -0.2964632377
H   0.7569836092 -0.0432299748  1.2289148460
H   1.2409701176 -1.1640960840 -1.1609212003
H   2.0227411143 -0.8743761050  0.4526003072
7
Iter 93 Image 4  Energy = -4186.4166902176
C   0.9275279586  0.8224843892 -0.0971934647
H   0.4983215702  1.4228805421 -0.8933320081
O   0.9254582764  1.2552863634  1.0490310369
C   1.2147717854 -0.6000129360 -0.1297490899
H   0.7387671581 -0.3983893150  0.9835108221
H   1.2253569570 -1.1451725032 -1.0913281166
H   2.0710379552 -0.8667103716  0.4729987975
7
Iter 93 Image 5  Energy = -4188.2241682878
C   0.9053759460  0.8781089177 -0.0473697514
H   0.5643565496  1.4027033972 -0.9577339797
O   0.8557139507  1.4259205849  1.0240530465
C   1.2478769572 -0.5660989948 -0.0343491985
H   0.6870999352 -0.7408854889  0.8895849910
H   1.1126553203 -1.1366582602 -0.9512675444
H   2.2281631558 -0.7727240665  0.3710204391
7
Iter 93 Image 6  Energy = -4188.6725247374
C   0.8473937850  0.8856031160  0.0168359450
H   0.7175739069  1.3154037852 -0.9912009054
O   0.6876756383  1.5687020984  0.9913167554
C   1.2483226118 -0.5589627981  0.0544202938
H   0.7239754169 -1.0754465957  0.8531128759
H   1.0614196780 -1.0400203509 -0.9012678578
H   2.3148806850 -0.6049122261  0.2707218416
7
Iter 93 Image 7  Energy = -4188.6819040945
C   0.8097861601  0.8727500546 -0.0184677561
H   0.8308545411  1.3061991355 -1.0361432447
O   0.4517542122  1.5321711974  0.9204481794
C   1.2753297077 -0.5473043018  0.0862995907
H   0.8744301098 -1.0032843232  0.9847647249
H   0.9951478086 -1.1211164109 -0.7930079420
H   2.3639390253 -0.5490486169  0.1500452318
7
Iter 93 Image 8  Energy = -4188.6819968244
C   0.7840367852  0.8656586589 -0.0371164025
H   0.9809293880  1.3403901038 -1.0231241499
O   0.1875804579  1.4681235287  0.8223429327
C   1.3100769769 -0.5359012779  0.1153731248
H   1.0639489065 -0.9236344469  1.1059940899
H   0.8779311114 -1.1816924395 -0.6582837811
H   2.3967379442 -0.5425772870 -0.0312469938
7
Iter 94 Image 0  Energy = -4188.2527480593
C   0.8260657415  0.5508603911 -0.1261794589
H   0.4554445983  1.2417513435 -0.8784317668
O   0.5680753083  1.0246514429  1.1187434847
C   1.4411098584 -0.5873603774 -0.4363613732
H   0.9099091373  0.3932317500  1.7666320721
H   1.5916834696 -0.8592929697 -1.4741885892
H   1.8089534565 -1.2734747403  0.3237244514
7
Iter 94 Image 1  Energy = -4188.2097146979
C   0.8599768701  0.5872117956 -0.1473033149
H   0.4926086048  1.2684588302 -0.8990053692
O   0.6810900162  1.0522014044  1.1146521791
C   1.4170805639 -0.5822758578 -0.4210577788
H   0.8447718953  0.2948143915  1.6845309260
H   1.4299192691 -0.9837493132 -1.4172386633
H   1.8757943296 -1.1462946258  0.3793607853
7
Iter 94 Image 2  Energy = -4187.9209173045
C   0.8979254190  0.6368995087 -0.1752722728
H   0.5098327431  1.3596374919 -0.8794393772
O   0.7654338269  1.0146462390  1.1293435205
C   1.3940761673 -0.5587324383 -0.4022419739
H   0.7830868674  0.1303844557  1.5153530888
H   1.3148717417 -1.0938048432 -1.3244977988
H   1.9360150173 -0.9986641989  0.4306933491
7
Iter 94 Image 3  Energy = -4186.7534772328
C   0.9266098021  0.7092816371 -0.1715384590
H   0.5405846497  1.4294329961 -0.8814001577
O   0.8623117076  1.0172745278  1.1299108639
C   1.2855530855 -0.5667059267 -0.2996239639
H   0.7555567814 -0.0378346873  1.2254598998
H   1.2242229811 -1.1830579867 -1.1633072659
H   2.0064028516 -0.8780248846  0.4544358710
7
Iter 94 Image 4  Energy = -4186.4253202400
C   0.9325910636  0.8247885663 -0.0905709414
H   0.5341714429  1.4383940170 -0.8872725220
O   0.9291702477  1.2483419257  1.0559741528
C   1.1978820650 -0.6033777749 -0.1321332227
H   0.7381277511 -0.3968745118  0.9732154209
H   1.2093566394 -1.1564533204 -1.0946606946
H   2.0599424214 -0.8644528401  0.4693855059
7
Iter 94 Image 5  Energy = -4188.2519563457
C   0.9219301850  0.8855484643 -0.0396946528
H   0.5678258106  1.4103320484 -0.9449156403
O   0.9045192728  1.4328580318  1.0278112679
C   1.2400919258 -0.5701939080 -0.0390339860
H   0.6474834960 -0.7428205180  0.8623608432
H   1.1085273990 -1.1443006216 -0.9573535087
H   2.2108636077 -0.7810572621  0.3847632851
7
Iter 94 Image 6  Energy = -4188.6717535725
C   0.8512369704  0.8881751424  0.0192134873
H   0.7075852676  1.3092175410 -0.9911432581
O   0.6929039211  1.5737055491  0.9893918143
C   1.2526219805 -0.5575281510  0.0551408736
H   0.7182345304 -1.0707876068  0.8499813168
H   1.0599461538 -1.0333094432 -0.9019235274
H   2.3187128771 -0.6191059963  0.2732783719
7
Iter 94 Image 7  Energy = -4188.6818064025
C   0.8101709511  0.8725988225 -0.0183052563
H   0.8363412154  1.3057677166 -1.0354135253
O   0.4477492943  1.5341995328  0.9207363017
C   1.2744726125 -0.5474323003  0.0872296095
H   0.8768606647 -1.0065225291  0.9859058801
H   0.9921673027 -1.1193853455 -0.7929075800
H   2.3634794664 -0.5488591663  0.1466934518
7
Iter 94 Image 8  Energy = -4188.6819968244
C   0.7840367852  0.8656586589 -0.0371164025
H   0.9809293880  1.3403901038 -1.0231241499
O   0.1875804579  1.4681235287  0.8223429327
C   1.3100769769 -0.5359012779  0.1153731248
H   1.0639489065 -0.9236344469  1.1059940899
H   0.8779311114 -1.1816924395 -0.6582837811
H   2.3967379442 -0.5425772870 -0.0312469938
7
Iter 95 Image 0  Energy = -4188.2527480593
C   0.8260657415  0.5508603911 -0.1261794589
H   0.4554445983  1.2417513435 -0.8784317668
O   0.5680753083  1.0246514429  1.1187434847
C   1.4411098584 -0.5873603774 -0.4363613732
H   0.9099091373  0.3932317500  1.7666320721
H   1.5916834696 -0.8592929697 -1.4741885892
H   1.8089534565 -1.2734747403  0.3237244514
7
Iter 95 Image 1  Energy = -4188.2096859536
C   0.8569054293  0.5845598429 -0.1479748134
H   0.4788120043  1.2625413649 -0.8968849299
O   0.6756292585  1.0473192274  1.1139964360
C   1.4256865702 -0.5794631744 -0.4221687273
H   0.8345917190  0.2904405846  1.6855313573
H   1.4434385924 -0.9771736167 -1.4192859591
H   1.8861780403 -1.1378576934  0.3807253815
7
Iter 95 Image 2  Energy = -4187.9261097482
C   0.8994373118  0.6339688383 -0.1790936736
H   0.5183045782  1.3644510408 -0.8823547444
O   0.7857682578  1.0296510635  1.1246348454
C   1.3788787835 -0.5649243563 -0.4035943485
H   0.7953575716  0.1502075405  1.5209895998
H   1.3041259458 -1.1193664170 -1.3189462728
H   1.9193693577 -1.0036215421  0.4323030436
7
Iter 95 Image 3  Energy = -4186.7851589343
C   0.9309218549  0.7086514795 -0.1744515345
H   0.5654843089  1.4536925155 -0.8778214408
O   0.8557305500  1.0161701824  1.1278180163
C   1.2814438383 -0.5692859830 -0.3046426705
H   0.7588740452 -0.0386052496  1.2328616663
H   1.2104117091 -1.1998878173 -1.1692399537
H   1.9983754087 -0.8803691631  0.4594129722
7
Iter 95 Image 4  Energy = -4186.4172325826
C   0.9257016450  0.8286468341 -0.0856840509
H   0.5780262200  1.4674399195 -0.8972997028
O   0.9064271906  1.2327411708  1.0676020637
C   1.1877665713 -0.6068442716 -0.1381733223
H   0.7479080481 -0.4049600366  0.9902331251
H   1.1960104296 -1.1711598066 -1.1010826505
H   2.0594015187 -0.8554978409  0.4583420087
7
Iter 95 Image 5  Energy = -4188.3024902365
C   0.9307256135  0.8875298040 -0.0329139727
H   0.5821217997  1.4186477284 -0.9333280939
O   0.9318710867  1.4414616250  1.0357442668
C   1.2348814578 -0.5750499629 -0.0409782843
H   0.6112919109 -0.7558818314  0.8381428063
H   1.1055922562 -1.1491811054 -0.9663347185
H   2.2047574385 -0.7771598206  0.3936054282
7
Iter 95 Image 6  Energy = -4188.6707737765
C   0.8543137242  0.8916420162  0.0188576291
H   0.6894328974  1.3052937837 -0.9945822047
O   0.7051705368  1.5764013344  0.9910650980
C   1.2573237165 -0.5554335818  0.0549987411
H   0.7096035735 -1.0621536273  0.8462669360
H   1.0631791189 -1.0308271852 -0.9022503549
H   2.3222180891 -0.6345557153  0.2795833470
7
Iter 95 Image 7  Energy = -4188.6819382331
C   0.8102718629  0.8734663453 -0.0170353010
H   0.8403149905  1.3039821539 -1.0362152603
O   0.4439563681  1.5358218884  0.9201266223
C   1.2743040080 -0.5478714709  0.0886683697
H   0.8788570452 -1.0098117005  0.9877535127
H   0.9894257663 -1.1168761116 -0.7934397519
H   2.3641114296 -0.5483443719  0.1440807655
7
Iter 95 Image 8  Energy = -4188.6819968244
C   0.7840367852  0.8656586589 -0.0371164025
H   0.9809293880  1.3403901038 -1.0231241499
O   0.1875804579  1.4681235287  0.8223429327
C   1.3100769769 -0.5359012779  0.1153731248
H   1.0639489065 -0.9236344469  1.1059940899
H   0.8779311114 -1.1816924395 -0.6582837811
H   2.3967379442 -0.5425772870 -0.0312469938
7
Iter 96 Image 0  Energy = -4188.2527480593
C   0.8260657415  0.5508603911 -0.1261794589
H   0.4554445983  1.2417513435 -0.8784317668
O   0.5680753083  1.0246514429  1.1187434847
C   1.4411098584 -0.5873603774 -0.4363613732
H   0.9099091373  0.3932317500  1.7666320721
H   1.5916834696 -0.8592929697 -1.4741885892
H   1.8089534565 -1.2734747403  0.3237244514
7
Iter 96 Image 1  Energy = -4188.2098352334
C   0.8518280624  0.5788666850 -0.1494164829
H   0.4571004400  1.2542976017 -0.8935091973
O   0.6667493486  1.0414843449  1.1118098997
C   1.4376293225 -0.5754628060 -0.4234593237
H   0.8194108355  0.2865012537  1.6880230160
H   1.4644605751 -0.9695912782 -1.4219792472
H   1.9040631281 -1.1257293817  0.3824700811
7
Iter 96 Image 2  Energy = -4187.9453197143
C   0.8950392331  0.6352015015 -0.1841639847
H   0.5318636727  1.3704578937 -0.8887785934
O   0.8097742304  1.0510825446  1.1174035094
C   1.3571377427 -0.5792885629 -0.4058023919
H   0.8135604595  0.1806984703  1.5336011242
H   1.2951057443 -1.1565449067 -1.3086733271
H   1.8987607359 -1.0112408066  0.4303519274
7
Iter 96 Image 3  Energy = -4186.8590128890
C   0.9301174016  0.7157811552 -0.1772897518
H   0.6032762169  1.4892578349 -0.8811259928
O   0.8325201419  1.0043903872  1.1273377741
C   1.2833881394 -0.5777304708 -0.3164377014
H   0.7653417069 -0.0437922775  1.2521571272
H   1.1942533349 -1.2155656990 -1.1750466866
H   1.9923445209 -0.8819744176  0.4643430436
7
Iter 96 Image 4  Energy = -4186.3699025160
C   0.9076133075  0.8336139337 -0.0871598026
H   0.6466149261  1.5165333807 -0.9192059255
O   0.8543680377  1.2055420826  1.0849155785
C   1.1774888043 -0.6087122865 -0.1446598779
H   0.7717055362 -0.4250874737  1.0341335927
H   1.1786010562 -1.1915389600 -1.1097677052
H   2.0648499723 -0.8399848498  0.4356813373
7
Iter 96 Image 5  Energy = -4188.3686410061
C   0.9377716158  0.8916019684 -0.0157339568
H   0.6107208832  1.4310686302 -0.9216118363
O   0.9525880437  1.4486523234  1.0411824729
C   1.2286182177 -0.5824528693 -0.0410517504
H   0.5663317061 -0.7841562526  0.8084013529
H   1.1015869844 -1.1504281250 -0.9776196431
H   2.2036239240 -0.7639189691  0.4003707130
7
Iter 96 Image 6  Energy = -4188.6665827951
C   0.8576243248  0.8964813875  0.0160114086
H   0.6601145650  1.3022484064 -1.0004748444
O   0.7267671196  1.5778664713  0.9950112828
C   1.2634628607 -0.5522364297  0.0541285926
H   0.6965384505 -1.0480816334  0.8408015959
H   1.0710665565 -1.0309982525 -0.9018652629
H   2.3256677067 -0.6549129562  0.2903265613
7
Iter 96 Image 7  Energy = -4188.6815103611
C   0.8105767686  0.8743131845 -0.0156718702
H   0.8444704228  1.3005668483 -1.0378410832
O   0.4388282936  1.5379743187  0.9192667319
C   1.2746332536 -0.5483731056  0.0908616723
H   0.8812396016 -1.0138503526  0.9904291932
H   0.9859439920 -1.1126673862 -0.7942486905
H   2.3655491072 -0.5475967683  0.1411430816
7
Iter 96 Image 8  Energy = -4188.6819968244
C   0.7840367852  0.8656586589 -0.0371164025
H   0.9809293880  1.3403901038 -1.0231241499
O   0.1875804579  1.4681235287  0.8223429327
C   1.3100769769 -0.5359012779  0.1153731248
H   1.0639489065 -0.9236344469  1.1059940899
H   0.8779311114 -1.1816924395 -0.6582837811
H   2.3967379442 -0.5425772870 -0.0312469938
7
Iter 97 Image 0  Energy = -4188.2527480593
C   0.8260657415  0.5508603911 -0.1261794589
H   0.4554445983  1.2417513435 -0.8784317668
O   0.5680753083  1.0246514429  1.1187434847
C   1.4411098584 -0.5873603774 -0.4363613732
H   0.9099091373  0.3932317500  1.7666320721
H   1.5916834696 -0.8592929697 -1.4741885892
H   1.8089534565 -1.2734747403  0.3237244514
7
Iter 97 Image 1  Energy = -4188.2104653737
C   0.8485052528  0.5756254996 -0.1506952248
H   0.4466431462  1.2505857038 -0.8916296189
O   0.6621626979  1.0399221616  1.1105321605
C   1.4424957832 -0.5744669414 -0.4238033289
H   0.8125377447  0.2877082097  1.6900352285
H   1.4749271889 -0.9679896122 -1.4229413352
H   1.9139699508 -1.1210186425  0.3824408841
7
Iter 97 Image 2  Energy = -4187.9559451064
C   0.8886140400  0.6386700710 -0.1853802551
H   0.5396830705  1.3730718137 -0.8938660629
O   0.8157056321  1.0586811815  1.1128179763
C   1.3479751370 -0.5889566245 -0.4063021526
H   0.8219259455  0.1967631741  1.5433086552
H   1.2954390505 -1.1722001935 -1.3024707743
H   1.8918989257 -1.0156632619  0.4258307430
7
Iter 97 Image 3  Energy = -4186.9117583877
C   0.9244420573  0.7192452847 -0.1857508995
H   0.6253693510  1.5040970433 -0.8882346750
O   0.8096471949  0.9902704411  1.1352323056
C   1.2864299454 -0.5754886105 -0.3208058601
H   0.7705183182 -0.0511342160  1.2677308957
H   1.1904994288 -1.2149985857 -1.1763349430
H   1.9943350279 -0.8816245537  0.4621015763
7
Iter 97 Image 4  Energy = -4186.3185802048
C   0.8939887885  0.8360376182 -0.0883651088
H   0.6825350710  1.5431097765 -0.9320301575
O   0.8134453329  1.1886060870  1.0841862541
C   1.1766845516 -0.6092363454 -0.1476077171
H   0.7914422233 -0.4389654539  1.0681863044
H   1.1708092724 -1.1975918149 -1.1089962883
H   2.0723364310 -0.8315941071  0.4185638441
7
Iter 97 Image 5  Energy = -4188.4130960128
C   0.9363331483  0.8863695068 -0.0185828203
H   0.6315258046  1.4365097964 -0.9202385709
O   0.9470671243  1.4555805619  1.0530703906
C   1.2251422794 -0.5834575629 -0.0371989553
H   0.5530026841 -0.8074528349  0.7985747234
H   1.0991325790 -1.1440958936 -0.9794358288
H   2.2090376802 -0.7530867659  0.3977485130
7
Iter 97 Image 6  Energy = -4188.6638683996
C   0.8582985745  0.8976465585  0.0125426649
H   0.6450707197  1.3032376100 -1.0028495335
O   0.7395274271  1.5769221767  0.9974423992
C   1.2652674094 -0.5508999024  0.0533742449
H   0.6907124111 -1.0407590334  0.8381217592
H   1.0771115343 -1.0342289686 -0.9010373931
H   2.3252534665 -0.6615514693  0.2963452385
7
Iter 97 Image 7  Energy = -4188.6816862991
C   0.8098485550  0.8758012376 -0.0129724462
H   0.8451551895  1.2985168468 -1.0388339504
O   0.4376564075  1.5369557091  0.9164052321
C   1.2752748679 -0.5485111371  0.0918283099
H   0.8820461778 -1.0146989696  0.9914168857
H   0.9847825543 -1.1103396642 -0.7943366850
H   2.3664776906 -0.5473572790  0.1404317066
7
Iter 97 Image 8  Energy = -4188.6819968244
C   0.7840367852  0.8656586589 -0.0371164025
H   0.9809293880  1.3403901038 -1.0231241499
O   0.1875804579  1.4681235287  0.8223429327
C   1.3100769769 -0.5359012779  0.1153731248
H   1.0639489065 -0.9236344469  1.1059940899
H   0.8779311114 -1.1816924395 -0.6582837811
H   2.3967379442 -0.5425772870 -0.0312469938
7
Iter 98 Image 0  Energy = -4188.2527480593
C   0.8260657415  0.5508603911 -0.1261794589
H   0.4554445983  1.2417513435 -0.8784317668
O   0.5680753083  1.0246514429  1.1187434847
C   1.4411098584 -0.5873603774 -0.4363613732
H   0.9099091373  0.3932317500  1.7666320721
H   1.5916834696 -0.8592929697 -1.4741885892
H   1.8089534565 -1.2734747403  0.3237244514
7
Iter 98 Image 1  Energy = -4188.2118932030
C   0.8484314608  0.5755078735 -0.1508598681
H   0.4509657815  1.2527818133 -0.8920543208
O   0.6635091339  1.0434433393  1.1102674524
C   1.4384768713 -0.5763578160 -0.4232078272
H   0.8162897567  0.2931047062  1.6911046942
H   1.4712696384 -0.9726958722 -1.4219378583
H   1.9122991101 -1.1254176211  0.3806265166
7
Iter 98 Image 2  Energy = -4187.9575201294
C   0.8838668802  0.6408691409 -0.1833372301
H   0.5395983354  1.3718291335 -0.8957106389
O   0.8026278559  1.0514454008  1.1126920475
C   1.3532956382 -0.5885901988 -0.4047730280
H   0.8178060934  0.1925215027  1.5468404223
H   1.3036324489 -1.1617068609 -1.3028932554
H   1.9004145089 -1.0160018941  0.4211197669
7
Iter 98 Image 3  Energy = -4186.9349145314
C   0.9149198788  0.7232545285 -0.1893297762
H   0.6250869948  1.4938930775 -0.8959983482
O   0.7967803140  0.9782031335  1.1433969711
C   1.2911456003 -0.5717683957 -0.3207555518
H   0.7720905539 -0.0561846456  1.2742082205
H   1.1994346826 -1.1975330140 -1.1709029064
H   2.0017833274 -0.8794979550  0.4533199701
7
Iter 98 Image 4  Energy = -4186.3322537339
C   0.8906608830  0.8326559549 -0.0970538572
H   0.6750697717  1.5375969898 -0.9296468593
O   0.7984107063  1.1910837529  1.0732974344
C   1.1845635679 -0.6074568431 -0.1442442406
H   0.7997195226 -0.4416661384  1.0787472749
H   1.1740038712 -1.1879601836 -1.0998019643
H   2.0788133809 -0.8338877601  0.4126394900
7
Iter 98 Image 5  Energy = -4188.4278290591
C   0.9287792191  0.8830035918 -0.0220151292
H   0.6372337717  1.4337931143 -0.9300776852
O   0.9198690714  1.4515899201  1.0509251806
C   1.2255965283 -0.5790056035 -0.0322732004
H   0.5739681015 -0.8170763011  0.8112849113
H   1.0986530592 -1.1325917071 -0.9712089619
H   2.2171416063 -0.7493463118  0.3873025544
7
Iter 98 Image 6  Energy = -4188.6664837620
C   0.8563511552  0.8948201255  0.0100001455
H   0.6495524628  1.3075750985 -1.0007267068
O   0.7389250174  1.5742616814  0.9971824533
C   1.2621921852 -0.5518817528  0.0528754831
H   0.6939887511 -1.0428883921  0.8391943510
H   1.0789078748 -1.0389670622 -0.9000929110
H   2.3213241004 -0.6525527327  0.2955065018
7
Iter 98 Image 7  Energy = -4188.6815833768
C   0.8096623611  0.8752417597 -0.0131942604
H   0.8423461179  1.2985454209 -1.0384942521
O   0.4396077802  1.5352718211  0.9155922693
C   1.2759107450 -0.5480509945  0.0913247510
H   0.8810260999 -1.0122486428  0.9903588404
H   0.9861907058 -1.1106089744 -0.7937248163
H   2.3664976656 -0.5477836421  0.1420764728
7
Iter 98 Image 8  Energy = -4188.6819968244
C   0.7840367852  0.8656586589 -0.0371164025
H   0.9809293880  1.3403901038 -1.0231241499
O   0.1875804579  1.4681235287  0.8223429327
C   1.3100769769 -0.5359012779  0.1153731248
H   1.0639489065 -0.9236344469  1.1059940899
H   0.8779311114 -1.1816924395 -0.6582837811
H   2.3967379442 -0.5425772870 -0.0312469938
7
Iter 99 Image 0  Energy = -4188.2527480593
C   0.8260657415  0.5508603911 -0.1261794589
H   0.4554445983  1.2417513435 -0.8784317668
O   0.5680753083  1.0246514429  1.1187434847
C   1.4411098584 -0.5873603774 -0.4363613732
H   0.9099091373  0.3932317500  1.7666320721
H   1.5916834696 -0.8592929697 -1.4741885892
H   1.8089534565 -1.2734747403  0.3237244514
7
Iter 99 Image 1  Energy = -4188.2140070221
C   0.8471259192  0.5756335699 -0.1505959560
H   0.4569222901  1.2558771166 -0.8930434357
O   0.6648354631  1.0498584126  1.1083097201
C   1.4324488984 -0.5811023990 -0.4222808098
H   0.8224060640  0.3036709376  1.6937828964
H   1.4663246158 -0.9814566644 -1.4193568667
H   1.9111784889 -1.1321144738  0.3771232952
7
Iter 99 Image 2  Energy = -4187.9676277211
C   0.8765253947  0.6358347792 -0.1815416074
H   0.5411358656  1.3707422347 -0.9009144402
O   0.7753677388  1.0423404103  1.1149160328
C   1.3590294513 -0.5807488299 -0.4011435167
H   0.8123571581  0.1852133495  1.5551529164
H   1.3199845116 -1.1452677743 -1.3059653611
H   1.9168415513 -1.0177477935  0.4134339848
7
Iter 99 Image 3  Energy = -4186.9662000409
C   0.8993017417  0.7165222786 -0.1850508673
H   0.6259259200  1.4840697151 -0.9127877949
O   0.7636073463  0.9577911598  1.1501479296
C   1.2998934950 -0.5554012575 -0.3189358243
H   0.7782110176 -0.0675282155  1.2924544830
H   1.2156428181 -1.1696453080 -1.1695765413
H   2.0186590578 -0.8754417364  0.4376876374
7
Iter 99 Image 4  Energy = -4186.3172552756
C   0.8799080655  0.8236805833 -0.1099689996
H   0.6677526167  1.5349301647 -0.9340396909
O   0.7539098378  1.1924286962  1.0565579433
C   1.1987498200 -0.6042194183 -0.1368930877
H   0.8228862965 -0.4465151300  1.1060716436
H   1.1789548069 -1.1741775782 -1.0859310940
H   2.0990803250 -0.8357615159  0.3981408960
7
Iter 99 Image 5  Energy = -4188.4558895251
C   0.9106877245  0.8798490856 -0.0237219426
H   0.6558820422  1.4299568345 -0.9488888094
O   0.8585772138  1.4426412127  1.0442702123
C   1.2302607459 -0.5719316416 -0.0225127672
H   0.6148481824 -0.8407980349  0.8392091922
H   1.0965179926 -1.1118028941 -0.9585562448
H   2.2344675616 -0.7375480452  0.3641384928
7
Iter 99 Image 6  Energy = -4188.6688045731
C   0.8529095912  0.8918602855  0.0080481135
H   0.6537051723  1.3164008658 -0.9984005831
O   0.7418639967  1.5672951317  0.9951324101
C   1.2565287697 -0.5536695805  0.0502821312
H   0.6977360008 -1.0453214501  0.8414447537
H   1.0839123289 -1.0495510159 -0.8988727012
H   2.3145856818 -0.6366472894  0.2963050790
7
Iter 99 Image 7  Energy = -4188.6822390726
C   0.8103507309  0.8727923807 -0.0161689969
H   0.8367214109  1.2981212817 -1.0384076563
O   0.4420811177  1.5340720960  0.9167241121
C   1.2772887519 -0.5472049838  0.0906655722
H   0.8789755295 -1.0079364772  0.9888294879
H   0.9887710820 -1.1109354842 -0.7930411297
H   2.3670529199 -0.5485420559  0.1453375206
7
Iter 99 Image 8  Energy = -4188.6819968244
C   0.7840367852  0.8656586589 -0.0371164025
H   0.9809293880  1.3403901038 -1.0231241499
O   0.1875804579  1.4681235287  0.8223429327
C   1.3100769769 -0.5359012779  0.1153731248
H   1.0639489065 -0.9236344469  1.1059940899
H   0.8779311114 -1.1816924395 -0.6582837811
H   2.3967379442 -0.5425772870 -0.0312469938
7
Iter 100 Image 0  Energy = -4188.2527480593
C   0.8260657415  0.5508603911 -0.1261794589
H   0.4554445983  1.2417513435 -0.8784317668
O   0.5680753083  1.0246514429  1.1187434847
C   1.4411098584 -0.5873603774 -0.4363613732
H   0.9099091373  0.3932317500  1.7666320721
H   1.5916834696 -0.8592929697 -1.4741885892
H   1.8089534565 -1.2734747403  0.3237244514
7
Iter 100 Image 1  Energy = -4188.2149912438
C   0.8530142566  0.5799620372 -0.1485525427
H   0.4896464139  1.2685401772 -0.8990862178
O   0.6769919810  1.0646482950  1.1080555011
C   1.4099371989 -0.5896898826 -0.4189194811
H   0.8477884296  0.3224095314  1.6947705697
H   1.4353829664 -1.0010655218 -1.4129605669
H   1.8884803708 -1.1544379257  0.3706316323
7
Iter 100 Image 2  Energy = -4187.9623569420
C   0.8701885775  0.6369866929 -0.1731895851
H   0.5318234592  1.3594726544 -0.8973972742
O   0.7118170578  1.0069823518  1.1284722236
C   1.3953847958 -0.5643794199 -0.3989201880
H   0.7857163719  0.1421745869  1.5500391825
H   1.3481627807 -1.0795295006 -1.3233978752
H   1.9581484892 -1.0113407698  0.4083316644
7
Iter 100 Image 3  Energy = -4186.9522522113
C   0.8751181942  0.7153820800 -0.1676985170
H   0.5875188700  1.4309712689 -0.9168316101
O   0.7447496641  0.9552195470  1.1463484635
C   1.3176609215 -0.5499063338 -0.3100626572
H   0.7795553023 -0.0706644029  1.3004549748
H   1.2518836829 -1.1201484492 -1.1710041127
H   2.0447551437 -0.8704878759  0.4127320597
7
Iter 100 Image 4  Energy = -4186.3604971936
C   0.8843737773  0.8077971862 -0.1145912752
H   0.5877035924  1.4754168792 -0.9172631006
O   0.7452998423  1.2237631513  1.0171519045
C   1.2236621997 -0.6009383328 -0.1125351240
H   0.8314083720 -0.4187504722  1.0829218412
H   1.2013552834 -1.1404476880 -1.0654625829
H   2.1274387573 -0.8564747393  0.4037167364
7
Iter 100 Image 5  Energy = -4188.3939569017
C   0.8791208170  0.8771288710 -0.0425044578
H   0.6544112346  1.4114173756 -0.9842590314
O   0.7512677945  1.4258732371  1.0285416771
C   1.2455959305 -0.5587272287 -0.0075168724
H   0.7198062425 -0.8392538011  0.9109287630
H   1.0940714241 -1.0889570694 -0.9349310753
H   2.2569683755 -0.7371154528  0.3236797917
7
Iter 100 Image 6  Energy = -4188.6666097513
C   0.8463093106  0.8803328558  0.0044327550
H   0.6914092527  1.3306333980 -0.9886210419
O   0.7219450777  1.5609246527  0.9931590191
C   1.2423638737 -0.5598692559  0.0469464957
H   0.7152201609 -1.0644396582  0.8511952525
H   1.0806444692 -1.0635957932 -0.8995318232
H   2.3033494693 -0.5936192397  0.2863582445
7
Iter 100 Image 7  Energy = -4188.6797049364
C   0.8092175974  0.8721663628 -0.0170158488
H   0.8252553087  1.3017802393 -1.0375065032
O   0.4519894862  1.5278563252  0.9160245563
C   1.2787302576 -0.5460637385  0.0870096935
H   0.8735863023 -0.9981653187  0.9845444834
H   0.9958102635 -1.1166786165 -0.7917506978
H   2.3666524459 -0.5505284846  0.1526330176
7
Iter 100 Image 8  Energy = -4188.6819968244
C   0.7840367852  0.8656586589 -0.0371164025
H   0.9809293880  1.3403901038 -1.0231241499
O   0.1875804579  1.4681235287  0.8223429327
C   1.3100769769 -0.5359012779  0.1153731248
H   1.0639489065 -0.9236344469  1.1059940899
H   0.8779311114 -1.1816924395 -0.6582837811
H   2.3967379442 -0.5425772870 -0.0312469938
7
Iter 101 Image 0  Energy = -4188.2527480593
C   0.8260657415  0.5508603911 -0.1261794589
H   0.4554445983  1.2417513435 -0.8784317668
O   0.5680753083  1.0246514429  1.1187434847
C   1.4411098584 -0.5873603774 -0.4363613732
H   0.9099091373  0.3932317500  1.7666320721
H   1.5916834696 -0.8592929697 -1.4741885892
H   1.8089534565 -1.2734747403  0.3237244514
7
Iter 101 Image 1  Energy = -4188.2156617662
C   0.8514684030  0.5793281394 -0.1495749547
H   0.4787275442  1.2621589393 -0.8972573735
O   0.6728779008  1.0582217474  1.1086318771
C   1.4187138280 -0.5864348472 -0.4202542954
H   0.8387003088  0.3149984830  1.6945366542
H   1.4458476196 -0.9918308655 -1.4156044934
H   1.8949060605 -1.1460749822  0.3734614282
7
Iter 101 Image 2  Energy = -4187.9672354183
C   0.8767982346  0.6358472603 -0.1730394998
H   0.5373264090  1.3631660538 -0.8965509127
O   0.7369035443  1.0194968457  1.1225713341
C   1.3830158765 -0.5702526713 -0.4001203427
H   0.7964062349  0.1578031522  1.5484924719
H   1.3324304441 -1.1026105789 -1.3208007540
H   1.9383608460 -1.0130835774  0.4133858556
7
Iter 101 Image 3  Energy = -4186.9874806127
C   0.8892816406  0.7092115661 -0.1768114539
H   0.6038909535  1.4533439110 -0.9031925686
O   0.7522858641  0.9687009867  1.1460395342
C   1.3054884038 -0.5553421838 -0.3127737757
H   0.7802915954 -0.0613594903  1.2963167034
H   1.2342100967 -1.1477775110 -1.1800244401
H   2.0357931357 -0.8764112624  0.4243844670
7
Iter 101 Image 4  Energy = -4186.3800330779
C   0.8831408419  0.8164831185 -0.1122357724
H   0.6223767253  1.4933891898 -0.9228384711
O   0.7461545664  1.2162398051  1.0428934290
C   1.2105203970 -0.6069545694 -0.1153685194
H   0.8296967638 -0.4200190410  1.0776541863
H   1.1893690313 -1.1589915270 -1.0781556111
H   2.1199834596 -0.8497810661  0.4019888733
7
Iter 101 Image 5  Energy = -4188.4275206944
C   0.8944891625  0.8805231770 -0.0288231689
H   0.6563406358  1.4198643509 -0.9682975277
O   0.7936940661  1.4358284368  1.0305532101
C   1.2377151148 -0.5658485608 -0.0115621558
H   0.6795640440 -0.8346472350  0.8804156608
H   1.0909694756 -1.1052566356 -0.9466554774
H   2.2484691903 -0.7400973987  0.3383079124
7
Iter 101 Image 6  Energy = -4188.6706151238
C   0.8491704901  0.8874058130  0.0088637635
H   0.6778863923  1.3231800440 -0.9922543295
O   0.7288225824  1.5642880114  0.9921720121
C   1.2488341296 -0.5585894684  0.0488778892
H   0.7077931572 -1.0578927437  0.8472683930
H   1.0799026318 -1.0570083548 -0.9008550964
H   2.3088322050 -0.6110163445  0.2898663984
7
Iter 101 Image 7  Energy = -4188.6817895642
C   0.8105443972  0.8713673729 -0.0192130668
H   0.8305258714  1.3008674292 -1.0378873151
O   0.4468505774  1.5324313409  0.9193635537
C   1.2778741511 -0.5466669651  0.0884176408
H   0.8758152928 -1.0026143905  0.9865800554
H   0.9927895316 -1.1151333593 -0.7927160716
H   2.3668417854 -0.5498846618  0.1493939971
7
Iter 101 Image 8  Energy = -4188.6819968244
C   0.7840367852  0.8656586589 -0.0371164025
H   0.9809293880  1.3403901038 -1.0231241499
O   0.1875804579  1.4681235287  0.8223429327
C   1.3100769769 -0.5359012779  0.1153731248
H   1.0639489065 -0.9236344469  1.1059940899
H   0.8779311114 -1.1816924395 -0.6582837811
H   2.3967379442 -0.5425772870 -0.0312469938
7
Iter 102 Image 0  Energy = -4188.2527480593
C   0.8260657415  0.5508603911 -0.1261794589
H   0.4554445983  1.2417513435 -0.8784317668
O   0.5680753083  1.0246514429  1.1187434847
C   1.4411098584 -0.5873603774 -0.4363613732
H   0.9099091373  0.3932317500  1.7666320721
H   1.5916834696 -0.8592929697 -1.4741885892
H   1.8089534565 -1.2734747403  0.3237244514
7
Iter 102 Image 1  Energy = -4188.2158048621
C   0.8516220706  0.5785836825 -0.1491534868
H   0.4750245433  1.2599180613 -0.8972034594
O   0.6714466175  1.0561039682  1.1082078030
C   1.4218301687 -0.5849891393 -0.4207976360
H   0.8356639351  0.3117325331  1.6946613761
H   1.4490394978 -0.9879469822 -1.4166668372
H   1.8966148491 -1.1430355494  0.3748910537
7
Iter 102 Image 2  Energy = -4187.9682072124
C   0.8812334853  0.6321167219 -0.1750431664
H   0.5403216136  1.3643595253 -0.8951536209
O   0.7454560868  1.0260939289  1.1222178001
C   1.3773102922 -0.5692606358 -0.4009401512
H   0.8006063965  0.1618784496  1.5475612560
H   1.3255780131 -1.1106039277 -1.3213190910
H   1.9307357253 -1.0142176297  0.4166151383
7
Iter 102 Image 3  Energy = -4186.9949565253
C   0.8945184013  0.7079619691 -0.1740987733
H   0.6092788843  1.4640056223 -0.8973188422
O   0.7553512439  0.9753453529  1.1406349692
C   1.3020142114 -0.5639864451 -0.3147614918
H   0.7813019140 -0.0540132570  1.2941399539
H   1.2264567247 -1.1592555583 -1.1832221325
H   2.0323202936 -0.8796916312  0.4285646672
7
Iter 102 Image 4  Energy = -4186.3838332242
C   0.8822350133  0.8196412067 -0.1014250966
H   0.6360845353  1.5005617858 -0.9271712040
O   0.7449711154  1.2122051255  1.0485029825
C   1.2050471361 -0.6088890811 -0.1184071056
H   0.8293924698 -0.4181495421  1.0740648291
H   1.1841540521 -1.1674161515 -1.0828457855
H   2.1193574484 -0.8475874667  0.4012193933
7
Iter 102 Image 5  Energy = -4188.4371858409
C   0.9005399484  0.8817160185 -0.0266485107
H   0.6587043314  1.4226098802 -0.9611121207
O   0.8071508507  1.4426416282  1.0344250648
C   1.2369332818 -0.5700660590 -0.0164106109
H   0.6636372507 -0.8319530034  0.8713235782
H   1.0883490333 -1.1130882945 -0.9503361246
H   2.2459269479 -0.7414939681  0.3426970308
7
Iter 102 Image 6  Energy = -4188.6711141339
C   0.8508745889  0.8882528698  0.0087630825
H   0.6729637853  1.3200486958 -0.9940643927
O   0.7309787225  1.5675176833  0.9943284282
C   1.2510420425 -0.5576224271  0.0491741123
H   0.7046278445 -1.0556750781  0.8459749714
H   1.0791831389 -1.0542233801 -0.9014705466
H   2.3115714555 -0.6179314071  0.2912334244
7
Iter 102 Image 7  Energy = -4188.6820980629
C   0.8098316067  0.8733703016 -0.0165668677
H   0.8327226752  1.3007680693 -1.0384461361
O   0.4458501300  1.5322252249  0.9177476847
C   1.2775109202 -0.5471272136  0.0887957213
H   0.8767094124 -1.0043742623  0.9875226385
H   0.9916177684 -1.1148186480 -0.7931530445
H   2.3669990713 -0.5496767066  0.1480388336
7
Iter 102 Image 8  Energy = -4188.6819968244
C   0.7840367852  0.8656586589 -0.0371164025
H   0.9809293880  1.3403901038 -1.0231241499
O   0.1875804579  1.4681235287  0.8223429327
C   1.3100769769 -0.5359012779  0.1153731248
H   1.0639489065 -0.9236344469  1.1059940899
H   0.8779311114 -1.1816924395 -0.6582837811
H   2.3967379442 -0.5425772870 -0.0312469938
7
Iter 103 Image 0  Energy = -4188.2527480593
C   0.8260657415  0.5508603911 -0.1261794589
H   0.4554445983  1.2417513435 -0.8784317668
O   0.5680753083  1.0246514429  1.1187434847
C   1.4411098584 -0.5873603774 -0.4363613732
H   0.9099091373  0.3932317500  1.7666320721
H   1.5916834696 -0.8592929697 -1.4741885892
H   1.8089534565 -1.2734747403  0.3237244514
7
Iter 103 Image 1  Energy = -4188.2161232701
C   0.8525261429  0.5789300850 -0.1489099215
H   0.4777159331  1.2603320644 -0.8980257585
O   0.6724038563  1.0568904707  1.1080569348
C   1.4205424094 -0.5857621095 -0.4205150422
H   0.8375798155  0.3129846896  1.6948369002
H   1.4461990785 -0.9884222972 -1.4164587495
H   1.8942744398 -1.1445863180  0.3749544384
7
Iter 103 Image 2  Energy = -4187.9691639265
C   0.8808546343  0.6342256654 -0.1741873819
H   0.5415387108  1.3630515732 -0.8935363596
O   0.7407858629  1.0241252762  1.1240016693
C   1.3808179529 -0.5704283772 -0.4019586383
H   0.7992732638  0.1585028349  1.5464408752
H   1.3260389224 -1.1051388336 -1.3238143782
H   1.9319322594 -1.0139717102  0.4169924030
7
Iter 103 Image 3  Energy = -4186.9980397245
C   0.8943759975  0.7053818433 -0.1718583401
H   0.6071289039  1.4631865546 -0.8952720393
O   0.7526105190  0.9787500623  1.1375338057
C   1.3017848209 -0.5661810116 -0.3128865870
H   0.7829670404 -0.0496253151  1.2944257400
H   1.2268143272 -1.1593459955 -1.1852659435
H   2.0355601097 -0.8818001744  0.4272616168
7
Iter 103 Image 4  Energy = -4186.3885643429
C   0.8811553510  0.8188480940 -0.1005251440
H   0.6339474277  1.4965492713 -0.9282283037
O   0.7393663288  1.2158378362  1.0505572194
C   1.2071792120 -0.6092641435 -0.1171814084
H   0.8313364598 -0.4146420337  1.0713873511
H   1.1840567403 -1.1678472681 -1.0822493224
H   2.1242002543 -0.8491158846  0.4001776742
7
Iter 103 Image 5  Energy = -4188.4360293320
C   0.8986510424  0.8820315746 -0.0267994432
H   0.6617648243  1.4215798524 -0.9623670196
O   0.7964200696  1.4439977686  1.0336227233
C   1.2391894853 -0.5703704470 -0.0167714605
H   0.6702287314 -0.8302853292  0.8771992229
H   1.0855762224 -1.1149655475 -0.9490410087
H   2.2494112957 -0.7416217209  0.3380953162
7
Iter 103 Image 6  Energy = -4188.6712561122
C   0.8505810872  0.8886163170  0.0103101458
H   0.6752374617  1.3203693711 -0.9942775068
O   0.7300046891  1.5669974541  0.9936650412
C   1.2502458018 -0.5579506929  0.0488038781
H   0.7051403017 -1.0570185151  0.8465013626
H   1.0784755530 -1.0548622613 -0.9017701501
H   2.3115566847 -0.6157847170  0.2907062914
7
Iter 103 Image 7  Energy = -4188.6821834019
C   0.8102825794  0.8727798621 -0.0178009996
H   0.8321972233  1.3011601490 -1.0384914877
O   0.4458641685  1.5328856699  0.9191196531
C   1.2774907775 -0.5471147509  0.0886133882
H   0.8763781880 -1.0040658847  0.9874498399
H   0.9919767353 -1.1154130893 -0.7933276519
H   2.3670519187 -0.5498651880  0.1483760769
7
Iter 103 Image 8  Energy = -4188.6819968244
C   0.7840367852  0.8656586589 -0.0371164025
H   0.9809293880  1.3403901038 -1.0231241499
O   0.1875804579  1.4681235287  0.8223429327
C   1.3100769769 -0.5359012779  0.1153731248
H   1.0639489065 -0.9236344469  1.1059940899
H   0.8779311114 -1.1816924395 -0.6582837811
H   2.3967379442 -0.5425772870 -0.0312469938
7
Iter 104 Image 0  Energy = -4188.2527480593
C   0.8260657415  0.5508603911 -0.1261794589
H   0.4554445983  1.2417513435 -0.8784317668
O   0.5680753083  1.0246514429  1.1187434847
C   1.4411098584 -0.5873603774 -0.4363613732
H   0.9099091373  0.3932317500  1.7666320721
H   1.5916834696 -0.8592929697 -1.4741885892
H   1.8089534565 -1.2734747403  0.3237244514
7
Iter 104 Image 1  Energy = -4188.2167885026
C   0.8542326054  0.5796942770 -0.1488078605
H   0.4837681052  1.2615343108 -0.8995264032
O   0.6745105138  1.0589507348  1.1078486782
C   1.4173925486 -0.5876627831 -0.4198094061
H   0.8419225446  0.3163944388  1.6952292764
H   1.4399362140 -0.9901315369 -1.4159347344
H   1.8894791260 -1.1484128305  0.3749392341
7
Iter 104 Image 2  Energy = -4187.9690771571
C   0.8808191137  0.6342514680 -0.1711537770
H   0.5432668687  1.3616920016 -0.8918051791
O   0.7293653880  1.0188310683  1.1271788451
C   1.3866149607 -0.5683253724 -0.4022491511
H   0.7959111367  0.1514001674  1.5446923074
H   1.3288915211 -1.0935913122 -1.3293537942
H   1.9363726018 -1.0138915953  0.4166289766
7
Iter 104 Image 3  Energy = -4187.0043416938
C   0.8918792276  0.7022486574 -0.1716547491
H   0.6026700116  1.4585996566 -0.8933348626
O   0.7448312941  0.9836208730  1.1349103560
C   1.3026050868 -0.5691564045 -0.3091390052
H   0.7865450457 -0.0429883659  1.2965099798
H   1.2290565024 -1.1563420318 -1.1868232602
H   2.0436546360 -0.8856165895  0.4234696663
7
Iter 104 Image 4  Energy = -4186.3950283027
C   0.8778167591  0.8178471405 -0.0992251385
H   0.6279443010  1.4880497538 -0.9302157805
O   0.7261134324  1.2218400540  1.0505417357
C   1.2138955845 -0.6088563745 -0.1142745984
H   0.8361989540 -0.4092286311  1.0698786166
H   1.1848963493 -1.1669922274 -1.0797021280
H   2.1343764075 -0.8522938530  0.3969354899
7
Iter 104 Image 5  Energy = -4188.4340234718
C   0.8930920983  0.8821541678 -0.0264081607
H   0.6688389936  1.4190959968 -0.9668893470
O   0.7699151617  1.4445410480  1.0303919374
C   1.2433517814 -0.5696083677 -0.0148895742
H   0.6875954816 -0.8278788954  0.8902014234
H   1.0801161254 -1.1170273126 -0.9454454503
H   2.2583320920 -0.7409106007  0.3269775911
7
Iter 104 Image 6  Energy = -4188.6712435803
C   0.8496900713  0.8879984034  0.0106977071
H   0.6804383951  1.3216497473 -0.9942364946
O   0.7278620517  1.5663773541  0.9941460947
C   1.2483545174 -0.5586916072  0.0484196725
H   0.7067660030 -1.0599037711  0.8475575197
H   1.0774748907 -1.0568855584 -0.9020803324
H   2.3106556548 -0.6101776186  0.2894348461
7
Iter 104 Image 7  Energy = -4188.6821161976
C   0.8103351313  0.8728959483 -0.0181452046
H   0.8306769980  1.3019317273 -1.0386710118
O   0.4469338341  1.5325492833  0.9196866388
C   1.2776106371 -0.5471341443  0.0881143889
H   0.8755747547 -1.0030014896  0.9871437007
H   0.9929509794 -1.1166019721 -0.7934967307
H   2.3671592756 -0.5502725790  0.1493070073
7
Iter 104 Image 8  Energy = -4188.6819968244
C   0.7840367852  0.8656586589 -0.0371164025
H   0.9809293880  1.3403901038 -1.0231241499
O   0.1875804579  1.4681235287  0.8223429327
C   1.3100769769 -0.5359012779  0.1153731248
H   1.0639489065 -0.9236344469  1.1059940899
H   0.8779311114 -1.1816924395 -0.6582837811
H   2.3967379442 -0.5425772870 -0.0312469938
7
Iter 105 Image 0  Energy = -4188.2527480593
C   0.8260657415  0.5508603911 -0.1261794589
H   0.4554445983  1.2417513435 -0.8784317668
O   0.5680753083  1.0246514429  1.1187434847
C   1.4411098584 -0.5873603774 -0.4363613732
H   0.9099091373  0.3932317500  1.7666320721
H   1.5916834696 -0.8592929697 -1.4741885892
H   1.8089534565 -1.2734747403  0.3237244514
7
Iter 105 Image 1  Energy = -4188.2176840922
C   0.8580807557  0.5801041496 -0.1487973838
H   0.4936331742  1.2634151217 -0.9015153895
O   0.6777356834  1.0618980451  1.1070072326
C   1.4128560900 -0.5894220240 -0.4188318527
H   0.8482970772  0.3198402180  1.6956428798
H   1.4293898657 -0.9906650165 -1.4162311511
H   1.8812489876 -1.1548038419  0.3766644155
7
Iter 105 Image 2  Energy = -4187.9662290981
C   0.8797573851  0.6370534129 -0.1650105932
H   0.5463170355  1.3613358851 -0.8884122632
O   0.7153513128  1.0090689036  1.1297744321
C   1.3933736301 -0.5667297296 -0.4019892619
H   0.7912003740  0.1426500530  1.5419223065
H   1.3332367633 -1.0773697352 -1.3358773053
H   1.9420051091 -1.0156424707  0.4135309293
7
Iter 105 Image 3  Energy = -4187.0096102452
C   0.8876608829  0.7002846348 -0.1758663045
H   0.5951135992  1.4495099802 -0.8971553011
O   0.7354264437  0.9929881048  1.1322897886
C   1.3058649466 -0.5719393046 -0.3040085084
H   0.7915583492 -0.0315004674  1.3004700021
H   1.2287364072 -1.1561710141 -1.1800141652
H   2.0568812856 -0.8928062922  0.4182225292
7
Iter 105 Image 4  Energy = -4186.4022986761
C   0.8710739329  0.8221762201 -0.0932183758
H   0.6184371549  1.4759308042 -0.9339262986
O   0.7082720219  1.2240998535  1.0436588275
C   1.2271157167 -0.6035205524 -0.1092028146
H   0.8408700279 -0.4045094997  1.0720250539
H   1.1869976163 -1.1669356736 -1.0764554207
H   2.1484753659 -0.8568753717  0.3910573252
7
Iter 105 Image 5  Energy = -4188.4255591056
C   0.8856236162  0.8784872450 -0.0309749526
H   0.6811939112  1.4148545426 -0.9717768411
O   0.7266281354  1.4460055530  1.0294731282
C   1.2488950518 -0.5683167374 -0.0068687247
H   0.7141844694 -0.8163060654  0.9033737089
H   1.0696444213 -1.1243020754 -0.9368271761
H   2.2750722074 -0.7400566308  0.3075393823
7
Iter 105 Image 6  Energy = -4188.6691731831
C   0.8475943950  0.8906378315  0.0136547435
H   0.6885166318  1.3215882793 -0.9948819590
O   0.7241153260  1.5637833755  0.9927287805
C   1.2472218582 -0.5595580449  0.0496007023
H   0.7092322703 -1.0641830107  0.8478235266
H   1.0752435879 -1.0577106735 -0.9012260559
H   2.3093175201 -0.6041908098  0.2862392202
7
Iter 105 Image 7  Energy = -4188.6801215431
C   0.8113148022  0.8716503336 -0.0209812644
H   0.8289212874  1.3030740649 -1.0384087660
O   0.4476267457  1.5337923910  0.9224206126
C   1.2775814018 -0.5471328992  0.0876101963
H   0.8745979334 -1.0021234018  0.9866686781
H   0.9942355119 -1.1181033501 -0.7936990511
H   2.3669639557 -0.5507903446  0.1503283342
7
Iter 105 Image 8  Energy = -4188.6819968244
C   0.7840367852  0.8656586589 -0.0371164025
H   0.9809293880  1.3403901038 -1.0231241499
O   0.1875804579  1.4681235287  0.8223429327
C   1.3100769769 -0.5359012779  0.1153731248
H   1.0639489065 -0.9236344469  1.1059940899
H   0.8779311114 -1.1816924395 -0.6582837811
H   2.3967379442 -0.5425772870 -0.0312469938
7
Iter 106 Image 0  Energy = -4188.2527480593
C   0.8260657415  0.5508603911 -0.1261794589
H   0.4554445983  1.2417513435 -0.8784317668
O   0.5680753083  1.0246514429  1.1187434847
C   1.4411098584 -0.5873603774 -0.4363613732
H   0.9099091373  0.3932317500  1.7666320721
H   1.5916834696 -0.8592929697 -1.4741885892
H   1.8089534565 -1.2734747403  0.3237244514
7
Iter 106 Image 1  Energy = -4188.2176971605
C   0.8574508032  0.5806282967 -0.1486862625
H   0.4931783182  1.2635956325 -0.9013132721
O   0.6776741435  1.0616924219  1.1072233206
C   1.4131536110 -0.5900056035 -0.4188693730
H   0.8480255417  0.3200999315  1.6954692610
H   1.4300292206 -0.9911063996 -1.4159931081
H   1.8817299951 -1.1545376271  0.3761081905
7
Iter 106 Image 2  Energy = -4187.9681187293
C   0.8801722575  0.6347103695 -0.1665547368
H   0.5454016273  1.3615134933 -0.8891679324
O   0.7153462905  1.0104228360  1.1302246368
C   1.3923726653 -0.5647596587 -0.4016803849
H   0.7911605507  0.1423395124  1.5427253201
H   1.3338602866 -1.0782382870 -1.3351738482
H   1.9429279279 -1.0156219276  0.4135651854
7
Iter 106 Image 3  Energy = -4187.0089842922
C   0.8872062124  0.7009310200 -0.1737582788
H   0.5947623528  1.4490911108 -0.8984138618
O   0.7361697712  0.9901987068  1.1319202721
C   1.3067217954 -0.5703530783 -0.3039000778
H   0.7907257363 -0.0337013154  1.3004569784
H   1.2299387496 -1.1546123257 -1.1803198227
H   2.0557172853 -0.8911884659  0.4179528635
7
Iter 106 Image 4  Energy = -4186.4043285868
C   0.8726113348  0.8196019800 -0.0975332010
H   0.6169410066  1.4766426851 -0.9333500237
O   0.7100328781  1.2257720461  1.0457680119
C   1.2261021976 -0.6039230158 -0.1102091512
H   0.8403315002 -0.4057951906  1.0726413824
H   1.1877546705 -1.1652185955 -1.0754293867
H   2.1474682461 -0.8567141149  0.3920506667
7
Iter 106 Image 5  Energy = -4188.4295035175
C   0.8849903892  0.8805101196 -0.0277445257
H   0.6795371409  1.4148762924 -0.9726391438
O   0.7293404480  1.4431999396  1.0261543681
C   1.2496855453 -0.5680678623 -0.0092924167
H   0.7129359021 -0.8183764401  0.9048729398
H   1.0712543631 -1.1219893415 -0.9362201047
H   2.2734980238 -0.7397868637  0.3088074177
7
Iter 106 Image 6  Energy = -4188.6713423899
C   0.8480687382  0.8878760224  0.0106472708
H   0.6883825700  1.3220851673 -0.9945477620
O   0.7237635869  1.5655274531  0.9952295383
C   1.2467104563 -0.5591473544  0.0492252076
H   0.7093942523 -1.0642228029  0.8481025832
H   1.0755917393 -1.0579020717 -0.9011172070
H   2.3093302470 -0.6038494664  0.2863993243
7
Iter 106 Image 7  Energy = -4188.6820780805
C   0.8102807128  0.8732179664 -0.0182550719
H   0.8288748173  1.3030266137 -1.0386151383
O   0.4485088983  1.5319660354  0.9198300464
C   1.2776662007 -0.5471846073  0.0875159177
H   0.8746444767 -1.0018827505  0.9866456142
H   0.9942523013 -1.1180345408 -0.7935306769
H   2.3670142307 -0.5507419264  0.1503480479
7
Iter 106 Image 8  Energy = -4188.6819968244
C   0.7840367852  0.8656586589 -0.0371164025
H   0.9809293880  1.3403901038 -1.0231241499
O   0.1875804579  1.4681235287  0.8223429327
C   1.3100769769 -0.5359012779  0.1153731248
H   1.0639489065 -0.9236344469  1.1059940899
H   0.8779311114 -1.1816924395 -0.6582837811
H   2.3967379442 -0.5425772870 -0.0312469938
7
Iter 107 Image 0  Energy = -4188.2527480593
C   0.8260657415  0.5508603911 -0.1261794589
H   0.4554445983  1.2417513435 -0.8784317668
O   0.5680753083  1.0246514429  1.1187434847
C   1.4411098584 -0.5873603774 -0.4363613732
H   0.9099091373  0.3932317500  1.7666320721
H   1.5916834696 -0.8592929697 -1.4741885892
H   1.8089534565 -1.2734747403  0.3237244514
7
Iter 107 Image 1  Energy = -4188.2176330707
C   0.8573680905  0.5806154167 -0.1487070654
H   0.4926165771  1.2635626685 -0.9010080213
O   0.6774769037  1.0612370542  1.1073216475
C   1.4137046502 -0.5898211274 -0.4189420553
H   0.8473872572  0.3194623499  1.6952505453
H   1.4306431203 -0.9904838077 -1.4162372638
H   1.8820450363 -1.1542059068  0.3762609685
7
Iter 107 Image 2  Energy = -4187.9682737163
C   0.8802490262  0.6341020376 -0.1672349593
H   0.5449627253  1.3622270613 -0.8895297481
O   0.7174094854  1.0114251888  1.1297152099
C   1.3907655317 -0.5643783676 -0.4013428263
H   0.7916468555  0.1433928020  1.5431996887
H   1.3336918705 -1.0802583585 -1.3338509667
H   1.9425161225 -1.0161440472  0.4129818284
7
Iter 107 Image 3  Energy = -4187.0072377420
C   0.8874143823  0.7019596937 -0.1741813518
H   0.5947725967  1.4488222326 -0.9006594775
O   0.7377784085  0.9894295819  1.1322875651
C   1.3074682610 -0.5687432399 -0.3041639294
H   0.7898867965 -0.0349122257  1.3004762585
H   1.2291442012 -1.1557637776 -1.1783266671
H   2.0547772384 -0.8904265693  0.4185057247
7
Iter 107 Image 4  Energy = -4186.4039541578
C   0.8733724549  0.8196628554 -0.0986152217
H   0.6166430380  1.4782099312 -0.9335089958
O   0.7126046145  1.2245707632  1.0456750015
C   1.2255175226 -0.6033668835 -0.1109321456
H   0.8389717364 -0.4076435228  1.0738850276
H   1.1882301266 -1.1648602834 -1.0752809128
H   2.1459023439 -0.8562070761  0.3927155051
7
Iter 107 Image 5  Energy = -4188.4290965220
C   0.8856572973  0.8804195437 -0.0277137152
H   0.6785885872  1.4150742247 -0.9720589147
O   0.7321518318  1.4421117576  1.0260499848
C   1.2498464595 -0.5678972793 -0.0097901082
H   0.7104009145 -0.8174377720  0.9031029042
H   1.0718175351 -1.1220862717 -0.9353605537
H   2.2727791780 -0.7398183496  0.3097089221
7
Iter 107 Image 6  Energy = -4188.6714675298
C   0.8482144228  0.8878812870  0.0106170932
H   0.6878327791  1.3216242091 -0.9947189083
O   0.7236745185  1.5657216001  0.9952212722
C   1.2470488389 -0.5587628883  0.0494497960
H   0.7092425267 -1.0639502935  0.8478171703
H   1.0755996366 -1.0571142616 -0.9007217742
H   2.3096288669 -0.6050327051  0.2862743133
7
Iter 107 Image 7  Energy = -4188.6820950827
C   0.8101986104  0.8732958346 -0.0179882619
H   0.8291787008  1.3029232449 -1.0385354199
O   0.4484265099  1.5319211908  0.9194965168
C   1.2776095294 -0.5471815229  0.0876123900
H   0.8747992801 -1.0021348159  0.9866667005
H   0.9940919437 -1.1178031500 -0.7934671921
H   2.3669370616 -0.5506539890  0.1501540064
7
Iter 107 Image 8  Energy = -4188.6819968244
C   0.7840367852  0.8656586589 -0.0371164025
H   0.9809293880  1.3403901038 -1.0231241499
O   0.1875804579  1.4681235287  0.8223429327
C   1.3100769769 -0.5359012779  0.1153731248
H   1.0639489065 -0.9236344469  1.1059940899
H   0.8779311114 -1.1816924395 -0.6582837811
H   2.3967379442 -0.5425772870 -0.0312469938
7
Iter 108 Image 0  Energy = -4188.2527480593
C   0.8260657415  0.5508603911 -0.1261794589
H   0.4554445983  1.2417513435 -0.8784317668
O   0.5680753083  1.0246514429  1.1187434847
C   1.4411098584 -0.5873603774 -0.4363613732
H   0.9099091373  0.3932317500  1.7666320721
H   1.5916834696 -0.8592929697 -1.4741885892
H   1.8089534565 -1.2734747403  0.3237244514
7
Iter 108 Image 1  Energy = -4188.2176640949
C   0.8582275985  0.5807706239 -0.1486046766
H   0.4937393205  1.2640543686 -0.9007269313
O   0.6778120796  1.0606494999  1.1074650092
C   1.4141074485 -0.5898058586 -0.4189237973
H   0.8471718545  0.3183380528  1.6947417708
H   1.4296608931 -0.9886664792 -1.4169325048
H   1.8805224423 -1.1549735721  0.3769198582
7
Iter 108 Image 2  Energy = -4187.9677249959
C   0.8796372240  0.6347187725 -0.1679032901
H   0.5446915560  1.3636755436 -0.8895805028
O   0.7198818878  1.0124639647  1.1295906349
C   1.3888746817 -0.5646180815 -0.4008812889
H   0.7919522601  0.1441037188  1.5436614092
H   1.3337413509 -1.0821147614 -1.3316618240
H   1.9424627006 -1.0178629344  0.4107130585
7
Iter 108 Image 3  Energy = -4187.0015377051
C   0.8876439617  0.7038999137 -0.1755886607
H   0.5923471000  1.4460818128 -0.9070012621
O   0.7396923043  0.9906362698  1.1318218812
C   1.3103157285 -0.5658471459 -0.3037579774
H   0.7886507114 -0.0351474364  1.3012843682
H   1.2267719475 -1.1595534257 -1.1722510431
H   2.0558201090 -0.8897042301  0.4194309034
7
Iter 108 Image 4  Energy = -4186.4048030770
C   0.8741417247  0.8201394905 -0.1002742897
H   0.6128290213  1.4796328476 -0.9357312177
O   0.7154457496  1.2229962318  1.0454453801
C   1.2264585206 -0.6020323425 -0.1116110830
H   0.8365927214 -0.4106860840  1.0764643683
H   1.1902215503 -1.1639534599 -1.0741784401
H   2.1455525771 -0.8557309355  0.3938234405
7
Iter 108 Image 5  Energy = -4188.4257589749
C   0.8860336597  0.8795292978 -0.0290201109
H   0.6789691455  1.4148643567 -0.9720450137
O   0.7285841843  1.4396309616  1.0258160831
C   1.2524090681 -0.5670122375 -0.0103010533
H   0.7094830984 -0.8118913377  0.9031229929
H   1.0704958983 -1.1249613830 -0.9309563046
H   2.2752667476 -0.7397938333  0.3073218930
7
Iter 108 Image 6  Energy = -4188.6716209969
C   0.8484778435  0.8875642197  0.0102962479
H   0.6883764844  1.3201212205 -0.9953967531
O   0.7219919887  1.5668367068  0.9959816328
C   1.2476170631 -0.5577867508  0.0503408103
H   0.7093318858 -1.0644480684  0.8472746203
H   1.0748127757 -1.0548511111 -0.8996515029
H   2.3106335460 -0.6070692750  0.2850939132
7
Iter 108 Image 7  Energy = -4188.6820586345
C   0.8100398492  0.8735328478 -0.0174502505
H   0.8297428445  1.3029556230 -1.0383740514
O   0.4484241967  1.5319165457  0.9189388237
C   1.2774081305 -0.5472227207  0.0877479255
H   0.8750164810 -1.0027265134  0.9866860508
H   0.9938848317 -1.1175702594 -0.7934023697
H   2.3667253043 -0.5505187316  0.1497926080
7
Iter 108 Image 8  Energy = -4188.6819968244
C   0.7840367852  0.8656586589 -0.0371164025
H   0.9809293880  1.3403901038 -1.0231241499
O   0.1875804579  1.4681235287  0.8223429327
C   1.3100769769 -0.5359012779  0.1153731248
H   1.0639489065 -0.9236344469  1.1059940899
H   0.8779311114 -1.1816924395 -0.6582837811
H   2.3967379442 -0.5425772870 -0.0312469938
7
Iter 109 Image 0  Energy = -4188.2527480593
C   0.8260657415  0.5508603911 -0.1261794589
H   0.4554445983  1.2417513435 -0.8784317668
O   0.5680753083  1.0246514429  1.1187434847
C   1.4411098584 -0.5873603774 -0.4363613732
H   0.9099091373  0.3932317500  1.7666320721
H   1.5916834696 -0.8592929697 -1.4741885892
H   1.8089534565 -1.2734747403  0.3237244514
7
Iter 109 Image 1  Energy = -4188.2175922564
C   0.8593394499  0.5812863222 -0.1483426911
H   0.4953096234  1.2649517486 -0.9002131293
O   0.6783191111  1.0596069214  1.1080712391
C   1.4146933761 -0.5896502106 -0.4190158951
H   0.8464183946  0.3162323449  1.6939909561
H   1.4288676443 -0.9859564773 -1.4178191469
H   1.8782940423 -1.1561040378  0.3772673421
7
Iter 109 Image 2  Energy = -4187.9661991170
C   0.8796495709  0.6343585872 -0.1690294330
H   0.5438416250  1.3655326477 -0.8906026528
O   0.7245073288  1.0154223846  1.1300029240
C   1.3857327492 -0.5640706303 -0.4004309801
H   0.7927892401  0.1460598264  1.5439642881
H   1.3324846977 -1.0869825874 -1.3285280167
H   1.9422365188 -1.0199541562  0.4085620400
7
Iter 109 Image 3  Energy = -4186.9892701677
C   0.8892715037  0.7058050568 -0.1762909557
H   0.5880112036  1.4430587244 -0.9141472208
O   0.7426189713  0.9922559128  1.1303073381
C   1.3137232721 -0.5629975955 -0.3025822560
H   0.7863227708 -0.0357849351  1.3007002535
H   1.2241401831 -1.1650212648 -1.1661263679
H   2.0571539322 -0.8869500820  0.4220775022
7
Iter 109 Image 4  Energy = -4186.4054077736
C   0.8752709840  0.8204794166 -0.1027417726
H   0.6065437633  1.4810142721 -0.9386085332
O   0.7219843405  1.2221628366  1.0459674561
C   1.2263332802 -0.6026251856 -0.1119189091
H   0.8333768112 -0.4135237166  1.0774155483
H   1.1935425101 -1.1629583097 -1.0735141077
H   2.1441902124 -0.8541835950  0.3973383295
7
Iter 109 Image 5  Energy = -4188.4177457562
C   0.8868307275  0.8808688898 -0.0285562319
H   0.6783132276  1.4154958892 -0.9730128483
O   0.7254257354  1.4344486816  1.0231569672
C   1.2556471484 -0.5663409814 -0.0109516704
H   0.7075007222 -0.8044416908  0.9041714638
H   1.0691683665 -1.1297256547 -0.9261648024
H   2.2783558803 -0.7399393430  0.3052955340
7
Iter 109 Image 6  Energy = -4188.6705709568
C   0.8485921309  0.8902598224  0.0149437554
H   0.6888949266  1.3177226106 -0.9965036736
O   0.7196625739  1.5662349238  0.9924096794
C   1.2487140649 -0.5569591898  0.0514690117
H   0.7093119662 -1.0652391594  0.8468365278
H   1.0734235502 -1.0511921540 -0.8986676124
H   2.3126423676 -0.6104599202  0.2834512934
7
Iter 109 Image 7  Energy = -4188.6818944237
C   0.8106051802  0.8725476874 -0.0187759128
H   0.8308240176  1.3028799893 -1.0380481545
O   0.4475673006  1.5333696045  0.9202035347
C   1.2770488644 -0.5472125189  0.0880660769
H   0.8753739209 -1.0038375749  0.9867717107
H   0.9933747788 -1.1171057098 -0.7934413197
H   2.3664475785 -0.5502746868  0.1491628010
7
Iter 109 Image 8  Energy = -4188.6819968244
C   0.7840367852  0.8656586589 -0.0371164025
H   0.9809293880  1.3403901038 -1.0231241499
O   0.1875804579  1.4681235287  0.8223429327
C   1.3100769769 -0.5359012779  0.1153731248
H   1.0639489065 -0.9236344469  1.1059940899
H   0.8779311114 -1.1816924395 -0.6582837811
H   2.3967379442 -0.5425772870 -0.0312469938
7
Iter 110 Image 0  Energy = -4188.2527480593
C   0.8260657415  0.5508603911 -0.1261794589
H   0.4554445983  1.2417513435 -0.8784317668
O   0.5680753083  1.0246514429  1.1187434847
C   1.4411098584 -0.5873603774 -0.4363613732
H   0.9099091373  0.3932317500  1.7666320721
H   1.5916834696 -0.8592929697 -1.4741885892
H   1.8089534565 -1.2734747403  0.3237244514
7
Iter 110 Image 1  Energy = -4188.2176112255
C   0.8591421347  0.5811165088 -0.1483843075
H   0.4949600747  1.2647895623 -0.9003178151
O   0.6782058218  1.0598328454  1.1079864901
C   1.4145118538 -0.5895325013 -0.4190151370
H   0.8465055614  0.3165573530  1.6941774959
H   1.4291414693 -0.9865174817 -1.4176394117
H   1.8787747257 -1.1558796735  0.3771313689
7
Iter 110 Image 2  Energy = -4187.9667180350
C   0.8795366493  0.6349872776 -0.1686694285
H   0.5440303908  1.3649208505 -0.8903900435
O   0.7237798337  1.0148478065  1.1298061188
C   1.3866665714 -0.5647342729 -0.4006222485
H   0.7926885875  0.1458961815  1.5438097805
H   1.3324515716 -1.0862188419 -1.3291718814
H   1.9420881124 -1.0193328984  0.4091758801
7
Iter 110 Image 3  Energy = -4186.9917547351
C   0.8890691964  0.7053523542 -0.1764850340
H   0.5889091185  1.4438126221 -0.9119673465
O   0.7420111943  0.9921524432  1.1307966931
C   1.3127141888 -0.5641706689 -0.3029440213
H   0.7868039681 -0.0356230563  1.3004711661
H   1.2248425057 -1.1637846048 -1.1677547272
H   2.0568916724 -0.8873732890  0.4218215331
7
Iter 110 Image 4  Energy = -4186.4056663758
C   0.8749442066  0.8204552722 -0.1015764441
H   0.6078671959  1.4805368049 -0.9379388155
O   0.7210478379  1.2223847677  1.0455425670
C   1.2261131675 -0.6027094600 -0.1117096785
H   0.8340858120 -0.4125499342  1.0766633589
H   1.1928605505 -1.1634031333 -1.0739376123
H   2.1443231234 -0.8543485928  0.3968946645
7
Iter 110 Image 5  Energy = -4188.4201932719
C   0.8869772661  0.8799146200 -0.0301849261
H   0.6783223885  1.4154981166 -0.9727623446
O   0.7262267843  1.4364036208  1.0251244358
C   1.2547055775 -0.5665598594 -0.0105873069
H   0.7078932283 -0.8060611748  0.9038637995
H   1.0695046743 -1.1288692277 -0.9275096431
H   2.2776118881 -0.7399602966  0.3059944076
7
Iter 110 Image 6  Energy = -4188.6721275768
C   0.8487916673  0.8887576795  0.0124000682
H   0.6887510069  1.3181255870 -0.9961099906
O   0.7199272351  1.5674230554  0.9945392419
C   1.2485659919 -0.5571368579  0.0513562004
H   0.7092967586 -1.0650527623  0.8469643312
H   1.0736394732 -1.0518765504 -0.8990238527
H   2.3122694490 -0.6098732169  0.2838129814
7
Iter 110 Image 7  Energy = -4188.6821569076
C   0.8102663456  0.8731543738 -0.0178986648
H   0.8306764967  1.3028981732 -1.0381755218
O   0.4478858048  1.5327203825  0.9194279076
C   1.2771266027 -0.5472571536  0.0879847295
H   0.8753278825 -1.0036278416  0.9867849299
H   0.9934401363 -1.1172043841 -0.7934374895
H   2.3665183716 -0.5503167590  0.1492528463
7
Iter 110 Image 8  Energy = -4188.6819968244
C   0.7840367852  0.8656586589 -0.0371164025
H   0.9809293880  1.3403901038 -1.0231241499
O   0.1875804579  1.4681235287  0.8223429327
C   1.3100769769 -0.5359012779  0.1153731248
H   1.0639489065 -0.9236344469  1.1059940899
H   0.8779311114 -1.1816924395 -0.6582837811
H   2.3967379442 -0.5425772870 -0.0312469938
7
Iter 111 Image 0  Energy = -4188.2527480593
C   0.8260657415  0.5508603911 -0.1261794589
H   0.4554445983  1.2417513435 -0.8784317668
O   0.5680753083  1.0246514429  1.1187434847
C   1.4411098584 -0.5873603774 -0.4363613732
H   0.9099091373  0.3932317500  1.7666320721
H   1.5916834696 -0.8592929697 -1.4741885892
H   1.8089534565 -1.2734747403  0.3237244514
7
Iter 111 Image 1  Energy = -4188.2176129988
C   0.8592658700  0.5812224571 -0.1483140622
H   0.4952725158  1.2649789334 -0.9003003556
O   0.6783270357  1.0598230980  1.1081325124
C   1.4143690644 -0.5894411435 -0.4190526159
H   0.8464563339  0.3163227915  1.6941738602
H   1.4290884823 -0.9864087372 -1.4176666854
H   1.8784623406 -1.1561307924  0.3769660214
7
Iter 111 Image 2  Energy = -4187.9665911070
C   0.8795797336  0.6353548669 -0.1685630041
H   0.5439307146  1.3646612079 -0.8905481037
O   0.7241326789  1.0151304392  1.1298380862
C   1.3868883875 -0.5650499720 -0.4007152346
H   0.7927608445  0.1462106242  1.5436234778
H   1.3319171569 -1.0867848906 -1.3291094330
H   1.9420322061 -1.0191561858  0.4094123906
7
Iter 111 Image 3  Energy = -4186.9902332372
C   0.8893657551  0.7051645368 -0.1766528814
H   0.5882602619  1.4436896702 -0.9113289085
O   0.7420555988  0.9925209617  1.1306372053
C   1.3124838280 -0.5649069749 -0.3027105243
H   0.7866756207 -0.0354904697  1.2997157929
H   1.2251732476 -1.1638006190 -1.1681253000
H   2.0572275368 -0.8868113139  0.4224028600
7
Iter 111 Image 4  Energy = -4186.4063070810
C   0.8748030251  0.8203786647 -0.1013007934
H   0.6070077972  1.4798319810 -0.9378963997
O   0.7220622112  1.2229455310  1.0454029034
C   1.2258744824 -0.6032189114 -0.1113826881
H   0.8340440174 -0.4119662130  1.0756470131
H   1.1932732104 -1.1635957052 -1.0742581070
H   2.1441771524 -0.8540096250  0.3977261030
7
Iter 111 Image 5  Energy = -4188.4191910049
C   0.8870525413  0.8799619860 -0.0307330865
H   0.6781217127  1.4157754643 -0.9731799542
O   0.7256958091  1.4364182684  1.0253105341
C   1.2546317668 -0.5667369777 -0.0103144518
H   0.7083835135 -0.8056030236  0.9044463637
H   1.0694738167 -1.1294263495 -0.9276512971
H   2.2778826499 -0.7400235720  0.3060603005
7
Iter 111 Image 6  Energy = -4188.6722072384
C   0.8489151273  0.8885917885  0.0121198621
H   0.6889145384  1.3178728064 -0.9960189234
O   0.7194808854  1.5679709843  0.9947783111
C   1.2487137807 -0.5572323485  0.0515217316
H   0.7093430617 -1.0652027924  0.8470744477
H   1.0733889927 -1.0515392851 -0.8992109968
H   2.3124851962 -0.6100942189  0.2836745485
7
Iter 111 Image 7  Energy = -4188.6821668616
C   0.8101979453  0.8733076737 -0.0176859952
H   0.8308213456  1.3028991712 -1.0381947314
O   0.4478915670  1.5326584831  0.9193031964
C   1.2770982586 -0.5472875540  0.0879891836
H   0.8753584702 -1.0037265393  0.9868102392
H   0.9933618068 -1.1171849965 -0.7934677604
H   2.3665122462 -0.5502994469  0.1491846054
7
Iter 111 Image 8  Energy = -4188.6819968244
C   0.7840367852  0.8656586589 -0.0371164025
H   0.9809293880  1.3403901038 -1.0231241499
O   0.1875804579  1.4681235287  0.8223429327
C   1.3100769769 -0.5359012779  0.1153731248
H   1.0639489065 -0.9236344469  1.1059940899
H   0.8779311114 -1.1816924395 -0.6582837811
H   2.3967379442 -0.5425772870 -0.0312469938
7
Iter 112 Image 0  Energy = -4188.2527480593
C   0.8260657415  0.5508603911 -0.1261794589
H   0.4554445983  1.2417513435 -0.8784317668
O   0.5680753083  1.0246514429  1.1187434847
C   1.4411098584 -0.5873603774 -0.4363613732
H   0.9099091373  0.3932317500  1.7666320721
H   1.5916834696 -0.8592929697 -1.4741885892
H   1.8089534565 -1.2734747403  0.3237244514
7
Iter 112 Image 1  Energy = -4188.2175310424
C   0.8602818420  0.5821175496 -0.1477872662
H   0.4974656136  1.2664755779 -0.8998739810
O   0.6791934237  1.0592719331  1.1092869023
C   1.4138546537 -0.5887962470 -0.4193687167
H   0.8456281578  0.3139859323  1.6938410453
H   1.4288062139 -0.9847789269 -1.4182226347
H   1.8760117492 -1.1579092587  0.3760632594
7
Iter 112 Image 2  Energy = -4187.9649578503
C   0.8802011815  0.6367400169 -0.1687180520
H   0.5427542323  1.3637713942 -0.8919409316
O   0.7285948943  1.0182196680  1.1296401361
C   1.3864626340 -0.5662798141 -0.4008578026
H   0.7936698271  0.1491902575  1.5427714396
H   1.3280617833 -1.0925736079 -1.3271726221
H   1.9414972337 -1.0187019538  0.4102160157
7
Iter 112 Image 3  Energy = -4186.9750322050
C   0.8914966936  0.7047368277 -0.1780335307
H   0.5829156699  1.4419242101 -0.9103449379
O   0.7442472117  0.9947258856  1.1292667549
C   1.3120795928 -0.5677038935 -0.3007904702
H   0.7849151125 -0.0354362126  1.2945345170
H   1.2264955164 -1.1657522194 -1.1677132262
H   2.0590920721 -0.8821288261  0.4270190457
7
Iter 112 Image 4  Energy = -4186.4094368315
C   0.8746327532  0.8198088933 -0.1012385938
H   0.5994977512  1.4760287881 -0.9381391992
O   0.7318958801  1.2259814858  1.0446830087
C   1.2241927086 -0.6057813424 -0.1100633747
H   0.8319704724 -0.4102062500  1.0701903854
H   1.1971710604 -1.1643724493 -1.0759189310
H   2.1418812949 -0.8510934162  0.4044246094
7
Iter 112 Image 5  Energy = -4188.4096371999
C   0.8877765332  0.8803542844 -0.0338804753
H   0.6761579182  1.4176954865 -0.9756932443
O   0.7230506366  1.4346785681  1.0253815809
C   1.2550847202 -0.5676648001 -0.0092120392
H   0.7100039229 -0.8002166251  0.9074916327
H   1.0693943547 -1.1340416743 -0.9266593021
H   2.2797737490 -0.7404394761  0.3065101326
7
Iter 112 Image 6  Energy = -4188.6722436121
C   0.8497019597  0.8885004594  0.0120750073
H   0.6898940312  1.3154284130 -0.9958643448
O   0.7160134890  1.5710683412  0.9948700849
C   1.2500677469 -0.5574204163  0.0529263893
H   0.7096553002 -1.0662730517  0.8475093403
H   1.0714402418 -1.0480003622 -0.8998535418
H   2.3144688136 -0.6129364570  0.2822760554
7
Iter 112 Image 7  Energy = -4188.6821759513
C   0.8100377561  0.8737683511 -0.0169686719
H   0.8321851728  1.3028270526 -1.0381227579
O   0.4475205269  1.5328634746  0.9190289294
C   1.2767871250 -0.5474404502  0.0881577007
H   0.8757338750 -1.0047586407  0.9869821239
H   0.9926409173 -1.1168046274 -0.7936213197
H   2.3663362680 -0.5500883703  0.1484827346
7
Iter 112 Image 8  Energy = -4188.6819968244
C   0.7840367852  0.8656586589 -0.0371164025
H   0.9809293880  1.3403901038 -1.0231241499
O   0.1875804579  1.4681235287  0.8223429327
C   1.3100769769 -0.5359012779  0.1153731248
H   1.0639489065 -0.9236344469  1.1059940899
H   0.8779311114 -1.1816924395 -0.6582837811
H   2.3967379442 -0.5425772870 -0.0312469938
7
Iter 113 Image 0  Energy = -4188.2527480593
C   0.8260657415  0.5508603911 -0.1261794589
H   0.4554445983  1.2417513435 -0.8784317668
O   0.5680753083  1.0246514429  1.1187434847
C   1.4411098584 -0.5873603774 -0.4363613732
H   0.9099091373  0.3932317500  1.7666320721
H   1.5916834696 -0.8592929697 -1.4741885892
H   1.8089534565 -1.2734747403  0.3237244514
7
Iter 113 Image 1  Energy = -4188.2173406205
C   0.8619083294  0.5836235962 -0.1469288484
H   0.5009819472  1.2690011376 -0.8990664493
O   0.6806763304  1.0582976104  1.1111417052
C   1.4131273406 -0.5879267585 -0.4198966395
H   0.8441992148  0.3102698422  1.6932337467
H   1.4282911164 -0.9821739950 -1.4192573622
H   1.8720573909 -1.1607249604  0.3747123421
7
Iter 113 Image 2  Energy = -4187.9620284310
C   0.8815599316  0.6380747109 -0.1697607046
H   0.5406254421  1.3623342506 -0.8938896730
O   0.7360838901  1.0232906730  1.1286374587
C   1.3851459876 -0.5678750875 -0.4007530315
H   0.7951933962  0.1539618016  1.5416238766
H   1.3219956228 -1.1015997000 -1.3234366433
H   1.9406376161 -1.0178208983  0.4115168953
7
Iter 113 Image 3  Energy = -4186.9482568374
C   0.8939822872  0.7040825415 -0.1801181542
H   0.5743104175  1.4387178972 -0.9099331015
O   0.7491019091  0.9979673813  1.1267991053
C   1.3115362868 -0.5709045119 -0.2975977830
H   0.7821699526 -0.0356876898  1.2863088782
H   1.2288942741 -1.1690592019 -1.1657522712
H   2.0612467673 -0.8747506731  0.4342313393
7
Iter 113 Image 4  Energy = -4186.4135303816
C   0.8748813562  0.8184754191 -0.1019880382
H   0.5868161227  1.4696732235 -0.9383551340
O   0.7488924531  1.2308618907  1.0435853521
C   1.2219064101 -0.6083683833 -0.1093440014
H   0.8274472379 -0.4087865715  1.0625128732
H   1.2038636206 -1.1653521710 -1.0778859552
H   2.1374347657 -0.8461377308  0.4154126125
7
Iter 113 Image 5  Energy = -4188.3935401610
C   0.8882291365  0.8806902209 -0.0375083234
H   0.6728406676  1.4202407958 -0.9790036168
O   0.7199999285  1.4315282827  1.0237603842
C   1.2562530971 -0.5689582345 -0.0086151477
H   0.7122955055 -0.7912586881  0.9118618552
H   1.0697463317 -1.1409272909 -0.9241044106
H   2.2818772038 -0.7409493667  0.3075473482
7
Iter 113 Image 6  Energy = -4188.6719599238
C   0.8507291220  0.8888373212  0.0132443204
H   0.6915198308  1.3115010053 -0.9959037296
O   0.7106147828  1.5752209011  0.9939836293
C   1.2520724406 -0.5574182786  0.0550287271
H   0.7103575866 -1.0680461671  0.8480488139
H   1.0683895850 -1.0420924320 -0.9004181649
H   2.3175582330 -0.6176354291  0.2799554140
7
Iter 113 Image 7  Energy = -4188.6821242443
C   0.8098922006  0.8742803656 -0.0160238910
H   0.8344468186  1.3027090588 -1.0378784823
O   0.4468072037  1.5332844659  0.9186745235
C   1.2762632080 -0.5476292032  0.0884446680
H   0.8764013831 -1.0063990838  0.9872156027
H   0.9914476544 -1.1161224351 -0.7937882696
H   2.3659831768 -0.5497563807  0.1472945915
7
Iter 113 Image 8  Energy = -4188.6819968244
C   0.7840367852  0.8656586589 -0.0371164025
H   0.9809293880  1.3403901038 -1.0231241499
O   0.1875804579  1.4681235287  0.8223429327
C   1.3100769769 -0.5359012779  0.1153731248
H   1.0639489065 -0.9236344469  1.1059940899
H   0.8779311114 -1.1816924395 -0.6582837811
H   2.3967379442 -0.5425772870 -0.0312469938
7
Iter 114 Image 0  Energy = -4188.2527480593
C   0.8260657415  0.5508603911 -0.1261794589
H   0.4554445983  1.2417513435 -0.8784317668
O   0.5680753083  1.0246514429  1.1187434847
C   1.4411098584 -0.5873603774 -0.4363613732
H   0.9099091373  0.3932317500  1.7666320721
H   1.5916834696 -0.8592929697 -1.4741885892
H   1.8089534565 -1.2734747403  0.3237244514
7
Iter 114 Image 1  Energy = -4188.2166065893
C   0.8666010880  0.5877242781 -0.1445963263
H   0.5110113394  1.2765469879 -0.8964555546
O   0.6852365248  1.0557236802  1.1162788364
C   1.4108556485 -0.5857614253 -0.4215113471
H   0.8400916270  0.3001429885  1.6916195297
H   1.4265955375 -0.9753790128 -1.4223492639
H   1.8608499615 -1.1686312911  0.3709522892
7
Iter 114 Image 2  Energy = -4187.9533261827
C   0.8860509788  0.6400305474 -0.1738229155
H   0.5337810897  1.3576917865 -0.8989839150
O   0.7575677113  1.0369623534  1.1238973740
C   1.3809868556 -0.5723578501 -0.3996976419
H   0.7995500432  0.1678394064  1.5382934609
H   1.3051186752 -1.1256550447 -1.3119677544
H   1.9381868194 -1.0141460437  0.4162195278
7
Iter 114 Image 3  Energy = -4186.8620169482
C   0.8984359925  0.7019018563 -0.1857040278
H   0.5497194499  1.4287432279 -0.9099248874
O   0.7663667663  1.0072824912  1.1197147946
C   1.3096667475 -0.5778769004 -0.2890042526
H   0.7750509926 -0.0373280554  1.2630967554
H   1.2374923340 -1.1780779453 -1.1585036379
H   2.0645097012 -0.8542790129  0.4542628323
7
Iter 114 Image 4  Energy = -4186.4229468128
C   0.8765266350  0.8149286638 -0.1043583852
H   0.5488936972  1.4495756027 -0.9382255839
O   0.8010631748  1.2446003757  1.0394933065
C   1.2169730148 -0.6128884133 -0.1099922943
H   0.8114961753 -0.4071124259  1.0418190971
H   1.2240118847 -1.1677188303 -1.0822365646
H   2.1222775212 -0.8310193935  0.4474375808
7
Iter 114 Image 5  Energy = -4188.3441321573
C   0.8880715323  0.8792293717 -0.0492169498
H   0.6625079210  1.4251189014 -0.9860887107
O   0.7149289834  1.4249626323  1.0190210038
C   1.2592438513 -0.5716556242 -0.0077967766
H   0.7190768632 -0.7665095594  0.9224135391
H   1.0723839950 -1.1589788529 -0.9167028055
H   2.2850288234 -0.7418012828  0.3123082382
7
Iter 114 Image 6  Energy = -4188.6693603566
C   0.8529350110  0.8903927519  0.0177316342
H   0.6965487960  1.3005308803 -0.9962913848
O   0.6958430144  1.5856318004  0.9903032318
C   1.2572710685 -0.5569587412  0.0608452558
H   0.7131087866 -1.0734074736  0.8492856886
H   1.0599666472 -1.0252584141 -0.9012329663
H   2.3255682563 -0.6305638894  0.2732976165
7
Iter 114 Image 7  Energy = -4188.6822872183
C   0.8103015504  0.8743153410 -0.0153133936
H   0.8409434503  1.3023834990 -1.0367558987
O   0.4440517806  1.5354816572  0.9192362454
C   1.2747540653 -0.5479784327  0.0893000475
H   0.8783772786 -1.0108570188  0.9877483393
H   0.9879754484 -1.1140641323 -0.7941222604
H   2.3648380657 -0.5489141275  0.1438456778
7
Iter 114 Image 8  Energy = -4188.6819968244
C   0.7840367852  0.8656586589 -0.0371164025
H   0.9809293880  1.3403901038 -1.0231241499
O   0.1875804579  1.4681235287  0.8223429327
C   1.3100769769 -0.5359012779  0.1153731248
H   1.0639489065 -0.9236344469  1.1059940899
H   0.8779311114 -1.1816924395 -0.6582837811
H   2.3967379442 -0.5425772870 -0.0312469938
7
Iter 115 Image 0  Energy = -4188.2527480593
C   0.8260657415  0.5508603911 -0.1261794589
H   0.4554445983  1.2417513435 -0.8784317668
O   0.5680753083  1.0246514429  1.1187434847
C   1.4411098584 -0.5873603774 -0.4363613732
H   0.9099091373  0.3932317500  1.7666320721
H   1.5916834696 -0.8592929697 -1.4741885892
H   1.8089534565 -1.2734747403  0.3237244514
7
Iter 115 Image 1  Energy = -4188.2142444721
C   0.8772865428  0.5970734836 -0.1393878466
H   0.5339805570  1.2941817154 -0.8898953061
O   0.6962613528  1.0499091753  1.1277579670
C   1.4055220533 -0.5816119897 -0.4253976283
H   0.8305982734  0.2779425124  1.6881500208
H   1.4224676473 -0.9605911964 -1.4296258157
H   1.8351254405 -1.1865381278  0.3623360019
7
Iter 115 Image 2  Energy = -4187.9299691787
C   0.8960709352  0.6433541799 -0.1846617128
H   0.5169785604  1.3458537336 -0.9102168701
O   0.8072777030  1.0677117892  1.1106185556
C   1.3714620952 -0.5836813983 -0.3965568862
H   0.8097215912  0.2000888081  1.5308236017
H   1.2673151370 -1.1786850789 -1.2846249945
H   1.9324168014 -1.0042782345  0.4285563017
7
Iter 115 Image 3  Energy = -4186.6065742767
C   0.9057809097  0.6973523459 -0.1976420595
H   0.4924372759  1.4039062234 -0.9115137097
O   0.8114269765  1.0289527223  1.1038339746
C   1.3055263868 -0.5910115741 -0.2704837781
H   0.7592568002 -0.0423079320  1.2103775223
H   1.2596461812 -1.1986080472 -1.1404105004
H   2.0671676771 -0.8079182968  0.4997750583
7
Iter 115 Image 4  Energy = -4186.4246948978
C   0.8819559195  0.8074255435 -0.1100354713
H   0.4586245543  1.4007117814 -0.9366853460
O   0.9273005543  1.2755856298  1.0285778641
C   1.2074247577 -0.6198984507 -0.1138952659
H   0.7700801790 -0.4061982821  0.9945686888
H   1.2721352787 -1.1724144048 -1.0908681255
H   2.0837211766 -0.7948464802  0.5222735291
7
Iter 115 Image 5  Energy = -4188.2259504220
C   0.8854793394  0.8773112184 -0.0686843030
H   0.6363550407  1.4326481478 -1.0006545419
O   0.7111211590  1.4103563093  1.0007242119
C   1.2651440725 -0.5772912986 -0.0077308372
H   0.7334300343 -0.7126310322  0.9433769375
H   1.0809658182 -1.1978736668 -0.8995440211
H   2.2887467233 -0.7421543921  0.3264488010
7
Iter 115 Image 6  Energy = -4188.6477673969
C   0.8573901764  0.8931068517  0.0268299251
H   0.7087094043  1.2757195980 -0.9973370107
O   0.6624892603  1.6092185807  0.9828123508
C   1.2685018907 -0.5552582736  0.0739346007
H   0.7204229896 -1.0863556963  0.8518238128
H   1.0410196216 -0.9866268644 -0.9020282118
H   2.3427082364 -0.6594372909  0.2579037723
7
Iter 115 Image 7  Energy = -4188.6795462838
C   0.8094585184  0.8774895220 -0.0086156727
H   0.8560854301  1.3018639116 -1.0342502785
O   0.4392360883  1.5370219660  0.9157495464
C   1.2713940333 -0.5489522096  0.0909934944
H   0.8830399991 -1.0205824488  0.9889138178
H   0.9798980599 -1.1093295760 -0.7946083770
H   2.3621294902 -0.5471443754  0.1357562692
7
Iter 115 Image 8  Energy = -4188.6819968244
C   0.7840367852  0.8656586589 -0.0371164025
H   0.9809293880  1.3403901038 -1.0231241499
O   0.1875804579  1.4681235287  0.8223429327
C   1.3100769769 -0.5359012779  0.1153731248
H   1.0639489065 -0.9236344469  1.1059940899
H   0.8779311114 -1.1816924395 -0.6582837811
H   2.3967379442 -0.5425772870 -0.0312469938
7
Iter 116 Image 0  Energy = -4188.2527480593
C   0.8260657415  0.5508603911 -0.1261794589
H   0.4554445983  1.2417513435 -0.8784317668
O   0.5680753083  1.0246514429  1.1187434847
C   1.4411098584 -0.5873603774 -0.4363613732
H   0.9099091373  0.3932317500  1.7666320721
H   1.5916834696 -0.8592929697 -1.4741885892
H   1.8089534565 -1.2734747403  0.3237244514
7
Iter 116 Image 1  Energy = -4188.2119229457
C   0.8865587755  0.6044976219 -0.1350392361
H   0.5537440041  1.3097062434 -0.8835297315
O   0.7063200419  1.0449382088  1.1373085842
C   1.4005987799 -0.5787426248 -0.4288653489
H   0.8224240598  0.2604555126  1.6855482641
H   1.4187604623 -0.9487091303 -1.4362774795
H   1.8128358773 -1.2017808353  0.3547916660
7
Iter 116 Image 2  Energy = -4187.9089370689
C   0.9047748592  0.6433484243 -0.1956403654
H   0.5012368276  1.3342734675 -0.9194832197
O   0.8503103019  1.0927049232  1.0962690704
C   1.3628804995 -0.5934404857 -0.3930836325
H   0.8187754787  0.2290653805  1.5247054708
H   1.2360296983 -1.2212336936 -1.2598046849
H   1.9272357078 -0.9943553622  0.4409751871
7
Iter 116 Image 3  Energy = -4186.3313788047
C   0.9085364421  0.6942079833 -0.2063853096
H   0.4415760792  1.3788468566 -0.9140841138
O   0.8578483964  1.0480023527  1.0903352898
C   1.3027155271 -0.5988796998 -0.2563728317
H   0.7455740358 -0.0466847650  1.1666164062
H   1.2824050340 -1.2154378408 -1.1239793781
H   2.0625869105 -0.7696896502  0.5378054299
7
Iter 116 Image 4  Energy = -4186.4042880854
C   0.8886632014  0.8038862079 -0.1113733069
H   0.3773416949  1.3542071384 -0.9312478746
O   1.0435522507  1.2996322793  1.0114436263
C   1.2028251962 -0.6220459156 -0.1192761301
H   0.7281465178 -0.4082466371  0.9531979270
H   1.3159524068 -1.1751803945 -1.0960322411
H   2.0447614314 -0.7618875740  0.5872227769
7
Iter 116 Image 5  Energy = -4188.1276713035
C   0.8820318522  0.8730326243 -0.0874352587
H   0.6117238886  1.4339133684 -1.0107398124
O   0.7154295314  1.4050724732  0.9860256986
C   1.2691617717 -0.5810513835 -0.0079250565
H   0.7439136035 -0.6730162816  0.9561089802
H   1.0903646739 -1.2278142450 -0.8837080622
H   2.2886170527 -0.7397715190  0.3416086225
7
Iter 116 Image 6  Energy = -4188.6190682372
C   0.8597401600  0.8974243737  0.0376346152
H   0.7201579724  1.2549293095 -0.9985166790
O   0.6351467530  1.6264334572  0.9735489778
C   1.2773441579 -0.5534274209  0.0845705393
H   0.7279645619 -1.0988124697  0.8534801177
H   1.0252705226 -0.9532003263 -0.9010987332
H   2.3556174512 -0.6829800106  0.2443205634
7
Iter 116 Image 7  Energy = -4188.6805542430
C   0.8107164973  0.8769066924 -0.0076954437
H   0.8692375275  1.3014726946 -1.0313111415
O   0.4332065260  1.5408763116  0.9167838387
C   1.2685236925 -0.5494474164  0.0925467070
H   0.8871713449 -1.0284686666  0.9897786879
H   0.9727484160 -1.1051417199 -0.7948174066
H   2.3596375873 -0.5458310980  0.1286535979
7
Iter 116 Image 8  Energy = -4188.6819968244
C   0.7840367852  0.8656586589 -0.0371164025
H   0.9809293880  1.3403901038 -1.0231241499
O   0.1875804579  1.4681235287  0.8223429327
C   1.3100769769 -0.5359012779  0.1153731248
H   1.0639489065 -0.9236344469  1.1059940899
H   0.8779311114 -1.1816924395 -0.6582837811
H   2.3967379442 -0.5425772870 -0.0312469938
7
Iter 117 Image 0  Energy = -4188.2527480593
C   0.8260657415  0.5508603911 -0.1261794589
H   0.4554445983  1.2417513435 -0.8784317668
O   0.5680753083  1.0246514429  1.1187434847
C   1.4411098584 -0.5873603774 -0.4363613732
H   0.9099091373  0.3932317500  1.7666320721
H   1.5916834696 -0.8592929697 -1.4741885892
H   1.8089534565 -1.2734747403  0.3237244514
7
Iter 117 Image 1  Energy = -4188.2149366459
C   0.8790016598  0.5976363569 -0.1388860126
H   0.5380469003  1.2985782922 -0.8865485128
O   0.7001301712  1.0493310650  1.1287768911
C   1.4035097392 -0.5835028539 -0.4266700645
H   0.8289000437  0.2787505663  1.6887134038
H   1.4211431937 -0.9613947439 -1.4318494544
H   1.8305102283 -1.1890333170  0.3604009773
7
Iter 117 Image 2  Energy = -4187.9329878262
C   0.8995113670  0.6337702227 -0.1922941118
H   0.5098472875  1.3390265250 -0.9104056461
O   0.8162523594  1.0688031027  1.0981865104
C   1.3684870764 -0.5849219021 -0.3927516125
H   0.8122169524  0.2084423785  1.5300842150
H   1.2639226019 -1.1779704231 -1.2761720562
H   1.9310052623 -0.9967862629  0.4372905264
7
Iter 117 Image 3  Energy = -4186.5726795292
C   0.8950719120  0.6962185383 -0.1972764072
H   0.4786361806  1.3918583302 -0.9139874745
O   0.8386278976  1.0268013726  1.1023323646
C   1.3053902371 -0.5824580066 -0.2709836461
H   0.7562520141 -0.0435198299  1.1996525261
H   1.2764184409 -1.1992528842 -1.1314387066
H   2.0508456319 -0.7992821207  0.5056372984
7
Iter 117 Image 4  Energy = -4186.4814433700
C   0.8891779974  0.8126545151 -0.1063762648
H   0.4374161849  1.3793018505 -0.9259869204
O   0.9647391241  1.2776370103  1.0098304200
C   1.2181038142 -0.6061203275 -0.1217708494
H   0.7438475507 -0.4193932566  0.9869145077
H   1.2828709294 -1.1712606260 -1.0812350886
H   2.0650868826 -0.7824539167  0.5325598778
7
Iter 117 Image 5  Energy = -4188.2483280322
C   0.8780659944  0.8726392935 -0.0655167650
H   0.6252042347  1.4188833664 -0.9950728730
O   0.7357559056  1.4232320886  0.9880266702
C   1.2625965783 -0.5752506632 -0.0110228910
H   0.7328058856 -0.7205902978  0.9325805817
H   1.0902503486 -1.1934148395 -0.8942982142
H   2.2765632742 -0.7351337036  0.3392394430
7
Iter 117 Image 6  Energy = -4188.6428632906
C   0.8537974380  0.8988054685  0.0370480855
H   0.7137735229  1.2734308397 -0.9983923997
O   0.6607546106  1.6039395794  0.9730833416
C   1.2675732339 -0.5536042472  0.0742674874
H   0.7258842332 -1.0919528005  0.8508057925
H   1.0394882543 -0.9799197788 -0.8974565329
H   2.3399702947 -0.6603321103  0.2545835533
7
Iter 117 Image 7  Energy = -4188.6806313863
C   0.8121429802  0.8734162243 -0.0136380902
H   0.8590696788  1.3021058164 -1.0319375493
O   0.4357937182  1.5395860686  0.9197306626
C   1.2709514455 -0.5484316681  0.0911862763
H   0.8841514474 -1.0205656453  0.9885588461
H   0.9780082191 -1.1081680257 -0.7939438975
H   2.3611240867 -0.5475759658  0.1339825751
7
Iter 117 Image 8  Energy = -4188.6819968244
C   0.7840367852  0.8656586589 -0.0371164025
H   0.9809293880  1.3403901038 -1.0231241499
O   0.1875804579  1.4681235287  0.8223429327
C   1.3100769769 -0.5359012779  0.1153731248
H   1.0639489065 -0.9236344469  1.1059940899
H   0.8779311114 -1.1816924395 -0.6582837811
H   2.3967379442 -0.5425772870 -0.0312469938
7
Iter 118 Image 0  Energy = -4188.2527480593
C   0.8260657415  0.5508603911 -0.1261794589
H   0.4554445983  1.2417513435 -0.8784317668
O   0.5680753083  1.0246514429  1.1187434847
C   1.4411098584 -0.5873603774 -0.4363613732
H   0.9099091373  0.3932317500  1.7666320721
H   1.5916834696 -0.8592929697 -1.4741885892
H   1.8089534565 -1.2734747403  0.3237244514
7
Iter 118 Image 1  Energy = -4188.2161768100
C   0.8779464807  0.5943177545 -0.1401461132
H   0.5348794657  1.2970239456 -0.8857601228
O   0.7000342609  1.0516595026  1.1254069569
C   1.4029573288 -0.5853151741 -0.4269689359
H   0.8305362382  0.2847392967  1.6909283493
H   1.4209598283 -0.9657151916 -1.4314472898
H   1.8339283491 -1.1863447637  0.3619244579
7
Iter 118 Image 2  Energy = -4187.9373383543
C   0.8954351954  0.6320018211 -0.1942137383
H   0.5087788708  1.3365962185 -0.9085613775
O   0.8099510492  1.0630648493  1.0940793967
C   1.3714718907 -0.5877540093 -0.3902064365
H   0.8114837147  0.2052037785  1.5316505380
H   1.2730242669 -1.1644844039 -1.2785620111
H   1.9310978097 -0.9942643660  0.4397513395
7
Iter 118 Image 3  Energy = -4186.6245643219
C   0.8895351720  0.6985123757 -0.1932546221
H   0.4808199663  1.3883061347 -0.9165478148
O   0.8465871394  1.0228062284  1.1054239928
C   1.3086593028 -0.5732206715 -0.2801799496
H   0.7560100469 -0.0442596820  1.2097311893
H   1.2816253544 -1.1959182351 -1.1299820433
H   2.0380053513 -0.8058607233  0.4987451158
7
Iter 118 Image 4  Energy = -4186.5215637556
C   0.8944909818  0.8110792774 -0.1181064166
H   0.4423606847  1.3794033315 -0.9213708521
O   0.9620900063  1.2792716402  1.0175024142
C   1.2238007552 -0.5964862505 -0.1226542356
H   0.7343655074 -0.4306975954  0.9890861208
H   1.2793343190 -1.1687824210 -1.0728605424
H   2.0648002026 -0.7834227117  0.5223393685
7
Iter 118 Image 5  Energy = -4188.2955725959
C   0.8774811871  0.8665154722 -0.0696930305
H   0.6215169111  1.4045548616 -0.9883662251
O   0.7559370569  1.4426154572  0.9957995228
C   1.2604805224 -0.5698393572 -0.0123568410
H   0.7234427152 -0.7439938883  0.9201049265
H   1.0944051357 -1.1810255170 -0.8969470704
H   2.2679786692 -0.7284617499  0.3453947923
7
Iter 118 Image 6  Energy = -4188.6453675798
C   0.8540082687  0.8886160247  0.0223186026
H   0.7146751199  1.2785786055 -0.9979860166
O   0.6644383509  1.6065466658  0.9862102425
C   1.2631812861 -0.5516002055  0.0732309342
H   0.7280341925 -1.0930490277  0.8494464324
H   1.0429342810 -0.9859673007 -0.8952953746
H   2.3339700904 -0.6527577722  0.2560145384
7
Iter 118 Image 7  Energy = -4188.6812833867
C   0.8108505624  0.8754272970 -0.0102331216
H   0.8575075730  1.3028600073 -1.0318736179
O   0.4374117317  1.5354231260  0.9158912313
C   1.2716591782 -0.5483194492  0.0904810343
H   0.8836859857 -1.0176860677  0.9883204479
H   0.9787025173 -1.1089115716 -0.7933291335
H   2.3614240002 -0.5484265293  0.1346819850
7
Iter 118 Image 8  Energy = -4188.6819968244
C   0.7840367852  0.8656586589 -0.0371164025
H   0.9809293880  1.3403901038 -1.0231241499
O   0.1875804579  1.4681235287  0.8223429327
C   1.3100769769 -0.5359012779  0.1153731248
H   1.0639489065 -0.9236344469  1.1059940899
H   0.8779311114 -1.1816924395 -0.6582837811
H   2.3967379442 -0.5425772870 -0.0312469938
7
Iter 119 Image 0  Energy = -4188.2527480593
C   0.8260657415  0.5508603911 -0.1261794589
H   0.4554445983  1.2417513435 -0.8784317668
O   0.5680753083  1.0246514429  1.1187434847
C   1.4411098584 -0.5873603774 -0.4363613732
H   0.9099091373  0.3932317500  1.7666320721
H   1.5916834696 -0.8592929697 -1.4741885892
H   1.8089534565 -1.2734747403  0.3237244514
7
Iter 119 Image 1  Energy = -4188.2167083195
C   0.8784881698  0.5939328972 -0.1403370059
H   0.5360985660  1.2984101231 -0.8841001575
O   0.7018386138  1.0521155168  1.1248663414
C   1.4019448006 -0.5866414487 -0.4277219795
H   0.8302688152  0.2863045586  1.6919550478
H   1.4202176249 -0.9666759624 -1.4323096860
H   1.8323853964 -1.1870804148  0.3615846764
7
Iter 119 Image 2  Energy = -4187.9365139774
C   0.8946433446  0.6291510420 -0.1967768829
H   0.5049011298  1.3330938690 -0.9097341268
O   0.8129698263  1.0637230459  1.0894961392
C   1.3713942847 -0.5893838781 -0.3880192654
H   0.8125375756  0.2081232065  1.5313855299
H   1.2742468928 -1.1632639880 -1.2766011553
H   1.9305497597 -0.9910794292  0.4441873533
7
Iter 119 Image 3  Energy = -4186.6107360965
C   0.8875580589  0.6991821731 -0.1937779248
H   0.4728040855  1.3815149386 -0.9181721621
O   0.8599769655  1.0241753463  1.1069077236
C   1.3101496290 -0.5681569768 -0.2834698520
H   0.7531119265 -0.0455524395  1.2088059726
H   1.2889587854 -1.1968665241 -1.1273907676
H   2.0286829331 -0.8039311134  0.5010326416
7
Iter 119 Image 4  Energy = -4186.5493623039
C   0.9002569179  0.8133149357 -0.1149241437
H   0.4305623277  1.3720629518 -0.9182580388
O   0.9808343572  1.2799232306  1.0106537408
C   1.2261574377 -0.5918974761 -0.1243537864
H   0.7205691256 -0.4367697741  0.9819253634
H   1.2848325191 -1.1678539680 -1.0685583917
H   2.0580298029 -0.7784146674  0.5274510422
7
Iter 119 Image 5  Energy = -4188.3207007518
C   0.8764561761  0.8668055803 -0.0656352532
H   0.6135579238  1.3951064624 -0.9871875646
O   0.7726784705  1.4510022547  0.9903547169
C   1.2588516352 -0.5676428101 -0.0127810349
H   0.7178579734 -0.7542104565  0.9130506742
H   1.0990726420 -1.1776778435 -0.8966117063
H   2.2627673927 -0.7230179192  0.3527461251
7
Iter 119 Image 6  Energy = -4188.6545329711
C   0.8521174609  0.8915539421  0.0269717201
H   0.7173521715  1.2788092971 -0.9987977312
O   0.6644312565  1.6030189193  0.9822705506
C   1.2618843902 -0.5509605815  0.0736141199
H   0.7306675627 -1.0962239534  0.8490472252
H   1.0426098926 -0.9845990812 -0.8937514887
H   2.3321788553 -0.6512315214  0.2545850194
7
Iter 119 Image 7  Energy = -4188.6821569672
C   0.8118715416  0.8739570442 -0.0120702368
H   0.8586530984  1.3032405540 -1.0310541180
O   0.4359405687  1.5359383296  0.9174061847
C   1.2716293202 -0.5481358260  0.0904294617
H   0.8840143546 -1.0171345993  0.9883335742
H   0.9778827140 -1.1086619859 -0.7930648075
H   2.3612499303 -0.5488366971  0.1339587775
7
Iter 119 Image 8  Energy = -4188.6819968244
C   0.7840367852  0.8656586589 -0.0371164025
H   0.9809293880  1.3403901038 -1.0231241499
O   0.1875804579  1.4681235287  0.8223429327
C   1.3100769769 -0.5359012779  0.1153731248
H   1.0639489065 -0.9236344469  1.1059940899
H   0.8779311114 -1.1816924395 -0.6582837811
H   2.3967379442 -0.5425772870 -0.0312469938
7
Iter 120 Image 0  Energy = -4188.2527480593
C   0.8260657415  0.5508603911 -0.1261794589
H   0.4554445983  1.2417513435 -0.8784317668
O   0.5680753083  1.0246514429  1.1187434847
C   1.4411098584 -0.5873603774 -0.4363613732
H   0.9099091373  0.3932317500  1.7666320721
H   1.5916834696 -0.8592929697 -1.4741885892
H   1.8089534565 -1.2734747403  0.3237244514
7
Iter 120 Image 1  Energy = -4188.2180992833
C   0.8807183417  0.5928543704 -0.1410399881
H   0.5409714100  1.3031988831 -0.8787089877
O   0.7084980188  1.0538787011  1.1231332882
C   1.3982533524 -0.5909005625 -0.4303574383
H   0.8294415936  0.2909259768  1.6956831011
H   1.4172908396 -0.9690891767 -1.4353999862
H   1.8260685546 -1.1905032895  0.3606269971
7
Iter 120 Image 2  Energy = -4187.9329292795
C   0.8910467820  0.6206355682 -0.2038825631
H   0.4901611650  1.3210888767 -0.9169118723
O   0.8248559514  1.0698981256  1.0778763610
C   1.3708780299 -0.5935100935 -0.3807674116
H   0.8163684289  0.2183807347  1.5296996803
H   1.2790017027 -1.1646365061 -1.2717445442
H   1.9289308377 -0.9814929511  0.4596675064
7
Iter 120 Image 3  Energy = -4186.5311981908
C   0.8890824310  0.7026658213 -0.1959234550
H   0.4391054501  1.3588587190 -0.9235260033
O   0.9036075731  1.0299458438  1.1113383047
C   1.3162844302 -0.5539551844 -0.2940960153
H   0.7395991455 -0.0489924243  1.2033714151
H   1.3120887769 -1.2033323515 -1.1204662197
H   2.0014747482 -0.7948250981  0.5132368283
7
Iter 120 Image 4  Energy = -4186.6504838637
C   0.9196981573  0.8190537368 -0.1125119520
H   0.3854145454  1.3494292510 -0.9108935557
O   1.0500395642  1.2890340817  1.0000324383
C   1.2284462969 -0.5838291532 -0.1255616660
H   0.6729167418 -0.4555297063  0.9493404745
H   1.3053584828 -1.1659641963 -1.0562345454
H   2.0393688324 -0.7618288960  0.5497642675
7
Iter 120 Image 5  Energy = -4188.3889155558
C   0.8776484974  0.8711401928 -0.0535886576
H   0.5819089970  1.3632112718 -0.9877799141
O   0.8307339235  1.4789846505  0.9749430245
C   1.2541180179 -0.5607662451 -0.0117143974
H   0.6933586019 -0.7892085142  0.8911983830
H   1.1146190384 -1.1695328106 -0.8975168156
H   2.2488552137 -0.7034633414  0.3783938854
7
Iter 120 Image 6  Energy = -4188.6467962733
C   0.8478638077  0.8965977701  0.0351182576
H   0.7272461488  1.2791732793 -1.0010662666
O   0.6608739656  1.5973045408  0.9764584010
C   1.2577132872 -0.5489663519  0.0762720075
H   0.7392016052 -1.1076761980  0.8487747082
H   1.0401331495 -0.9797645946 -0.8906260417
H   2.3282096234 -0.6463013151  0.2490085580
7
Iter 120 Image 7  Energy = -4188.6821050367
C   0.8131169506  0.8729754374 -0.0125460854
H   0.8631471028  1.3048706017 -1.0290789823
O   0.4327073699  1.5344097098  0.9180596321
C   1.2715265895 -0.5480090291  0.0900801873
H   0.8849758941 -1.0156196117  0.9887134533
H   0.9747787246 -1.1078998473 -0.7925220459
H   2.3609888297 -0.5503604193  0.1312327124
7
Iter 120 Image 8  Energy = -4188.6819968244
C   0.7840367852  0.8656586589 -0.0371164025
H   0.9809293880  1.3403901038 -1.0231241499
O   0.1875804579  1.4681235287  0.8223429327
C   1.3100769769 -0.5359012779  0.1153731248
H   1.0639489065 -0.9236344469  1.1059940899
H   0.8779311114 -1.1816924395 -0.6582837811
H   2.3967379442 -0.5425772870 -0.0312469938
7
Iter 121 Image 0  Energy = -4188.2527480593
C   0.8260657415  0.5508603911 -0.1261794589
H   0.4554445983  1.2417513435 -0.8784317668
O   0.5680753083  1.0246514429  1.1187434847
C   1.4411098584 -0.5873603774 -0.4363613732
H   0.9099091373  0.3932317500  1.7666320721
H   1.5916834696 -0.8592929697 -1.4741885892
H   1.8089534565 -1.2734747403  0.3237244514
7
Iter 121 Image 1  Energy = -4188.2187484673
C   0.8773895045  0.5892718549 -0.1433427359
H   0.5338111699  1.2977196707 -0.8804277828
O   0.7067837049  1.0572669769  1.1183200862
C   1.3988419001 -0.5933679880 -0.4295856725
H   0.8331299356  0.3003165862  1.6983599527
H   1.4176251557 -0.9754535388 -1.4334489897
H   1.8336607337 -1.1853885457  0.3640623300
7
Iter 121 Image 2  Energy = -4187.9415438643
C   0.8846636295  0.6212493536 -0.1998686518
H   0.4907535648  1.3209770878 -0.9172126299
O   0.8100780722  1.0632032338  1.0835223847
C   1.3756019864 -0.5914026544 -0.3808448068
H   0.8133053387  0.2087432364  1.5310492225
H   1.2960197201 -1.1495445538 -1.2828010173
H   1.9308203772 -0.9828614733  0.4600925370
7
Iter 121 Image 3  Energy = -4186.6438638589
C   0.8922583589  0.7073635528 -0.1945348058
H   0.4462210649  1.3645143182 -0.9242544492
O   0.8981526151  1.0199020259  1.1236022176
C   1.3195980077 -0.5466084277 -0.3059250089
H   0.7400835048 -0.0460046028  1.2176456644
H   1.3094011680 -1.2024417832 -1.1256746893
H   1.9955278195 -0.8063596969  0.5030760500
7
Iter 121 Image 4  Energy = -4186.6850508174
C   0.9194157771  0.8203549160 -0.1116307883
H   0.4058249646  1.3630474919 -0.9153802780
O   1.0241318365  1.2856453851  1.0128013130
C   1.2267818250 -0.5849790010 -0.1228743147
H   0.6777410154 -0.4571937745  0.9525184222
H   1.2925684320 -1.1657519526 -1.0535959251
H   2.0547786977 -0.7707578751  0.5320973260
7
Iter 121 Image 5  Energy = -4188.4431072643
C   0.8824200734  0.8749693551 -0.0451469462
H   0.5769771772  1.3514323748 -0.9856309222
O   0.8531751347  1.4925234411  0.9808575851
C   1.2501918450 -0.5585270919 -0.0092348507
H   0.6758580980 -0.8185594572  0.8784585729
H   1.1172721662 -1.1541495716 -0.9081739930
H   2.2453477512 -0.6973237674  0.3828063899
7
Iter 121 Image 6  Energy = -4188.6590548179
C   0.8465600941  0.8936639654  0.0291485825
H   0.7260420525  1.2889186538 -1.0012201128
O   0.6696919327  1.5911790464  0.9830958420
C   1.2524243748 -0.5498787283  0.0726887529
H   0.7383568904 -1.1062002421  0.8491719533
H   1.0454611117 -0.9939501042 -0.8919162207
H   2.3227051288 -0.6333654224  0.2529708356
7
Iter 121 Image 7  Energy = -4188.6820336899
C   0.8133591723  0.8724024893 -0.0142341988
H   0.8591545106  1.3058222786 -1.0300243401
O   0.4335689912  1.5329096676  0.9192708536
C   1.2727782004 -0.5478230414  0.0893058532
H   0.8834016007 -1.0116843471  0.9888265335
H   0.9766546274 -1.1097064294 -0.7924764854
H   2.3623243463 -0.5515537719  0.1332706465
7
Iter 121 Image 8  Energy = -4188.6819968244
C   0.7840367852  0.8656586589 -0.0371164025
H   0.9809293880  1.3403901038 -1.0231241499
O   0.1875804579  1.4681235287  0.8223429327
C   1.3100769769 -0.5359012779  0.1153731248
H   1.0639489065 -0.9236344469  1.1059940899
H   0.8779311114 -1.1816924395 -0.6582837811
H   2.3967379442 -0.5425772870 -0.0312469938
7
Iter 122 Image 0  Energy = -4188.2527480593
C   0.8260657415  0.5508603911 -0.1261794589
H   0.4554445983  1.2417513435 -0.8784317668
O   0.5680753083  1.0246514429  1.1187434847
C   1.4411098584 -0.5873603774 -0.4363613732
H   0.9099091373  0.3932317500  1.7666320721
H   1.5916834696 -0.8592929697 -1.4741885892
H   1.8089534565 -1.2734747403  0.3237244514
7
Iter 122 Image 1  Energy = -4188.2200804225
C   0.8619351152  0.5763008969 -0.1513748968
H   0.4999016645  1.2702766562 -0.8953850348
O   0.6959664280  1.0691434494  1.1020394723
C   1.4043824993 -0.6002591044 -0.4223853184
H   0.8497556505  0.3369571284  1.7048750000
H   1.4209607210 -0.9995606247 -1.4226222119
H   1.8683399018 -1.1624926773  0.3787911514
7
Iter 122 Image 2  Energy = -4187.9677994719
C   0.8681983561  0.6220619307 -0.1759644072
H   0.4996997174  1.3290423417 -0.9174661090
O   0.7410116165  1.0339832648  1.1251381472
C   1.3906080706 -0.5653631166 -0.3935148276
H   0.7957308195  0.1630627196  1.5368945646
H   1.3665551788 -1.0949530080 -1.3299690949
H   1.9394380453 -0.9974678798  0.4488185087
7
Iter 122 Image 3  Energy = -4187.0798205009
C   0.9183937375  0.7263998071 -0.1808535812
H   0.4949594268  1.4161449887 -0.9174663072
O   0.8392784406  0.9627455992  1.1634680218
C   1.3345497487 -0.5337287553 -0.3412637275
H   0.7470856244 -0.0203326124  1.2715342907
H   1.2667732815 -1.2075613744 -1.1571795979
H   2.0002021827 -0.8533021353  0.4556970662
7
Iter 122 Image 4  Energy = -4186.6898440740
C   0.9019464015  0.8334603860 -0.0909762539
H   0.5211069166  1.4331329780 -0.9435214000
O   0.8712262212  1.2554132536  1.0663583679
C   1.2232229971 -0.5987284304 -0.1098348187
H   0.7326845191 -0.4434219674  0.9882535237
H   1.2225453434 -1.1720809018 -1.0629202237
H   2.1285098122 -0.8174096946  0.4465777299
7
Iter 122 Image 5  Energy = -4188.5499243608
C   0.9053471183  0.8908578377 -0.0237371881
H   0.5710408689  1.3315386655 -0.9787686290
O   0.9084148890  1.5253425290  1.0189253724
C   1.2350084355 -0.5663495321  0.0064319617
H   0.6155194769 -0.9068792346  0.8370989622
H   1.1193556623 -1.0954531004 -0.9508771101
H   2.2465555977 -0.6886915032  0.3848640788
7
Iter 122 Image 6  Energy = -4188.6634981355
C   0.8420459530  0.8867694651  0.0093292648
H   0.7149351796  1.3284973865 -0.9980919492
O   0.7071448322  1.5647154509  1.0053738723
C   1.2365519831 -0.5595296720  0.0512552390
H   0.7264425151 -1.0903677467  0.8546143825
H   1.0677483736 -1.0568921630 -0.9013122478
H   2.3063727374 -0.5828254806  0.2727709810
7
Iter 122 Image 7  Energy = -4188.6265260449
C   0.8062451718  0.8833142418 -0.0026989554
H   0.8404747753  1.3093785511 -1.0373316231
O   0.4450577172  1.5167300425  0.9080911998
C   1.2782254463 -0.5485396670  0.0859212519
H   0.8764192665 -0.9966445377  0.9896585538
H   0.9863624084 -1.1184475168 -0.7927014464
H   2.3684566642 -0.5554242580  0.1429998500
7
Iter 122 Image 8  Energy = -4188.6819968244
C   0.7840367852  0.8656586589 -0.0371164025
H   0.9809293880  1.3403901038 -1.0231241499
O   0.1875804579  1.4681235287  0.8223429327
C   1.3100769769 -0.5359012779  0.1153731248
H   1.0639489065 -0.9236344469  1.1059940899
H   0.8779311114 -1.1816924395 -0.6582837811
H   2.3967379442 -0.5425772870 -0.0312469938
7
Iter 123 Image 0  Energy = -4188.2527480593
C   0.8260657415  0.5508603911 -0.1261794589
H   0.4554445983  1.2417513435 -0.8784317668
O   0.5680753083  1.0246514429  1.1187434847
C   1.4411098584 -0.5873603774 -0.4363613732
H   0.9099091373  0.3932317500  1.7666320721
H   1.5916834696 -0.8592929697 -1.4741885892
H   1.8089534565 -1.2734747403  0.3237244514
7
Iter 123 Image 1  Energy = -4188.2205771080
C   0.8587337124  0.5756183807 -0.1517801092
H   0.4929182714  1.2632315881 -0.9009494230
O   0.6916138847  1.0707183078  1.1007132546
C   1.4069144787 -0.5990552240 -0.4200680404
H   0.8529086186  0.3394002634  1.7039458074
H   1.4229483129 -1.0012219185 -1.4189665543
H   1.8752046299 -1.1583254222  0.3810434493
7
Iter 123 Image 2  Energy = -4187.9737284800
C   0.8649750561  0.6364898938 -0.1694193077
H   0.5069482526  1.3331359538 -0.9121285172
O   0.7275087274  1.0253447927  1.1347431753
C   1.3983949524 -0.5671776798 -0.4001768416
H   0.7904773187  0.1540689469  1.5404979513
H   1.3743218167 -1.0885123153 -1.3357028698
H   1.9386155409 -1.0029830333  0.4361233087
7
Iter 123 Image 3  Energy = -4187.1564215443
C   0.9217176887  0.7218573034 -0.1807390326
H   0.5177099409  1.4323810072 -0.9073494457
O   0.8080426834  0.9649806288  1.1604749430
C   1.3380638644 -0.5431179613 -0.3437593642
H   0.7515469309 -0.0164135839  1.2904029634
H   1.2482018621 -1.2030000757 -1.1705817166
H   2.0159593811 -0.8663217699  0.4454883770
7
Iter 123 Image 4  Energy = -4186.6190395376
C   0.8900476354  0.8336310803 -0.0926732458
H   0.5563780152  1.4547567532 -0.9460206978
O   0.8223021632  1.2481499545  1.0787230107
C   1.2214884474 -0.6050464889 -0.1050913254
H   0.7624931855 -0.4321022478  1.0028570516
H   1.2032763534 -1.1763229755 -1.0700060136
H   2.1452563324 -0.8327003470  0.4261483646
7
Iter 123 Image 5  Energy = -4188.5564036092
C   0.9085402550  0.8937995667 -0.0170936958
H   0.5824423592  1.3453351252 -0.9781644478
O   0.8918420285  1.5133236018  1.0217523738
C   1.2362019191 -0.5707232490  0.0077097836
H   0.6151786732 -0.9036723506  0.8388782271
H   1.1127486819 -1.0904276750 -0.9531291330
H   2.2542880786 -0.6972692845  0.3739847331
7
Iter 123 Image 6  Energy = -4188.6416609010
C   0.8442934323  0.8814296493  0.0016771139
H   0.7092375376  1.3334517524 -0.9951707888
O   0.7119563327  1.5654844527  1.0118758919
C   1.2375769225 -0.5622137061  0.0474983985
H   0.7207471068 -1.0816703019  0.8552604923
H   1.0713804240 -1.0674834388 -0.9045092181
H   2.3060498174 -0.5786312008  0.2773075557
7
Iter 123 Image 7  Energy = -4188.6630319974
C   0.8147075518  0.8684198160 -0.0270539360
H   0.8361611122  1.3087755536 -1.0375060487
O   0.4384337953  1.5315859379  0.9300577331
C   1.2786751919 -0.5474992403  0.0865921608
H   0.8753509085 -0.9959197924  0.9896142944
H   0.9887094399 -1.1197623229 -0.7930240351
H   2.3692034807 -0.5552331032  0.1452586503
7
Iter 123 Image 8  Energy = -4188.6819968244
C   0.7840367852  0.8656586589 -0.0371164025
H   0.9809293880  1.3403901038 -1.0231241499
O   0.1875804579  1.4681235287  0.8223429327
C   1.3100769769 -0.5359012779  0.1153731248
H   1.0639489065 -0.9236344469  1.1059940899
H   0.8779311114 -1.1816924395 -0.6582837811
H   2.3967379442 -0.5425772870 -0.0312469938
7
Iter 124 Image 0  Energy = -4188.2527480593
C   0.8260657415  0.5508603911 -0.1261794589
H   0.4554445983  1.2417513435 -0.8784317668
O   0.5680753083  1.0246514429  1.1187434847
C   1.4411098584 -0.5873603774 -0.4363613732
H   0.9099091373  0.3932317500  1.7666320721
H   1.5916834696 -0.8592929697 -1.4741885892
H   1.8089534565 -1.2734747403  0.3237244514
7
Iter 124 Image 1  Energy = -4188.2205091438
C   0.8610673620  0.5786123088 -0.1500413457
H   0.4981433268  1.2667780527 -0.8996788297
O   0.6923006555  1.0682137547  1.1043219385
C   1.4067920820 -0.5968687652 -0.4206763895
H   0.8501620355  0.3316545844  1.7017180824
H   1.4230720803 -0.9959797707 -1.4200322173
H   1.8697043639 -1.1620442481  0.3783270069
7
Iter 124 Image 2  Energy = -4187.9747958204
C   0.8710849003  0.6351517404 -0.1727057689
H   0.5075436503  1.3345362137 -0.9102350784
O   0.7381873591  1.0294351775  1.1286420167
C   1.3949641293 -0.5678180826 -0.3991816536
H   0.7924306435  0.1608476615  1.5406646875
H   1.3601227044 -1.0994375877 -1.3272053602
H   1.9369084344 -1.0023489274  0.4339581793
7
Iter 124 Image 3  Energy = -4187.1224143526
C   0.9160264874  0.7149323261 -0.1838483764
H   0.5161989931  1.4271543386 -0.9047836042
O   0.8088128861  0.9772614557  1.1495248520
C   1.3355826963 -0.5490191654 -0.3351929060
H   0.7519126227 -0.0202709798  1.2837890340
H   1.2507804068 -1.2001420947 -1.1678490464
H   2.0219282406 -0.8595503389  0.4522967133
7
Iter 124 Image 4  Energy = -4186.6222437492
C   0.8892230058  0.8316085887 -0.0926792240
H   0.5453704994  1.4472883959 -0.9404826954
O   0.8355378042  1.2501210530  1.0652988733
C   1.2231149452 -0.6034736684 -0.1076628527
H   0.7626004421 -0.4310064465  1.0027092428
H   1.2105320853 -1.1766287969 -1.0694212348
H   2.1348633965 -0.8275434558  0.4361748447
7
Iter 124 Image 5  Energy = -4188.5371336511
C   0.9035380524  0.8891852187 -0.0228082301
H   0.5897457018  1.3564475528 -0.9788315705
O   0.8704872417  1.5014430742  1.0164384774
C   1.2406904398 -0.5703264645  0.0042877820
H   0.6304612367 -0.8800461726  0.8499222314
H   1.1091188452 -1.1027491910 -0.9434208882
H   2.2572005022 -0.7035883410  0.3683498190
7
Iter 124 Image 6  Energy = -4188.6642374119
C   0.8452162523  0.8850237360  0.0096748695
H   0.7097128755  1.3258947726 -0.9951607219
O   0.7053061863  1.5683709369  1.0033801003
C   1.2419350093 -0.5612796028  0.0507318966
H   0.7214497804 -1.0820531737  0.8541451226
H   1.0675430058 -1.0564871488 -0.9030228663
H   2.3100784654 -0.5891023449  0.2741910254
7
Iter 124 Image 7  Energy = -4188.6783955118
C   0.8128111341  0.8715851622 -0.0212141453
H   0.8390038087  1.3079559074 -1.0370417069
O   0.4394067891  1.5301027226  0.9247844820
C   1.2777581367 -0.5477319257  0.0870520086
H   0.8766631500 -0.9989072399  0.9894237486
H   0.9875124534 -1.1184176433 -0.7928515261
H   2.3680860219 -0.5542201405  0.1437859564
7
Iter 124 Image 8  Energy = -4188.6819968244
C   0.7840367852  0.8656586589 -0.0371164025
H   0.9809293880  1.3403901038 -1.0231241499
O   0.1875804579  1.4681235287  0.8223429327
C   1.3100769769 -0.5359012779  0.1153731248
H   1.0639489065 -0.9236344469  1.1059940899
H   0.8779311114 -1.1816924395 -0.6582837811
H   2.3967379442 -0.5425772870 -0.0312469938
7
Iter 125 Image 0  Energy = -4188.2527480593
C   0.8260657415  0.5508603911 -0.1261794589
H   0.4554445983  1.2417513435 -0.8784317668
O   0.5680753083  1.0246514429  1.1187434847
C   1.4411098584 -0.5873603774 -0.4363613732
H   0.9099091373  0.3932317500  1.7666320721
H   1.5916834696 -0.8592929697 -1.4741885892
H   1.8089534565 -1.2734747403  0.3237244514
7
Iter 125 Image 1  Energy = -4188.2198310068
C   0.8628326594  0.5824491415 -0.1480047921
H   0.5019377164  1.2682613306 -0.9003555172
O   0.6907642596  1.0652995084  1.1086509910
C   1.4079883462 -0.5928458901 -0.4203345474
H   0.8477114221  0.3214719674  1.6978430213
H   1.4243421170 -0.9893268970 -1.4196037637
H   1.8656653419 -1.1649431828  0.3757427738
7
Iter 125 Image 2  Energy = -4187.9726185820
C   0.8806879282  0.6343374644 -0.1747520871
H   0.5124917407  1.3410583123 -0.9043915726
O   0.7460258234  1.0318327735  1.1239468069
C   1.3915610757 -0.5650869611 -0.4002932680
H   0.7924000503  0.1642886406  1.5426031678
H   1.3425144194 -1.1113925908 -1.3187257144
H   1.9355609388 -1.0046718034  0.4255499487
7
Iter 125 Image 3  Energy = -4187.0722980222
C   0.9067822377  0.7038152306 -0.1872107676
H   0.5289345136  1.4274570164 -0.8982762351
O   0.7932083589  0.9940838341  1.1322554758
C   1.3314559355 -0.5612493569 -0.3203053190
H   0.7566475379 -0.0229241989  1.2827355367
H   1.2447207595 -1.1920632745 -1.1696107515
H   2.0394929024 -0.8587536911  0.4543489684
7
Iter 125 Image 4  Energy = -4186.5701758957
C   0.8850385761  0.8261085032 -0.0950442458
H   0.5476541311  1.4495164883 -0.9342392050
O   0.8263154209  1.2489689688  1.0530387304
C   1.2236330033 -0.6027269275 -0.1119692991
H   0.7787835381 -0.4245233695  1.0135487147
H   1.2108713449 -1.1783556815 -1.0709917909
H   2.1289461869 -0.8286223393  0.4395939094
7
Iter 125 Image 5  Energy = -4188.4903474471
C   0.8965541156  0.8821481734 -0.0306157774
H   0.6088563766  1.3799603071 -0.9784237317
O   0.8286047432  1.4783252852  1.0132920311
C   1.2488063144 -0.5696509348 -0.0010134094
H   0.6541891821 -0.8426754466  0.8687725046
H   1.0994751298 -1.1194849547 -0.9314682820
H   2.2647561646 -0.7182567937  0.3533941809
7
Iter 125 Image 6  Energy = -4188.6722531936
C   0.8470694951  0.8886458529  0.0178073049
H   0.7070568159  1.3172597106 -0.9939883709
O   0.6994036499  1.5712801511  0.9936720427
C   1.2479801527 -0.5603325587  0.0537759100
H   0.7196258247 -1.0778352867  0.8523800751
H   1.0642582975 -1.0459523908 -0.9020692283
H   2.3158473402 -0.6026983710  0.2723616082
7
Iter 125 Image 7  Energy = -4188.6822760573
C   0.8106933676  0.8747663813 -0.0156951029
H   0.8406891416  1.3064501196 -1.0366553969
O   0.4412553075  1.5293990460  0.9192571728
C   1.2766860061 -0.5477173460  0.0877632723
H   0.8779342433 -1.0027544782  0.9889696809
H   0.9872281889 -1.1171783319 -0.7926862276
H   2.3667552774 -0.5525985624  0.1429854056
7
Iter 125 Image 8  Energy = -4188.6819968244
C   0.7840367852  0.8656586589 -0.0371164025
H   0.9809293880  1.3403901038 -1.0231241499
O   0.1875804579  1.4681235287  0.8223429327
C   1.3100769769 -0.5359012779  0.1153731248
H   1.0639489065 -0.9236344469  1.1059940899
H   0.8779311114 -1.1816924395 -0.6582837811
H   2.3967379442 -0.5425772870 -0.0312469938
7
Iter 126 Image 0  Energy = -4188.2527480593
C   0.8260657415  0.5508603911 -0.1261794589
H   0.4554445983  1.2417513435 -0.8784317668
O   0.5680753083  1.0246514429  1.1187434847
C   1.4411098584 -0.5873603774 -0.4363613732
H   0.9099091373  0.3932317500  1.7666320721
H   1.5916834696 -0.8592929697 -1.4741885892
H   1.8089534565 -1.2734747403  0.3237244514
7
Iter 126 Image 1  Energy = -4188.2194637677
C   0.8635440276  0.5836086962 -0.1474880969
H   0.5030735857  1.2686245581 -0.9003138899
O   0.6904295835  1.0643046687  1.1098848922
C   1.4083898884 -0.5915597133 -0.4201439484
H   0.8469093248  0.3184821110  1.6963800696
H   1.4247296887 -0.9872784283 -1.4193441479
H   1.8641657547 -1.1658159048  0.3749632500
7
Iter 126 Image 2  Energy = -4187.9710682353
C   0.8830066648  0.6347016227 -0.1764374897
H   0.5138742678  1.3435420213 -0.9012660939
O   0.7489608244  1.0319208384  1.1210458875
C   1.3915173605 -0.5664180644 -0.4009392284
H   0.7919641857  0.1662464567  1.5433258646
H   1.3361573374 -1.1145202851 -1.3154172637
H   1.9357613916 -1.0051068794  0.4236256715
7
Iter 126 Image 3  Energy = -4187.0494399315
C   0.9019771801  0.6998173446 -0.1871667296
H   0.5340813547  1.4264837751 -0.8980675876
O   0.7892979840  0.9991904420  1.1263640636
C   1.3287023739 -0.5643139583 -0.3148239850
H   0.7585456113 -0.0230369524  1.2822721855
H   1.2435762385 -1.1876217385 -1.1683776558
H   2.0450614764 -0.8601533418  0.4537366672
7
Iter 126 Image 4  Energy = -4186.5547866768
C   0.8863063212  0.8246630068 -0.0965286367
H   0.5477426561  1.4511087652 -0.9306273499
O   0.8230860611  1.2478895324  1.0471005347
C   1.2249580503 -0.6014291415 -0.1148349789
H   0.7830217723 -0.4242131311  1.0184460875
H   1.2103249947 -1.1788809115 -1.0693887639
H   2.1258023641 -0.8287724943  0.4397698518
7
Iter 126 Image 5  Energy = -4188.4723949751
C   0.8936467856  0.8803054778 -0.0334317641
H   0.6152897535  1.3865636694 -0.9771529670
O   0.8162728900  1.4715005286  1.0123876447
C   1.2515531284 -0.5680389148 -0.0035903745
H   0.6619263151 -0.8308691624  0.8742357811
H   1.0962397523 -1.1257101308 -0.9276243723
H   2.2663134097 -0.7233858437  0.3491135080
7
Iter 126 Image 6  Energy = -4188.6726685634
C   0.8476593708  0.8879833694  0.0174009438
H   0.7066674627  1.3142466971 -0.9936963164
O   0.6968432576  1.5732656966  0.9932009643
C   1.2495932457 -0.5590350297  0.0550326836
H   0.7196726835 -1.0766381063  0.8514980154
H   1.0632722887 -1.0420614575 -0.9008843571
H   2.3175332652 -0.6073940812  0.2713873870
7
Iter 126 Image 7  Energy = -4188.6824079475
C   0.8107923510  0.8744328122 -0.0157353850
H   0.8413226914  1.3059491750 -1.0360843071
O   0.4412251756  1.5302763598  0.9189245411
C   1.2762577617 -0.5475437787  0.0880012359
H   0.8784099934 -1.0040289218  0.9886870025
H   0.9870792782 -1.1166165563 -0.7925154995
H   2.3661542913 -0.5521022667  0.1426612119
7
Iter 126 Image 8  Energy = -4188.6819968244
C   0.7840367852  0.8656586589 -0.0371164025
H   0.9809293880  1.3403901038 -1.0231241499
O   0.1875804579  1.4681235287  0.8223429327
C   1.3100769769 -0.5359012779  0.1153731248
H   1.0639489065 -0.9236344469  1.1059940899
H   0.8779311114 -1.1816924395 -0.6582837811
H   2.3967379442 -0.5425772870 -0.0312469938
7
Iter 127 Image 0  Energy = -4188.2527480593
C   0.8260657415  0.5508603911 -0.1261794589
H   0.4554445983  1.2417513435 -0.8784317668
O   0.5680753083  1.0246514429  1.1187434847
C   1.4411098584 -0.5873603774 -0.4363613732
H   0.9099091373  0.3932317500  1.7666320721
H   1.5916834696 -0.8592929697 -1.4741885892
H   1.8089534565 -1.2734747403  0.3237244514
7
Iter 127 Image 1  Energy = -4188.2193215361
C   0.8632698959  0.5833995097 -0.1477290281
H   0.5012741440  1.2669985228 -0.9009176988
O   0.6896587021  1.0646341716  1.1089858546
C   1.4091795644 -0.5912410232 -0.4195560934
H   0.8474764183  0.3190030861  1.6955657778
H   1.4251592815 -0.9876700876 -1.4181550961
H   1.8652238366 -1.1647581545  0.3757444297
7
Iter 127 Image 2  Energy = -4187.9716748914
C   0.8834795767  0.6323371301 -0.1772528813
H   0.5150019089  1.3475385338 -0.8976931054
O   0.7468579704  1.0300870893  1.1195770274
C   1.3929028213 -0.5660050649 -0.4013776067
H   0.7897132555  0.1653662382  1.5442810270
H   1.3350010474 -1.1126883030 -1.3167839817
H   1.9382854450 -1.0062698789  0.4231868693
7
Iter 127 Image 3  Energy = -4187.0531295410
C   0.8977704280  0.6995060284 -0.1856637575
H   0.5433270718  1.4276312419 -0.9012119241
O   0.7837329823  0.9989270569  1.1258307161
C   1.3257709638 -0.5653412699 -0.3112793392
H   0.7615854024 -0.0208565299  1.2861309338
H   1.2405192860 -1.1819423422 -1.1667295553
H   2.0485360623 -0.8675585930  0.4468599542
7
Iter 127 Image 4  Energy = -4186.5421035087
C   0.8904919233  0.8237564579 -0.1028196586
H   0.5546741910  1.4593910579 -0.9280493629
O   0.8094319234  1.2452339891  1.0486277398
C   1.2263249761 -0.5999406092 -0.1165918348
H   0.7888412835 -0.4257715238  1.0264990589
H   1.2039384810 -1.1798517730 -1.0665942887
H   2.1275394580 -0.8324519678  0.4328650785
7
Iter 127 Image 5  Energy = -4188.4669263980
C   0.8929843113  0.8821022812 -0.0323059309
H   0.6199019448  1.3890934903 -0.9744741253
O   0.8123594642  1.4686204065  1.0132451218
C   1.2518729230 -0.5663865760 -0.0058327026
H   0.6645789558 -0.8278248598  0.8742013131
H   1.0935945037 -1.1279070810 -0.9278548633
H   2.2659499396 -0.7273320259  0.3469586533
7
Iter 127 Image 6  Energy = -4188.6710985920
C   0.8465416237  0.8898509480  0.0195988648
H   0.7063289886  1.3145723178 -0.9944193884
O   0.6974280037  1.5692054252  0.9911464881
C   1.2494900607 -0.5576897494  0.0545660987
H   0.7199027459 -1.0748632343  0.8509360337
H   1.0642217311 -1.0427941837 -0.8992267376
H   2.3173284169 -0.6079144349  0.2713379529
7
Iter 127 Image 7  Energy = -4188.6822992882
C   0.8114308475  0.8730968209 -0.0174699222
H   0.8407704528  1.3058287896 -1.0356093814
O   0.4409876371  1.5313574031  0.9199457989
C   1.2762268509 -0.5473368861  0.0880258607
H   0.8784396105 -1.0039763928  0.9883927076
H   0.9874624692 -1.1165910312 -0.7922567549
H   2.3659236835 -0.5520118822  0.1429104854
7
Iter 127 Image 8  Energy = -4188.6819968244
C   0.7840367852  0.8656586589 -0.0371164025
H   0.9809293880  1.3403901038 -1.0231241499
O   0.1875804579  1.4681235287  0.8223429327
C   1.3100769769 -0.5359012779  0.1153731248
H   1.0639489065 -0.9236344469  1.1059940899
H   0.8779311114 -1.1816924395 -0.6582837811
H   2.3967379442 -0.5425772870 -0.0312469938
7
Iter 128 Image 0  Energy = -4188.2527480593
C   0.8260657415  0.5508603911 -0.1261794589
H   0.4554445983  1.2417513435 -0.8784317668
O   0.5680753083  1.0246514429  1.1187434847
C   1.4411098584 -0.5873603774 -0.4363613732
H   0.9099091373  0.3932317500  1.7666320721
H   1.5916834696 -0.8592929697 -1.4741885892
H   1.8089534565 -1.2734747403  0.3237244514
7
Iter 128 Image 1  Energy = -4188.2192859075
C   0.8632137727  0.5832807558 -0.1478834247
H   0.5007212608  1.2666188000 -0.9010008091
O   0.6895262530  1.0647733498  1.1086710088
C   1.4094119529 -0.5912482748 -0.4194012032
H   0.8476206604  0.3192995329  1.6953468829
H   1.4252335983 -0.9879065205 -1.4178673864
H   1.8655143436 -1.1644516121  0.3760730765
7
Iter 128 Image 2  Energy = -4187.9719938061
C   0.8828554084  0.6326948578 -0.1774668727
H   0.5153674687  1.3484079459 -0.8966424272
O   0.7463909746  1.0295145960  1.1190603869
C   1.3937871041 -0.5671934930 -0.4014358396
H   0.7890457829  0.1654278854  1.5444267181
H   1.3346423401 -1.1120150859 -1.3172140224
H   1.9391529469 -1.0064709533  0.4232093967
7
Iter 128 Image 3  Energy = -4187.0535353890
C   0.8971821940  0.6993710178 -0.1855174811
H   0.5456929965  1.4279500182 -0.9026155044
O   0.7824758981  0.9991101860  1.1264074000
C   1.3246285952 -0.5651050670 -0.3104675630
H   0.7625006136 -0.0206699211  1.2874314333
H   1.2397105054 -1.1805130144 -1.1660725286
H   2.0490513907 -0.8697776206  0.4447712718
7
Iter 128 Image 4  Energy = -4186.5402018225
C   0.8916063596  0.8245244187 -0.1021767637
H   0.5564985234  1.4620343350 -0.9276515049
O   0.8060714234  1.2432019495  1.0468603854
C   1.2266649677 -0.5997468222 -0.1166287192
H   0.7902605390 -0.4259172969  1.0285257467
H   1.2020376230 -1.1801747458 -1.0657834874
H   2.1281028099 -0.8335562067  0.4307910599
7
Iter 128 Image 5  Energy = -4188.4659708163
C   0.8933437011  0.8821532379 -0.0326236448
H   0.6208354835  1.3897246524 -0.9738912114
O   0.8117198800  1.4686749479  1.0144940976
C   1.2517202187 -0.5660860945 -0.0065870895
H   0.6652805141 -0.8272491142  0.8739330762
H   1.0928470955 -1.1285506398 -0.9279878642
H   2.2654951544 -0.7283013538  0.3466000897
7
Iter 128 Image 6  Energy = -4188.6729508510
C   0.8466413517  0.8883648203  0.0169731799
H   0.7063851606  1.3146722452 -0.9945906071
O   0.6970096525  1.5699255623  0.9936116918
C   1.2495002281 -0.5571597804  0.0546584420
H   0.7201202136 -1.0744829358  0.8508465852
H   1.0644344546 -1.0429347569 -0.8987705502
H   2.3171505082 -0.6080180647  0.2712105717
7
Iter 128 Image 7  Energy = -4188.6823521724
C   0.8113868630  0.8731116155 -0.0173636423
H   0.8407236488  1.3058437748 -1.0355474561
O   0.4410235791  1.5312790169  0.9197388340
C   1.2762415517 -0.5473436082  0.0880218186
H   0.8784776282 -1.0039261818  0.9883592321
H   0.9874998995 -1.1166034612 -0.7921851495
H   2.3658883831 -0.5519943355  0.1429151558
7
Iter 128 Image 8  Energy = -4188.6819968244
C   0.7840367852  0.8656586589 -0.0371164025
H   0.9809293880  1.3403901038 -1.0231241499
O   0.1875804579  1.4681235287  0.8223429327
C   1.3100769769 -0.5359012779  0.1153731248
H   1.0639489065 -0.9236344469  1.1059940899
H   0.8779311114 -1.1816924395 -0.6582837811
H   2.3967379442 -0.5425772870 -0.0312469938
7
Iter 129 Image 0  Energy = -4188.2527480593
C   0.8260657415  0.5508603911 -0.1261794589
H   0.4554445983  1.2417513435 -0.8784317668
O   0.5680753083  1.0246514429  1.1187434847
C   1.4411098584 -0.5873603774 -0.4363613732
H   0.9099091373  0.3932317500  1.7666320721
H   1.5916834696 -0.8592929697 -1.4741885892
H   1.8089534565 -1.2734747403  0.3237244514
7
Iter 129 Image 1  Energy = -4188.2192211619
C   0.8629007100  0.5829763080 -0.1482365986
H   0.4993553334  1.2656608060 -0.9013838299
O   0.6890774143  1.0651149618  1.1080077728
C   1.4099382646 -0.5912879609 -0.4190335156
H   0.8480298037  0.3200835907  1.6949991997
H   1.4254353106 -0.9885442394 -1.4172499643
H   1.8665050002 -1.1636374093  0.3768350881
7
Iter 129 Image 2  Energy = -4187.9723569772
C   0.8822230959  0.6323048848 -0.1773504229
H   0.5163424751  1.3502669812 -0.8950900856
O   0.7446217875  1.0284808374  1.1190110417
C   1.3947876165 -0.5676771003 -0.4015406041
H   0.7877358672  0.1646961099  1.5447078154
H   1.3346761036 -1.1104806684 -1.3186832179
H   1.9408550700 -1.0072252541  0.4228828007
7
Iter 129 Image 3  Energy = -4187.0564952290
C   0.8967024024  0.6997758849 -0.1848889272
H   0.5507061515  1.4295268859 -0.9046526986
O   0.7789333125  0.9987842610  1.1274703931
C   1.3229269703 -0.5650923017 -0.3093174500
H   0.7643941824 -0.0202222586  1.2904238244
H   1.2372790092 -1.1783273046 -1.1657302799
H   2.0503001576 -0.8740795538  0.4406321881
7
Iter 129 Image 4  Energy = -4186.5329267180
C   0.8925817628  0.8254965139 -0.1022542114
H   0.5617167980  1.4675520234 -0.9275707090
O   0.7976793813  1.2398630113  1.0461072890
C   1.2268419839 -0.5999020630 -0.1161762878
H   0.7941568170 -0.4255192001  1.0327100435
H   1.1978225217 -1.1807497067 -1.0649824784
H   2.1304429912 -0.8363749410  0.4261030582
7
Iter 129 Image 5  Energy = -4188.4642462602
C   0.8942909638  0.8826150436 -0.0323231037
H   0.6228899617  1.3914093271 -0.9730596358
O   0.8101027250  1.4681261593  1.0165999214
C   1.2514364958 -0.5659347355 -0.0076995843
H   0.6663092879 -0.8264876658  0.8736403095
H   1.0912548598 -1.1291873525 -0.9286787257
H   2.2649577621 -0.7301751315  0.3454582749
7
Iter 129 Image 6  Energy = -4188.6729726514
C   0.8464536390  0.8877592727  0.0153844198
H   0.7061380303  1.3153333480 -0.9950309606
O   0.6971477996  1.5690716634  0.9952663109
C   1.2494520420 -0.5566667585  0.0544074893
H   0.7201750538 -1.0734193080  0.8508321400
H   1.0650607187 -1.0439670215 -0.8982457008
H   2.3168142844 -0.6077441053  0.2713256118
7
Iter 129 Image 7  Energy = -4188.6824864766
C   0.8111132178  0.8734644153 -0.0168133892
H   0.8403893173  1.3058796323 -1.0355958747
O   0.4413502758  1.5308493305  0.9190742699
C   1.2763272399 -0.5473773559  0.0879879823
H   0.8784360465 -1.0037308399  0.9883283203
H   0.9877033829 -1.1167417993 -0.7921140111
H   2.3659220770 -0.5519765626  0.1430714918
7
Iter 129 Image 8  Energy = -4188.6819968244
C   0.7840367852  0.8656586589 -0.0371164025
H   0.9809293880  1.3403901038 -1.0231241499
O   0.1875804579  1.4681235287  0.8223429327
C   1.3100769769 -0.5359012779  0.1153731248
H   1.0639489065 -0.9236344469  1.1059940899
H   0.8779311114 -1.1816924395 -0.6582837811
H   2.3967379442 -0.5425772870 -0.0312469938
7
Iter 130 Image 0  Energy = -4188.2527480593
C   0.8260657415  0.5508603911 -0.1261794589
H   0.4554445983  1.2417513435 -0.8784317668
O   0.5680753083  1.0246514429  1.1187434847
C   1.4411098584 -0.5873603774 -0.4363613732
H   0.9099091373  0.3932317500  1.7666320721
H   1.5916834696 -0.8592929697 -1.4741885892
H   1.8089534565 -1.2734747403  0.3237244514
7
Iter 130 Image 1  Energy = -4188.2189939192
C   0.8623402103  0.5825753991 -0.1488634581
H   0.4968565874  1.2639890369 -0.9021500538
O   0.6881202917  1.0656078158  1.1069628933
C   1.4110851555 -0.5912222588 -0.4183048285
H   0.8486286716  0.3211203585  1.6941108446
H   1.4258874386 -0.9895431830 -1.4161000514
H   1.8683234696 -1.1621610589  0.3782828163
7
Iter 130 Image 2  Energy = -4187.9722608796
C   0.8815042612  0.6315654901 -0.1769565907
H   0.5188893072  1.3539740702 -0.8921468984
O   0.7415103166  1.0267682468  1.1190692596
C   1.3961050136 -0.5684001209 -0.4017244459
H   0.7853002044  0.1634857297  1.5452383151
H   1.3337140648 -1.1080852505 -1.3210815529
H   1.9442188384 -1.0089423241  0.4215392345
7
Iter 130 Image 3  Energy = -4187.0552852845
C   0.8960228239  0.7007054868 -0.1835066115
H   0.5611286152  1.4331147929 -0.9079951524
O   0.7710757759  0.9988674660  1.1285220406
C   1.3194284397 -0.5659215165 -0.3067736932
H   0.7685431510 -0.0200272457  1.2962756537
H   1.2317095939 -1.1742760147 -1.1654465194
H   2.0533337712 -0.8820973280  0.4328613734
7
Iter 130 Image 4  Energy = -4186.5137251562
C   0.8929395587  0.8271884251 -0.1028217387
H   0.5731323532  1.4783831059 -0.9275218905
O   0.7803017483  1.2333787644  1.0447105239
C   1.2270148311 -0.6007359365 -0.1147447622
H   0.8031774396 -0.4237330768  1.0415789044
H   1.1893352579 -1.1817827608 -1.0638253120
H   2.1353410905 -0.8423328740  0.4165609411
7
Iter 130 Image 5  Energy = -4188.4566256276
C   0.8960644580  0.8835183115 -0.0314342176
H   0.6281752362  1.3966427031 -0.9717141594
O   0.8042184195  1.4650584051  1.0199827398
C   1.2512793968 -0.5660614381 -0.0101116702
H   0.6699218637 -0.8227041162  0.8745686815
H   1.0872785589 -1.1313766734 -0.9294146028
H   2.2643041411 -0.7347115362  0.3420606726
7
Iter 130 Image 6  Energy = -4188.6727271250
C   0.8461769666  0.8875109668  0.0139358724
H   0.7054668915  1.3162699575 -0.9959641395
O   0.6970446914  1.5670015742  0.9969718290
C   1.2497830662 -0.5559706488  0.0539822985
H   0.7201479825 -1.0710807201  0.8509156604
H   1.0660415785 -1.0454471966 -0.8973599563
H   2.3165803873 -0.6079168414  0.2714577339
7
Iter 130 Image 7  Energy = -4188.6824314764
C   0.8108138318  0.8737638475 -0.0163818946
H   0.8398536381  1.3058503728 -1.0356869147
O   0.4417608779  1.5305873731  0.9184367069
C   1.2764232913 -0.5474182214  0.0879965482
H   0.8783819647 -1.0036307170  0.9882900975
H   0.9880440007 -1.1169401500 -0.7920567261
H   2.3659639638 -0.5518456900  0.1433409659
7
Iter 130 Image 8  Energy = -4188.6819968244
C   0.7840367852  0.8656586589 -0.0371164025
H   0.9809293880  1.3403901038 -1.0231241499
O   0.1875804579  1.4681235287  0.8223429327
C   1.3100769769 -0.5359012779  0.1153731248
H   1.0639489065 -0.9236344469  1.1059940899
H   0.8779311114 -1.1816924395 -0.6582837811
H   2.3967379442 -0.5425772870 -0.0312469938
7
Iter 131 Image 0  Energy = -4188.2527480593
C   0.8260657415  0.5508603911 -0.1261794589
H   0.4554445983  1.2417513435 -0.8784317668
O   0.5680753083  1.0246514429  1.1187434847
C   1.4411098584 -0.5873603774 -0.4363613732
H   0.9099091373  0.3932317500  1.7666320721
H   1.5916834696 -0.8592929697 -1.4741885892
H   1.8089534565 -1.2734747403  0.3237244514
7
Iter 131 Image 1  Energy = -4188.2185617259
C   0.8616545715  0.5821160625 -0.1496848799
H   0.4937372671  1.2621348636 -0.9030573222
O   0.6868351734  1.0661023089  1.1057344912
C   1.4126893170 -0.5910391878 -0.4173800528
H   0.8491062267  0.3221287342  1.6927956144
H   1.4265165812 -0.9908277686 -1.4147039884
H   1.8707026734 -1.1602488344  0.3802342931
7
Iter 131 Image 2  Energy = -4187.9712016156
C   0.8810735011  0.6307793135 -0.1761564749
H   0.5233947060  1.3583662663 -0.8887974741
O   0.7377497050  1.0250212417  1.1194272957
C   1.3965943259 -0.5693309714 -0.4018724943
H   0.7824617038  0.1622255583  1.5460008871
H   1.3312212388 -1.1051615144 -1.3234388831
H   1.9487468290 -1.0115340098  0.4187744554
7
Iter 131 Image 3  Energy = -4187.0435977972
C   0.8956485432  0.7026091308 -0.1810563238
H   0.5757100793  1.4387626699 -0.9112376836
O   0.7602999242  0.9989878035  1.1287125135
C   1.3144554445 -0.5673573161 -0.3034349725
H   0.7748549201 -0.0208436446  1.3034538389
H   1.2230553681 -1.1698015793 -1.1654473777
H   2.0572178815 -0.8919913935  0.4229470888
7
Iter 131 Image 4  Energy = -4186.4837168178
C   0.8910420296  0.8283482595 -0.1045681380
H   0.5908106007  1.4924526220 -0.9277447989
O   0.7555211760  1.2256855073  1.0437749669
C   1.2269449293 -0.6024250282 -0.1123083552
H   0.8167606720 -0.4201308181  1.0546234244
H   1.1774556937 -1.1825483518 -1.0622665998
H   2.1427072173 -0.8510165401  0.4024260870
7
Iter 131 Image 5  Energy = -4188.4414960912
C   0.8981041282  0.8846241258 -0.0312651877
H   0.6371511938  1.4057957164 -0.9697641445
O   0.7935335790  1.4589299720  1.0242524625
C   1.2514440443 -0.5664646062 -0.0133223897
H   0.6765861096 -0.8154887285  0.8779299463
H   1.0805907137 -1.1352771088 -0.9298697035
H   2.2638323439 -0.7417537036  0.3359763999
7
Iter 131 Image 6  Energy = -4188.6723336300
C   0.8461605466  0.8873758187  0.0126004521
H   0.7045271149  1.3172116832 -0.9970951841
O   0.6960326514  1.5645594729  0.9985632385
C   1.2505358452 -0.5553268967  0.0535242863
H   0.7201394727 -1.0677777326  0.8513434262
H   1.0669763670 -1.0468130824 -0.8964667359
H   2.3168695628 -0.6088621751  0.2714697987
7
Iter 131 Image 7  Energy = -4188.6823596230
C   0.8105864359  0.8738968426 -0.0162282924
H   0.8394072667  1.3057329463 -1.0358580869
O   0.4420432695  1.5306828503  0.9181264619
C   1.2764615572 -0.5474641838  0.0880436882
H   0.8783662884 -1.0037955681  0.9883284890
H   0.9883484407 -1.1171118064 -0.7920619429
H   2.3660283222 -0.5515742729  0.1435884544
7
Iter 131 Image 8  Energy = -4188.6819968244
C   0.7840367852  0.8656586589 -0.0371164025
H   0.9809293880  1.3403901038 -1.0231241499
O   0.1875804579  1.4681235287  0.8223429327
C   1.3100769769 -0.5359012779  0.1153731248
H   1.0639489065 -0.9236344469  1.1059940899
H   0.8779311114 -1.1816924395 -0.6582837811
H   2.3967379442 -0.5425772870 -0.0312469938
7
Iter 132 Image 0  Energy = -4188.2527480593
C   0.8260657415  0.5508603911 -0.1261794589
H   0.4554445983  1.2417513435 -0.8784317668
O   0.5680753083  1.0246514429  1.1187434847
C   1.4411098584 -0.5873603774 -0.4363613732
H   0.9099091373  0.3932317500  1.7666320721
H   1.5916834696 -0.8592929697 -1.4741885892
H   1.8089534565 -1.2734747403  0.3237244514
7
Iter 132 Image 1  Energy = -4188.2168921402
C   0.8595630288  0.5808072136 -0.1520986201
H   0.4847472276  1.2572164520 -0.9054549398
O   0.6829485982  1.0675456418  1.1018173546
C   1.4175613592 -0.5906642055 -0.4149135255
H   0.8498851392  0.3247281285  1.6890391000
H   1.4283959605 -0.9950361943 -1.4105617695
H   1.8781404596 -1.1542306472  0.3861104643
7
Iter 132 Image 2  Energy = -4187.9645805082
C   0.8804121069  0.6292875523 -0.1724800805
H   0.5397906023  1.3700294915 -0.8808305855
O   0.7268607299  1.0208722135  1.1212887081
C   1.3953982449 -0.5720481059 -0.4009174329
H   0.7753553246  0.1587727426  1.5486319424
H   1.3214641785 -1.0963661099 -1.3299447836
H   1.9619608666 -1.0201817984  0.4081894902
7
Iter 132 Image 3  Energy = -4186.9693717232
C   0.8951091201  0.7092206932 -0.1753819833
H   0.6222845805  1.4587563516 -0.9177519994
O   0.7271645863  0.9981524637  1.1310010786
C   1.2985538435 -0.5719632345 -0.2938806437
H   0.7965048420 -0.0255674092  1.3216989241
H   1.1935335521 -1.1582126893 -1.1642651794
H   2.0680916487 -0.9200204014  0.3925167335
7
Iter 132 Image 4  Energy = -4186.3749444878
C   0.8809935656  0.8298727386 -0.1038610636
H   0.6506849947  1.5335712146 -0.9299167204
O   0.6755336460  1.2027638855  1.0369913608
C   1.2257110306 -0.6080253286 -0.1041449741
H   0.8616829270 -0.4058112323  1.0977075656
H   1.1397472248 -1.1832337604 -1.0577399242
H   2.1668890725 -0.8787718395  0.3548999952
7
Iter 132 Image 5  Energy = -4188.3830472103
C   0.9031227653  0.8887702186 -0.0298639280
H   0.6692790385  1.4378337430 -0.9637811547
O   0.7558268167  1.4352000894  1.0342825473
C   1.2510571376 -0.5683184208 -0.0229326871
H   0.7007680851 -0.7900657786  0.8927255043
H   1.0569710800 -1.1481170674 -0.9302462009
H   2.2642173341 -0.7649370833  0.3137530138
7
Iter 132 Image 6  Energy = -4188.6721729955
C   0.8462914787  0.8886084617  0.0114196291
H   0.7019177701  1.3198588710 -1.0000598471
O   0.6914805798  1.5563272468  1.0001807343
C   1.2534172330 -0.5539212278  0.0521722873
H   0.7203700189 -1.0575115465  0.8535785496
H   1.0690423018 -1.0502944925 -0.8945297740
H   2.3187221778 -0.6127002496  0.2711776582
7
Iter 132 Image 7  Energy = -4188.6816877595
C   0.8096963917  0.8747299756 -0.0151949440
H   0.8386835347  1.3052930956 -1.0365191462
O   0.4427528598  1.5307795697  0.9169214663
C   1.2764704607 -0.5477261829  0.0882917614
H   0.8785142076 -1.0046236671  0.9885694618
H   0.9889135046 -1.1174720240 -0.7921636687
H   2.3662106670 -0.5506139595  0.1440338025
7
Iter 132 Image 8  Energy = -4188.6819968244
C   0.7840367852  0.8656586589 -0.0371164025
H   0.9809293880  1.3403901038 -1.0231241499
O   0.1875804579  1.4681235287  0.8223429327
C   1.3100769769 -0.5359012779  0.1153731248
H   1.0639489065 -0.9236344469  1.1059940899
H   0.8779311114 -1.1816924395 -0.6582837811
H   2.3967379442 -0.5425772870 -0.0312469938
7
Iter 133 Image 0  Energy = -4188.2527480593
C   0.8260657415  0.5508603911 -0.1261794589
H   0.4554445983  1.2417513435 -0.8784317668
O   0.5680753083  1.0246514429  1.1187434847
C   1.4411098584 -0.5873603774 -0.4363613732
H   0.9099091373  0.3932317500  1.7666320721
H   1.5916834696 -0.8592929697 -1.4741885892
H   1.8089534565 -1.2734747403  0.3237244514
7
Iter 133 Image 1  Energy = -4188.2136055103
C   0.8563107514  0.5785669828 -0.1560354604
H   0.4710631306  1.2498876344 -0.9090720695
O   0.6767454158  1.0694822304  1.0959547392
C   1.4250796970 -0.5898748585 -0.4110355389
H   0.8504550487  0.3287524406  1.6831867174
H   1.4313942935 -1.0019570931 -1.4041842382
H   1.8901933831 -1.1444906103  0.3951237217
7
Iter 133 Image 2  Energy = -4187.9445817342
C   0.8802997969  0.6275387718 -0.1657699975
H   0.5684958319  1.3869777878 -0.8701854305
O   0.7099241774  1.0150762252  1.1256989366
C   1.3906687667 -0.5758490877 -0.3993377032
H   0.7658056323  0.1536743335  1.5531159942
H   1.3040665035 -1.0820077954 -1.3390549921
H   1.9819814390 -1.0350441198  0.3894703374
7
Iter 133 Image 3  Energy = -4186.7606317571
C   0.8940612455  0.7201057607 -0.1640959782
H   0.6989716112  1.4938898917 -0.9246216345
O   0.6730479499  0.9944775461  1.1324779081
C   1.2736312995 -0.5796080563 -0.2787088894
H   0.8332872493 -0.0340579301  1.3480819550
H   1.1430033311 -1.1422480173 -1.1620292317
H   2.0852395501 -0.9621932581  0.3428324045
7
Iter 133 Image 4  Energy = -4186.1565944201
C   0.8614925110  0.8300815158 -0.1082410795
H   0.7524381195  1.5944001265 -0.9316141166
O   0.5416340936  1.1706546974  1.0305643764
C   1.2245604143 -0.6181915423 -0.0889460747
H   0.9373214139 -0.3803581340  1.1686473549
H   1.0783035878 -1.1823078837 -1.0507650662
H   2.2054925567 -0.9239130588  0.2742902236
7
Iter 133 Image 5  Energy = -4188.2597629002
C   0.9097219413  0.8933392937 -0.0316258878
H   0.7259582280  1.4924366186 -0.9536676647
O   0.6894172776  1.3952130342  1.0512843103
C   1.2506166577 -0.5719013869 -0.0370054137
H   0.7431988346 -0.7467450147  0.9207430787
H   1.0159467730 -1.1687555294 -0.9294706284
H   2.2663828087 -0.8032212631  0.2736787392
7
Iter 133 Image 6  Energy = -4188.6690564027
C   0.8473326376  0.8890379049  0.0075915398
H   0.6980236294  1.3239486847 -1.0038043984
O   0.6824090632  1.5453169401  1.0038496011
C   1.2584253843 -0.5521203183  0.0501501623
H   0.7209835238 -1.0407434913  0.8578584315
H   1.0715458973 -1.0553377098 -0.8921898296
H   2.3225214252 -0.6197349915  0.2704836574
7
Iter 133 Image 7  Energy = -4188.6816077849
C   0.8089342174  0.8749922629 -0.0151686896
H   0.8379946528  1.3044562281 -1.0374899859
O   0.4430991096  1.5320743480  0.9166521127
C   1.2763587472 -0.5480372564  0.0887725472
H   0.8788765875 -1.0062812454  0.9890444537
H   0.9895364935 -1.1178533110 -0.7923978835
H   2.3664418934 -0.5489842176  0.1445261143
7
Iter 133 Image 8  Energy = -4188.6819968244
C   0.7840367852  0.8656586589 -0.0371164025
H   0.9809293880  1.3403901038 -1.0231241499
O   0.1875804579  1.4681235287  0.8223429327
C   1.3100769769 -0.5359012779  0.1153731248
H   1.0639489065 -0.9236344469  1.1059940899
H   0.8779311114 -1.1816924395 -0.6582837811
H   2.3967379442 -0.5425772870 -0.0312469938
7
Iter 134 Image 0  Energy = -4188.2527480593
C   0.8260657415  0.5508603911 -0.1261794589
H   0.4554445983  1.2417513435 -0.8784317668
O   0.5680753083  1.0246514429  1.1187434847
C   1.4411098584 -0.5873603774 -0.4363613732
H   0.9099091373  0.3932317500  1.7666320721
H   1.5916834696 -0.8592929697 -1.4741885892
H   1.8089534565 -1.2734747403  0.3237244514
7
Iter 134 Image 1  Energy = -4188.2107188126
C   0.8541277745  0.5770331290 -0.1587595032
H   0.4627460820  1.2459517622 -0.9110790436
O   0.6724047933  1.0703228003  1.0922645160
C   1.4301123335 -0.5893093944 -0.4086988291
H   0.8494926478  0.3309800912  1.6794497673
H   1.4335224718 -1.0071010420 -1.4001552768
H   1.8988355930 -1.1375103874  0.4009159960
7
Iter 134 Image 2  Energy = -4187.9237132689
C   0.8815448665  0.6283410468 -0.1592226432
H   0.5938716725  1.3954292269 -0.8665504507
O   0.6994055421  1.0129762256  1.1309435713
C   1.3822375029 -0.5786093207 -0.3972384714
H   0.7624610920  0.1512782475  1.5568081346
H   1.2875885065 -1.0716890307 -1.3431508413
H   1.9941330879 -1.0473602662  0.3723477205
7
Iter 134 Image 3  Energy = -4186.5325435868
C   0.8937784203  0.7293708760 -0.1554792036
H   0.7581414915  1.5237663885 -0.9218578511
O   0.6310778577  0.9882888580  1.1318581625
C   1.2573046311 -0.5861472304 -0.2679563351
H   0.8639300800 -0.0419630298  1.3618337462
H   1.1001912672 -1.1360929454 -1.1591861696
H   2.0968186202 -0.9868568794  0.3047235974
7
Iter 134 Image 4  Energy = -4185.9508340231
C   0.8382547205  0.8286024698 -0.1054574470
H   0.8353695674  1.6285750800 -0.9294677685
O   0.4386461869  1.1499260756  1.0183887330
C   1.2260896943 -0.6275173001 -0.0734018864
H   0.9984374960 -0.3541584599  1.2214530815
H   1.0326124317 -1.1773786923 -1.0457006012
H   2.2318327971 -0.9576834298  0.2081209036
7
Iter 134 Image 5  Energy = -4188.1377097985
C   0.9109675002  0.8969788822 -0.0326730599
H   0.7765508061  1.5381400421 -0.9453390779
O   0.6307711756  1.3591129434  1.0569966523
C   1.2502789727 -0.5764516218 -0.0444930950
H   0.7817387763 -0.7104306893  0.9487148183
H   0.9801604642 -1.1841073825 -0.9254678005
H   2.2707750759 -0.8328763966  0.2361974831
7
Iter 134 Image 6  Energy = -4188.6665396413
C   0.8490128744  0.8899586632  0.0068860962
H   0.6959646835  1.3264878325 -1.0052461672
O   0.6725490338  1.5385270884  1.0036040257
C   1.2630202640 -0.5520445129  0.0489278415
H   0.7221009092 -1.0282879938  0.8624328835
H   1.0715434629 -1.0574331825 -0.8919013538
H   2.3270503403 -0.6268409191  0.2692357842
7
Iter 134 Image 7  Energy = -4188.6819203964
C   0.8085707138  0.8750153827 -0.0154068773
H   0.8386842767  1.3036523936 -1.0382838331
O   0.4426465264  1.5335061099  0.9171563157
C   1.2760318280 -0.5482779066  0.0892432043
H   0.8794611769 -1.0081903532  0.9896415095
H   0.9893064657 -1.1177536612 -0.7927240467
H   2.3665407704 -0.5475851481  0.1443123464
7
Iter 134 Image 8  Energy = -4188.6819968244
C   0.7840367852  0.8656586589 -0.0371164025
H   0.9809293880  1.3403901038 -1.0231241499
O   0.1875804579  1.4681235287  0.8223429327
C   1.3100769769 -0.5359012779  0.1153731248
H   1.0639489065 -0.9236344469  1.1059940899
H   0.8779311114 -1.1816924395 -0.6582837811
H   2.3967379442 -0.5425772870 -0.0312469938
7
Iter 135 Image 0  Energy = -4188.2527480593
C   0.8260657415  0.5508603911 -0.1261794589
H   0.4554445983  1.2417513435 -0.8784317668
O   0.5680753083  1.0246514429  1.1187434847
C   1.4411098584 -0.5873603774 -0.4363613732
H   0.9099091373  0.3932317500  1.7666320721
H   1.5916834696 -0.8592929697 -1.4741885892
H   1.8089534565 -1.2734747403  0.3237244514
7
Iter 135 Image 1  Energy = -4188.2061611733
C   0.8524238991  0.5756933727 -0.1611445581
H   0.4615872518  1.2491121327 -0.9100073005
O   0.6682141389  1.0687542148  1.0902531077
C   1.4338081112 -0.5892055726 -0.4088943910
H   0.8407011853  0.3298256535  1.6783147388
H   1.4357326892 -1.0143955391 -1.3985672269
H   1.9087744760 -1.1294170987  0.4039823448
7
Iter 135 Image 2  Energy = -4187.8725799045
C   0.8913909205  0.6376348921 -0.1409180806
H   0.6501101339  1.3852617416 -0.8865888831
O   0.6963047393  1.0231489380  1.1483211688
C   1.3430229492 -0.5792886368 -0.3862825997
H   0.7792160146  0.1547116243  1.5629376838
H   1.2451838938 -1.0605842490 -1.3355845697
H   1.9960140961 -1.0705186014  0.3320518475
7
Iter 135 Image 3  Energy = -4186.0811515471
C   0.8965404918  0.7446624892 -0.1430708851
H   0.8483024981  1.5825992296 -0.8760081838
O   0.5676951317  0.9626663964  1.1230734298
C   1.2437547943 -0.5965038271 -0.2622085067
H   0.9226309357 -0.0599109754  1.3497253168
H   1.0161416845 -1.1570079674 -1.1473153100
H   2.1061774743 -0.9861392238  0.2497377087
7
Iter 135 Image 4  Energy = -4185.6164694226
C   0.7676953523  0.8087589263 -0.0915940445
H   0.9839405741  1.6144929388 -0.9113785754
O   0.2798543853  1.1470296931  0.9864103450
C   1.2357576433 -0.6455417119 -0.0312557472
H   1.1043431171 -0.2829362568  1.2934056589
H   0.9704246639 -1.1477737633 -1.0386905374
H   2.2592275481 -1.0036640446  0.0870362626
7
Iter 135 Image 5  Energy = -4187.8615940383
C   0.8955671288  0.8974053806 -0.0429554423
H   0.8896314538  1.6252583968 -0.9286947473
O   0.5004669113  1.2826823530  1.0365096823
C   1.2485823689 -0.5919818350 -0.0380221480
H   0.8720062462 -0.6404348335  1.0243959049
H   0.9035849737 -1.2038746181 -0.9014523795
H   2.2914043143 -0.8786890902  0.1441531365
7
Iter 135 Image 6  Energy = -4188.6371320805
C   0.8557585227  0.8956444741  0.0184883199
H   0.6983449877  1.3273703152 -1.0002045490
O   0.6420823300  1.5357467565  0.9862513828
C   1.2740943843 -0.5586269328  0.0490921588
H   0.7275875656 -1.0122812445  0.8765282368
H   1.0612512625 -1.0513975785 -0.8994497386
H   2.3421225748 -0.6460889350  0.2632332407
7
Iter 135 Image 7  Energy = -4188.6803392491
C   0.8090810002  0.8744684263 -0.0168346147
H   0.8463258911  1.3016615587 -1.0396870672
O   0.4382223346  1.5376332141  0.9214383130
C   1.2742989687 -0.5488160610  0.0906482595
H   0.8819730553 -1.0143062022  0.9916813164
H   0.9850722910 -1.1155139280 -0.7940869744
H   2.3662683125 -0.5447601106  0.1407792939
7
Iter 135 Image 8  Energy = -4188.6819968244
C   0.7840367852  0.8656586589 -0.0371164025
H   0.9809293880  1.3403901038 -1.0231241499
O   0.1875804579  1.4681235287  0.8223429327
C   1.3100769769 -0.5359012779  0.1153731248
H   1.0639489065 -0.9236344469  1.1059940899
H   0.8779311114 -1.1816924395 -0.6582837811
H   2.3967379442 -0.5425772870 -0.0312469938
7
Iter 136 Image 0  Energy = -4188.2527480593
C   0.8260657415  0.5508603911 -0.1261794589
H   0.4554445983  1.2417513435 -0.8784317668
O   0.5680753083  1.0246514429  1.1187434847
C   1.4411098584 -0.5873603774 -0.4363613732
H   0.9099091373  0.3932317500  1.7666320721
H   1.5916834696 -0.8592929697 -1.4741885892
H   1.8089534565 -1.2734747403  0.3237244514
7
Iter 136 Image 1  Energy = -4188.2110239586
C   0.8573359625  0.5786860115 -0.1552630960
H   0.4844572860  1.2624959634 -0.9038762220
O   0.6770980012  1.0649321355  1.0994882690
C   1.4220344030 -0.5904366788 -0.4153673254
H   0.8363399352  0.3230386569  1.6881296141
H   1.4313959040 -1.0057806767 -1.4086698070
H   1.8925803716 -1.1425687224  0.3894952342
7
Iter 136 Image 2  Energy = -4187.9054064325
C   0.8933468342  0.6482884560 -0.1460154235
H   0.6239552347  1.3539032833 -0.9109034157
O   0.7232886291  1.0347159390  1.1475602456
C   1.3385960470 -0.5778509726 -0.3867432756
H   0.8037009140  0.1649120769  1.5575665952
H   1.2571471962 -1.0787330283 -1.3166791176
H   1.9612079107 -1.0548703872  0.3491509548
7
Iter 136 Image 3  Energy = -4186.5267424679
C   0.8952247427  0.7277634985 -0.1608613548
H   0.7533111453  1.5415255880 -0.8484691553
O   0.6421192563  0.9617738812  1.1204633389
C   1.2721204478 -0.5839323923 -0.2921887601
H   0.8794727639 -0.0488799509  1.3056924368
H   1.0745329317 -1.1868859151 -1.1483228321
H   2.0844618559 -0.9209988421  0.3176196789
7
Iter 136 Image 4  Energy = -4185.9928094319
C   0.7852855197  0.8002040199 -0.0853819680
H   0.8689804109  1.5056211156 -0.9056323491
O   0.4403368460  1.2059494201  0.9992444716
C   1.2302485550 -0.6311556130 -0.0530509039
H   1.0143943282 -0.3063744110  1.2088959332
H   1.0487895244 -1.1423447787 -1.0465660785
H   2.2132078632 -0.9415340276  0.1764246422
7
Iter 136 Image 5  Energy = -4188.0497524089
C   0.8796265392  0.8901957877 -0.0427782335
H   0.8385575693  1.5598917023 -0.9372066959
O   0.5574424769  1.3227040788  0.9989017478
C   1.2521114186 -0.5895120570 -0.0118525187
H   0.8353982305 -0.6873043636  1.0065414271
H   0.9438195308 -1.1746345194 -0.8936539964
H   2.2942874320 -0.8309749623  0.1739824829
7
Iter 136 Image 6  Energy = -4188.6615270695
C   0.8589862193  0.8886457548  0.0155377374
H   0.7067607732  1.3211390378 -0.9914657265
O   0.6430347597  1.5599690211  0.9858501224
C   1.2690646386 -0.5626902247  0.0528419279
H   0.7291694665 -1.0346972075  0.8742933501
H   1.0534165232 -1.0410595231 -0.9051015909
H   2.3408092793 -0.6409399767  0.2619833233
7
Iter 136 Image 7  Energy = -4188.6745213440
C   0.8113519033  0.8721409434 -0.0195093340
H   0.8505988795  1.3023131998 -1.0380732999
O   0.4349155333  1.5380009367  0.9248784812
C   1.2738011854 -0.5481897494  0.0903006277
H   0.8826760510 -1.0135206942  0.9916530829
H   0.9823363159 -1.1140137338 -0.7936547768
H   2.3655619025 -0.5463639726  0.1383438378
7
Iter 136 Image 8  Energy = -4188.6819968244
C   0.7840367852  0.8656586589 -0.0371164025
H   0.9809293880  1.3403901038 -1.0231241499
O   0.1875804579  1.4681235287  0.8223429327
C   1.3100769769 -0.5359012779  0.1153731248
H   1.0639489065 -0.9236344469  1.1059940899
H   0.8779311114 -1.1816924395 -0.6582837811
H   2.3967379442 -0.5425772870 -0.0312469938
7
Iter 137 Image 0  Energy = -4188.2527480593
C   0.8260657415  0.5508603911 -0.1261794589
H   0.4554445983  1.2417513435 -0.8784317668
O   0.5680753083  1.0246514429  1.1187434847
C   1.4411098584 -0.5873603774 -0.4363613732
H   0.9099091373  0.3932317500  1.7666320721
H   1.5916834696 -0.8592929697 -1.4741885892
H   1.8089534565 -1.2734747403  0.3237244514
7
Iter 137 Image 1  Energy = -4188.2163291147
C   0.8608845298  0.5817450680 -0.1494274138
H   0.4984005395  1.2655212259 -0.9023422052
O   0.6841865934  1.0646146343  1.1053875845
C   1.4122042011 -0.5915509465 -0.4189598043
H   0.8407761204  0.3206613539  1.6956213090
H   1.4274456239 -0.9954771340 -1.4141713254
H   1.8773442784 -1.1551478912  0.3778291400
7
Iter 137 Image 2  Energy = -4187.9550668171
C   0.8870123002  0.6448072657 -0.1626518643
H   0.5708351710  1.3495039541 -0.9068104217
O   0.7391486521  1.0313907569  1.1327262240
C   1.3669128753 -0.5744299531 -0.3946541225
H   0.8082415496  0.1663540527  1.5517969633
H   1.2914185778 -1.0943115247 -1.3155792903
H   1.9376733105 -1.0329490203  0.3891093048
7
Iter 137 Image 3  Energy = -4186.9523632398
C   0.8819786530  0.6948386114 -0.1829864264
H   0.6481301633  1.4755266288 -0.8685866829
O   0.7193346666  0.9812815752  1.1291571265
C   1.2929132989 -0.5674959671 -0.3161897373
H   0.8169534389 -0.0196388308  1.3010693448
H   1.1663672690 -1.1799078181 -1.1547409248
H   2.0755652820 -0.8942385535  0.3862122339
7
Iter 137 Image 4  Energy = -4186.3205133846
C   0.8619509468  0.8003460336 -0.0914339415
H   0.7021018659  1.4563212767 -0.9172058661
O   0.6246174815  1.2402157159  1.0330415512
C   1.2102595337 -0.5998571941 -0.0990620529
H   0.8959836721 -0.3713331626  1.1143891402
H   1.1315284565 -1.1619227618 -1.0547391308
H   2.1748006890 -0.8734042242  0.3089453700
7
Iter 137 Image 5  Energy = -4188.3268025389
C   0.8868282803  0.8731354800 -0.0555283508
H   0.7414771871  1.4543262714 -0.9509166252
O   0.6597130112  1.4136259271  1.0148698684
C   1.2555417061 -0.5730354591 -0.0024422986
H   0.7562446678 -0.7652049976  0.9441217837
H   1.0164007911 -1.1403577705 -0.9022666668
H   2.2850370056 -0.7721238072  0.2460979398
7
Iter 137 Image 6  Energy = -4188.6579976252
C   0.8531540503  0.8818358009  0.0071805798
H   0.7114990189  1.3181967809 -0.9904776326
O   0.6667883655  1.5710093150  0.9960308127
C   1.2577879247 -0.5577547275  0.0543296951
H   0.7273296967 -1.0574064900  0.8617916278
H   1.0569829116 -1.0414029848 -0.8999431668
H   2.3276996744 -0.6241107187  0.2650272981
7
Iter 137 Image 7  Energy = -4188.6807528606
C   0.8094511436  0.8754353095 -0.0126647007
H   0.8474356699  1.3042344843 -1.0357366454
O   0.4385582464  1.5300406743  0.9157803696
C   1.2749210014 -0.5475541050  0.0888639446
H   0.8819265936 -1.0076614827  0.9897531809
H   0.9841350571 -1.1148886119 -0.7913017433
H   2.3648139535 -0.5492393756  0.1392443323
7
Iter 137 Image 8  Energy = -4188.6819968244
C   0.7840367852  0.8656586589 -0.0371164025
H   0.9809293880  1.3403901038 -1.0231241499
O   0.1875804579  1.4681235287  0.8223429327
C   1.3100769769 -0.5359012779  0.1153731248
H   1.0639489065 -0.9236344469  1.1059940899
H   0.8779311114 -1.1816924395 -0.6582837811
H   2.3967379442 -0.5425772870 -0.0312469938
7
Iter 138 Image 0  Energy = -4188.2527480593
C   0.8260657415  0.5508603911 -0.1261794589
H   0.4554445983  1.2417513435 -0.8784317668
O   0.5680753083  1.0246514429  1.1187434847
C   1.4411098584 -0.5873603774 -0.4363613732
H   0.9099091373  0.3932317500  1.7666320721
H   1.5916834696 -0.8592929697 -1.4741885892
H   1.8089534565 -1.2734747403  0.3237244514
7
Iter 138 Image 1  Energy = -4188.2191578469
C   0.8632607950  0.5834002415 -0.1466323238
H   0.5053694454  1.2665067330 -0.9016854799
O   0.6889390636  1.0645760588  1.1094479642
C   1.4066033985 -0.5918393436 -0.4202146156
H   0.8453262687  0.3200311094  1.6986975806
H   1.4245390934 -0.9885349736 -1.4176719388
H   1.8672038210 -1.1637737636  0.3719966439
7
Iter 138 Image 2  Energy = -4187.9753720483
C   0.8836382870  0.6326949735 -0.1755818718
H   0.5292052157  1.3521955033 -0.8997554850
O   0.7473891016  1.0288837499  1.1206505043
C   1.3878341130 -0.5661776120 -0.4009679538
H   0.8051566367  0.1660081719  1.5470602556
H   1.3192335763 -1.1065115157 -1.3187707694
H   1.9287852269 -1.0167275606  0.4213023331
7
Iter 138 Image 3  Energy = -4187.1299985296
C   0.8778779594  0.6830577593 -0.1889323871
H   0.5688927568  1.4297336599 -0.8958732177
O   0.7745591939  0.9979691492  1.1306215066
C   1.3146105442 -0.5634568064 -0.3223965049
H   0.7718231483 -0.0043288877  1.3054526718
H   1.2329270868 -1.1742156206 -1.1666325216
H   2.0605517209 -0.8783937243  0.4316967855
7
Iter 138 Image 4  Energy = -4186.4805238417
C   0.9090833888  0.8131634520 -0.0929906377
H   0.5801231479  1.4437826146 -0.9359722462
O   0.7621669933  1.2516422264  1.0553963179
C   1.2055984629 -0.5886707788 -0.1262260882
H   0.8101674392 -0.4215306505  1.0499348728
H   1.1880929539 -1.1790963703 -1.0641621995
H   2.1460099644 -0.8289248499  0.4079561214
7
Iter 138 Image 5  Energy = -4188.4501975945
C   0.8931024702  0.8689242845 -0.0368877582
H   0.6618074568  1.3849118994 -0.9715329742
O   0.7496429618  1.4704587163  1.0171344895
C   1.2544259625 -0.5608928333 -0.0042291895
H   0.6927602726 -0.8196937120  0.8962215269
H   1.0722212283 -1.1216396728 -0.9152258568
H   2.2772818664 -0.7317030430  0.3084566119
7
Iter 138 Image 6  Energy = -4188.6727675667
C   0.8455516562  0.8877761190  0.0166751298
H   0.7127118702  1.3166105348 -0.9936918986
O   0.6893471344  1.5675677012  0.9917604917
C   1.2500070159 -0.5550038662  0.0545274026
H   0.7246256649 -1.0727524114  0.8521347863
H   1.0616518425 -1.0430895096 -0.8955238094
H   2.3173464291 -0.6107415132  0.2680571691
7
Iter 138 Image 7  Energy = -4188.6821583828
C   0.8108575859  0.8732431377 -0.0155368967
H   0.8438069596  1.3056370451 -1.0340213465
O   0.4392170228  1.5292934696  0.9164652167
C   1.2759241689 -0.5469292605  0.0881988185
H   0.8806882076 -1.0034784946  0.9884759333
H   0.9859675077 -1.1159765683 -0.7903301149
H   2.3647801331 -0.5514224780  0.1406872042
7
Iter 138 Image 8  Energy = -4188.6819968244
C   0.7840367852  0.8656586589 -0.0371164025
H   0.9809293880  1.3403901038 -1.0231241499
O   0.1875804579  1.4681235287  0.8223429327
C   1.3100769769 -0.5359012779  0.1153731248
H   1.0639489065 -0.9236344469  1.1059940899
H   0.8779311114 -1.1816924395 -0.6582837811
H   2.3967379442 -0.5425772870 -0.0312469938
7
Iter 139 Image 0  Energy = -4188.2527480593
C   0.8260657415  0.5508603911 -0.1261794589
H   0.4554445983  1.2417513435 -0.8784317668
O   0.5680753083  1.0246514429  1.1187434847
C   1.4411098584 -0.5873603774 -0.4363613732
H   0.9099091373  0.3932317500  1.7666320721
H   1.5916834696 -0.8592929697 -1.4741885892
H   1.8089534565 -1.2734747403  0.3237244514
7
Iter 139 Image 1  Energy = -4188.2190775445
C   0.8621755034  0.5824320365 -0.1484906427
H   0.4987826141  1.2623592832 -0.9036246043
O   0.6868885651  1.0659458709  1.1073322446
C   1.4097750173 -0.5914326774 -0.4178741705
H   0.8479733186  0.3226073100  1.6954611590
H   1.4249564060 -0.9899678097 -1.4153929233
H   1.8706904304 -1.1615778418  0.3765268743
7
Iter 139 Image 2  Energy = -4187.9741309753
C   0.8796888923  0.6293050907 -0.1768859566
H   0.5307185637  1.3646368135 -0.8876760250
O   0.7399487024  1.0244520601  1.1179217286
C   1.3953001416 -0.5699072095 -0.4027213681
H   0.7961145980  0.1633885848  1.5480482191
H   1.3194721009 -1.1024941404 -1.3268202500
H   1.9399991136 -1.0190153460  0.4220706520
7
Iter 139 Image 3  Energy = -4187.1464915073
C   0.8800986830  0.6938523252 -0.1766979059
H   0.5843258649  1.4330025071 -0.9172713834
O   0.7567201161  1.0011446486  1.1278107933
C   1.3161656278 -0.5727134161 -0.3049548784
H   0.7788089368 -0.0024779269  1.3314659716
H   1.2258442792 -1.1646121314 -1.1764905766
H   2.0592787810 -0.8978304053  0.4100746303
7
Iter 139 Image 4  Energy = -4186.4870295844
C   0.9003093262  0.8371402671 -0.0947459249
H   0.5975509433  1.4795294398 -0.9392118947
O   0.7388787129  1.2229819106  1.0466617657
C   1.2231996334 -0.6040505697 -0.1100514830
H   0.8245495341 -0.4209484644  1.0640516930
H   1.1701873098 -1.1839619258 -1.0656822846
H   2.1465669333 -0.8403250095  0.3929142883
7
Iter 139 Image 5  Energy = -4188.4531715235
C   0.8991163411  0.8832300006 -0.0215619339
H   0.6649617302  1.3932256305 -0.9770033986
O   0.7450766684  1.4612681431  1.0233692488
C   1.2523850431 -0.5634709141 -0.0104819635
H   0.6961558450 -0.8138339663  0.8924077804
H   1.0674694541 -1.1302954428 -0.9224963509
H   2.2760771310 -0.7397577830  0.3097035755
7
Iter 139 Image 6  Energy = -4188.6721449515
C   0.8437032793  0.8878379745  0.0126007869
H   0.7106514803  1.3184389267 -0.9983235502
O   0.6918743000  1.5622133031  0.9983702264
C   1.2503734053 -0.5531774662  0.0542498715
H   0.7238670479 -1.0681614630  0.8511603788
H   1.0650311393 -1.0469570474 -0.8926544747
H   2.3157409422 -0.6098271676  0.2685360134
7
Iter 139 Image 7  Energy = -4188.6811706147
C   0.8101085701  0.8741724195 -0.0147150094
H   0.8418862130  1.3058558645 -1.0346214792
O   0.4403627550  1.5288761496  0.9153704153
C   1.2763790955 -0.5472370531  0.0882507462
H   0.8801105331 -1.0030721608  0.9886338140
H   0.9870098872 -1.1169388391 -0.7906475896
H   2.3653845461 -0.5512895484  0.1416679021
7
Iter 139 Image 8  Energy = -4188.6819968244
C   0.7840367852  0.8656586589 -0.0371164025
H   0.9809293880  1.3403901038 -1.0231241499
O   0.1875804579  1.4681235287  0.8223429327
C   1.3100769769 -0.5359012779  0.1153731248
H   1.0639489065 -0.9236344469  1.1059940899
H   0.8779311114 -1.1816924395 -0.6582837811
H   2.3967379442 -0.5425772870 -0.0312469938
7
Iter 140 Image 0  Energy = -4188.2527480593
C   0.8260657415  0.5508603911 -0.1261794589
H   0.4554445983  1.2417513435 -0.8784317668
O   0.5680753083  1.0246514429  1.1187434847
C   1.4411098584 -0.5873603774 -0.4363613732
H   0.9099091373  0.3932317500  1.7666320721
H   1.5916834696 -0.8592929697 -1.4741885892
H   1.8089534565 -1.2734747403  0.3237244514
7
Iter 140 Image 1  Energy = -4188.2188265792
C   0.8624013176  0.5825727842 -0.1481847728
H   0.5010488103  1.2650011192 -0.9025113112
O   0.6873938401  1.0653043283  1.1078517549
C   1.4093759438 -0.5918104600 -0.4187166171
H   0.8461078208  0.3214950427  1.6962324571
H   1.4246264502 -0.9901956236 -1.4165997811
H   1.8702876951 -1.1620010448  0.3758660555
7
Iter 140 Image 2  Energy = -4187.9750380537
C   0.8820205008  0.6321655360 -0.1740432833
H   0.5366130287  1.3579455301 -0.8945880437
O   0.7425174850  1.0278447808  1.1214062288
C   1.3872678563 -0.5699588374 -0.4008284845
H   0.8010345576  0.1657318156  1.5484319636
H   1.3149262186 -1.1032350807 -1.3227243204
H   1.9368625458 -1.0201280079  0.4162828728
7
Iter 140 Image 3  Energy = -4187.1304327792
C   0.8856221490  0.6943919560 -0.1786143074
H   0.5852024333  1.4366939084 -0.9058410911
O   0.7559856167  0.9977892584  1.1278224114
C   1.3142403852 -0.5702728498 -0.3107191910
H   0.7829315816 -0.0068259335  1.3222841100
H   1.2192157490 -1.1719515640 -1.1741953222
H   2.0580444891 -0.8894591789  0.4131996239
7
Iter 140 Image 4  Energy = -4186.4907681069
C   0.8869899976  0.8270139919 -0.0996497747
H   0.6084411952  1.4665719996 -0.9355628180
O   0.7349608813  1.2337588340  1.0495472797
C   1.2235306435 -0.6041918882 -0.1055131312
H   0.8294359138 -0.4130318414  1.0651402846
H   1.1702817863 -1.1776983260 -1.0649668884
H   2.1476020116 -0.8420571228  0.3849409920
7
Iter 140 Image 5  Energy = -4188.4454425445
C   0.8936934207  0.8833196810 -0.0274627841
H   0.6756552760  1.4009480288 -0.9750098626
O   0.7339907192  1.4529400010  1.0175834945
C   1.2538027974 -0.5663871407 -0.0049008833
H   0.7052823070 -0.8083055256  0.9025821608
H   1.0601581497 -1.1308062707 -0.9190590579
H   2.2786596204 -0.7413431211  0.3002036077
7
Iter 140 Image 6  Energy = -4188.6731116346
C   0.8456995655  0.8891033484  0.0161315364
H   0.7116152455  1.3178180505 -0.9965451908
O   0.6869496014  1.5641912846  0.9938995937
C   1.2514322899 -0.5555452661  0.0544323744
H   0.7244938775 -1.0684881701  0.8537920220
H   1.0623571898 -1.0447125403 -0.8953692831
H   2.3186938374 -0.6119996618  0.2675982047
7
Iter 140 Image 7  Energy = -4188.6815422496
C   0.8117050897  0.8718491952 -0.0185718336
H   0.8436233012  1.3056024003 -1.0348152238
O   0.4380951890  1.5318170241  0.9199131279
C   1.2759953016 -0.5471862511  0.0884772243
H   0.8803937476 -1.0042363717  0.9891930871
H   0.9859129827 -1.1164384703 -0.7911412143
H   2.3655159925 -0.5510406766  0.1408836285
7
Iter 140 Image 8  Energy = -4188.6819968244
C   0.7840367852  0.8656586589 -0.0371164025
H   0.9809293880  1.3403901038 -1.0231241499
O   0.1875804579  1.4681235287  0.8223429327
C   1.3100769769 -0.5359012779  0.1153731248
H   1.0639489065 -0.9236344469  1.1059940899
H   0.8779311114 -1.1816924395 -0.6582837811
H   2.3967379442 -0.5425772870 -0.0312469938
7
Iter 141 Image 0  Energy = -4188.2527480593
C   0.8260657415  0.5508603911 -0.1261794589
H   0.4554445983  1.2417513435 -0.8784317668
O   0.5680753083  1.0246514429  1.1187434847
C   1.4411098584 -0.5873603774 -0.4363613732
H   0.9099091373  0.3932317500  1.7666320721
H   1.5916834696 -0.8592929697 -1.4741885892
H   1.8089534565 -1.2734747403  0.3237244514
7
Iter 141 Image 1  Energy = -4188.2192380896
C   0.8631186027  0.5829706746 -0.1473697983
H   0.5041861539  1.2671861649 -0.9014962233
O   0.6888462473  1.0649103022  1.1089923175
C   1.4078677532 -0.5921604972 -0.4196304006
H   0.8458636887  0.3205528108  1.6974474656
H   1.4236336024 -0.9888393073 -1.4182178372
H   1.8677258463 -1.1642540775  0.3742122699
7
Iter 141 Image 2  Energy = -4187.9760334662
C   0.8824805473  0.6330455345 -0.1747080770
H   0.5316642683  1.3533070141 -0.8978713465
O   0.7461656003  1.0296899616  1.1211526688
C   1.3864676211 -0.5695323712 -0.4010125918
H   0.8037607353  0.1672670719  1.5477921223
H   1.3180114014 -1.1064174501 -1.3202823558
H   1.9326920157 -1.0169940670  0.4188665101
7
Iter 141 Image 3  Energy = -4187.1465121752
C   0.8888749850  0.6927958607 -0.1824197629
H   0.5679075156  1.4287134755 -0.9036350530
O   0.7679531934  0.9993407726  1.1291024735
C   1.3178473750 -0.5678237392 -0.3160650612
H   0.7758001226 -0.0070029246  1.3161692992
H   1.2292179194 -1.1755713143 -1.1750039154
H   2.0536412937 -0.8800865681  0.4257882650
7
Iter 141 Image 4  Energy = -4186.5248503482
C   0.8876286858  0.8223089974 -0.0964936762
H   0.5882815449  1.4556272283 -0.9378899632
O   0.7641838382  1.2422521455  1.0504859572
C   1.2211647558 -0.6009553031 -0.1103139366
H   0.8134583735 -0.4181850057  1.0520828291
H   1.1832610225 -1.1767577363 -1.0659257283
H   2.1432641709 -0.8339246885  0.4019905401
7
Iter 141 Image 5  Energy = -4188.4617179355
C   0.8914042709  0.8807981003 -0.0305145635
H   0.6653339526  1.3914053402 -0.9782964985
O   0.7463043274  1.4607478834  1.0166072822
C   1.2543521424 -0.5654858018 -0.0018574524
H   0.6974126804 -0.8167536961  0.8996410142
H   1.0673597105 -1.1269199972 -0.9193926496
H   2.2790751663 -0.7334261909  0.3077496008
7
Iter 141 Image 6  Energy = -4188.6733974835
C   0.8463003190  0.8883163351  0.0159714561
H   0.7126190145  1.3169605059 -0.9955329348
O   0.6876596841  1.5676866106  0.9939793592
C   1.2504349910 -0.5563946687  0.0548487495
H   0.7242950908 -1.0721724499  0.8536543570
H   1.0614127853 -1.0435473600 -0.8965770245
H   2.3185197258 -0.6104819224  0.2675953123
7
Iter 141 Image 7  Energy = -4188.6826203337
C   0.8110094904  0.8733262154 -0.0163877358
H   0.8441966869  1.3058823636 -1.0350532484
O   0.4383992905  1.5302698558  0.9183007284
C   1.2760328849 -0.5473334481  0.0883006820
H   0.8803943592 -1.0039799389  0.9894139896
H   0.9855209488 -1.1164462592 -0.7911852989
H   2.3656879287 -0.5513519354  0.1405496933
7
Iter 141 Image 8  Energy = -4188.6819968244
C   0.7840367852  0.8656586589 -0.0371164025
H   0.9809293880  1.3403901038 -1.0231241499
O   0.1875804579  1.4681235287  0.8223429327
C   1.3100769769 -0.5359012779  0.1153731248
H   1.0639489065 -0.9236344469  1.1059940899
H   0.8779311114 -1.1816924395 -0.6582837811
H   2.3967379442 -0.5425772870 -0.0312469938
7
Iter 142 Image 0  Energy = -4188.2527480593
C   0.8260657415  0.5508603911 -0.1261794589
H   0.4554445983  1.2417513435 -0.8784317668
O   0.5680753083  1.0246514429  1.1187434847
C   1.4411098584 -0.5873603774 -0.4363613732
H   0.9099091373  0.3932317500  1.7666320721
H   1.5916834696 -0.8592929697 -1.4741885892
H   1.8089534565 -1.2734747403  0.3237244514
7
Iter 142 Image 1  Energy = -4188.2199463418
C   0.8639897099  0.5833943486 -0.1465849963
H   0.5070860539  1.2690656728 -0.9004968058
O   0.6906546316  1.0647655789  1.1101221294
C   1.4063149402 -0.5925971300 -0.4203746118
H   0.8466425874  0.3199273831  1.6984381774
H   1.4222056455 -0.9868960868 -1.4199489841
H   1.8643483402 -1.1672937875  0.3727829672
7
Iter 142 Image 2  Energy = -4187.9772546908
C   0.8820220010  0.6323826438 -0.1769913474
H   0.5219911543  1.3501808297 -0.8987212761
O   0.7497649195  1.0308647894  1.1192240844
C   1.3888464377 -0.5690924965 -0.4018492662
H   0.8044262764  0.1686018736  1.5469123217
H   1.3246344975 -1.1106840149 -1.3193692933
H   1.9295568648 -1.0118879369  0.4247317159
7
Iter 142 Image 3  Energy = -4187.1685544124
C   0.8931285472  0.6917587106 -0.1850943805
H   0.5428941211  1.4155641948 -0.9079337007
O   0.7840509204  1.0027953500  1.1303969458
C   1.3240819220 -0.5655931269 -0.3195574197
H   0.7643939430 -0.0054623108  1.3131983429
H   1.2456560911 -1.1769284459 -1.1781204105
H   2.0470367996 -0.8717688335  0.4410470727
7
Iter 142 Image 4  Energy = -4186.5674643612
C   0.8912122682  0.8220517887 -0.0959233338
H   0.5560103557  1.4485367666 -0.9412285015
O   0.8077909108  1.2484645065  1.0523511897
C   1.2211594807 -0.5986413597 -0.1154583954
H   0.7888671203 -0.4291480963  1.0331771850
H   1.2006704361 -1.1779225356 -1.0676470366
H   2.1355317586 -0.8229754477  0.4286651032
7
Iter 142 Image 5  Energy = -4188.4846452346
C   0.8902186645  0.8801924387 -0.0298042015
H   0.6455751983  1.3758378447 -0.9846577093
O   0.7699120711  1.4732488373  1.0164546593
C   1.2543090918 -0.5639075936  0.0001609437
H   0.6825902052 -0.8309024770  0.8903527397
H   1.0804334773 -1.1222776772 -0.9221639576
H   2.2782034534 -0.7218257462  0.3235944593
7
Iter 142 Image 6  Energy = -4188.6731026492
C   0.8459199816  0.8884448604  0.0166512136
H   0.7134890167  1.3161475855 -0.9955214756
O   0.6911162319  1.5699370154  0.9942292019
C   1.2486178163 -0.5568359309  0.0553092427
H   0.7236261160 -1.0771028823  0.8524751385
H   1.0614147457 -1.0430927771 -0.8971469938
H   2.3170576986 -0.6071307998  0.2679429729
7
Iter 142 Image 7  Energy = -4188.6825764498
C   0.8109560829  0.8737804307 -0.0159586898
H   0.8440938135  1.3063619482 -1.0351210907
O   0.4384332755  1.5295488540  0.9181112317
C   1.2762286878 -0.5474136219  0.0881272880
H   0.8801045453 -1.0032733916  0.9895286606
H   0.9854390662 -1.1167050884 -0.7912842674
H   2.3659860980 -0.5519322786  0.1405356993
7
Iter 142 Image 8  Energy = -4188.6819968244
C   0.7840367852  0.8656586589 -0.0371164025
H   0.9809293880  1.3403901038 -1.0231241499
O   0.1875804579  1.4681235287  0.8223429327
C   1.3100769769 -0.5359012779  0.1153731248
H   1.0639489065 -0.9236344469  1.1059940899
H   0.8779311114 -1.1816924395 -0.6582837811
H   2.3967379442 -0.5425772870 -0.0312469938
7
Iter 143 Image 0  Energy = -4188.2527480593
C   0.8260657415  0.5508603911 -0.1261794589
H   0.4554445983  1.2417513435 -0.8784317668
O   0.5680753083  1.0246514429  1.1187434847
C   1.4411098584 -0.5873603774 -0.4363613732
H   0.9099091373  0.3932317500  1.7666320721
H   1.5916834696 -0.8592929697 -1.4741885892
H   1.8089534565 -1.2734747403  0.3237244514
7
Iter 143 Image 1  Energy = -4188.2202421895
C   0.8644460326  0.5832909355 -0.1467271138
H   0.5074693021  1.2698995119 -0.8997582488
O   0.6915012455  1.0649018883  1.1100285641
C   1.4062584729 -0.5929161338 -0.4204374449
H   0.8474814989  0.3201073299  1.6982096844
H   1.4212232911 -0.9863087057 -1.4205596737
H   1.8628620747 -1.1686088825  0.3731821233
7
Iter 143 Image 2  Energy = -4187.9776870480
C   0.8822595259  0.6309053306 -0.1776787405
H   0.5179288843  1.3487529563 -0.8986796114
O   0.7508130965  1.0318543306  1.1185421220
C   1.3887190513 -0.5687799452 -0.4016411160
H   0.8029465057  0.1696693876  1.5471614605
H   1.3277696983 -1.1126123578 -1.3197736266
H   1.9308053866 -1.0094240215  0.4260064105
7
Iter 143 Image 3  Energy = -4187.1715682915
C   0.8965698297  0.6945335077 -0.1858211589
H   0.5331962629  1.4093963617 -0.9112710109
O   0.7896589533  1.0028127637  1.1311723122
C   1.3274488006 -0.5650284345 -0.3189073387
H   0.7605143859 -0.0050535325  1.3114728100
H   1.2504824521 -1.1757452026 -1.1785430291
H   2.0433716253 -0.8705499169  0.4458339252
7
Iter 143 Image 4  Energy = -4186.5840690753
C   0.8889265459  0.8227617652 -0.0957233333
H   0.5434845899  1.4500289787 -0.9391562933
O   0.8277139588  1.2481205658  1.0464986050
C   1.2231258011 -0.5988789184 -0.1145405445
H   0.7789532080 -0.4326041139  1.0256785446
H   1.2071693830 -1.1773081279 -1.0670182860
H   2.1318688400 -0.8217545304  0.4381975505
7
Iter 143 Image 5  Energy = -4188.4926271012
C   0.8887518603  0.8811499950 -0.0283541953
H   0.6370942377  1.3730149583 -0.9872283643
O   0.7821183630  1.4758499420  1.0145483330
C   1.2536608018 -0.5639905518  0.0004497817
H   0.6774303204 -0.8365560504  0.8858917486
H   1.0850304516 -1.1215432052 -0.9229366251
H   2.2771561034 -0.7175594676  0.3315662907
7
Iter 143 Image 6  Energy = -4188.6727528295
C   0.8457562458  0.8894094562  0.0181156314
H   0.7139516966  1.3159649436 -0.9958991646
O   0.6920033985  1.5696753209  0.9935670360
C   1.2480454789 -0.5573095892  0.0555440857
H   0.7233735499 -1.0789145585  0.8525149172
H   1.0614221429 -1.0430295949 -0.8976671789
H   2.3166890927 -0.6054288942  0.2677639887
7
Iter 143 Image 7  Energy = -4188.6822695455
C   0.8106570236  0.8745183550 -0.0151828598
H   0.8442255245  1.3067025598 -1.0353930401
O   0.4384339813  1.5289133107  0.9176463544
C   1.2763572072 -0.5475883032  0.0880875081
H   0.8800080632 -1.0030357182  0.9897894420
H   0.9852689078 -1.1169554883 -0.7914303023
H   2.3662908516 -0.5521878671  0.1404217401
7
Iter 143 Image 8  Energy = -4188.6819968244
C   0.7840367852  0.8656586589 -0.0371164025
H   0.9809293880  1.3403901038 -1.0231241499
O   0.1875804579  1.4681235287  0.8223429327
C   1.3100769769 -0.5359012779  0.1153731248
H   1.0639489065 -0.9236344469  1.1059940899
H   0.8779311114 -1.1816924395 -0.6582837811
H   2.3967379442 -0.5425772870 -0.0312469938
7
Iter 144 Image 0  Energy = -4188.2527480593
C   0.8260657415  0.5508603911 -0.1261794589
H   0.4554445983  1.2417513435 -0.8784317668
O   0.5680753083  1.0246514429  1.1187434847
C   1.4411098584 -0.5873603774 -0.4363613732
H   0.9099091373  0.3932317500  1.7666320721
H   1.5916834696 -0.8592929697 -1.4741885892
H   1.8089534565 -1.2734747403  0.3237244514
7
Iter 144 Image 1  Energy = -4188.2204847804
C   0.8649406807  0.5832264612 -0.1468803283
H   0.5077897027  1.2707322801 -0.8989810982
O   0.6923996265  1.0650395339  1.1098789774
C   1.4062150147 -0.5932544893 -0.4205167816
H   0.8483064802  0.3203086014  1.6979464977
H   1.4202657036 -0.9858348155 -1.4211156670
H   1.8613247210 -1.1698516636  0.3736062954
7
Iter 144 Image 2  Energy = -4187.9783330581
C   0.8815137420  0.6316112904 -0.1782991630
H   0.5141316487  1.3466485376 -0.8985797960
O   0.7521393614  1.0327172854  1.1178575046
C   1.3893379347 -0.5705774690 -0.4017774221
H   0.8012565388  0.1710544511  1.5473969997
H   1.3306852481 -1.1141617738 -1.3196179264
H   1.9321776770 -1.0069266519  0.4269566539
7
Iter 144 Image 3  Energy = -4187.1710220596
C   0.8997620871  0.6960273978 -0.1854633613
H   0.5238831768  1.4044401382 -0.9143263309
O   0.7954883095  1.0026632708  1.1308069199
C   1.3310153375 -0.5634996792 -0.3176137008
H   0.7566591936 -0.0047527529  1.3092803732
H   1.2546891602 -1.1750423352 -1.1789686136
H   2.0397450175 -0.8694704873  0.4502212602
7
Iter 144 Image 4  Energy = -4186.5996499753
C   0.8870438571  0.8243237312 -0.0997139363
H   0.5314256571  1.4505111027 -0.9357695774
O   0.8470137707  1.2493260938  1.0436616826
C   1.2255534595 -0.6005216701 -0.1127496511
H   0.7694356970 -0.4357856758  1.0181337903
H   1.2134060841 -1.1765983974 -1.0663495952
H   2.1273638015 -0.8208895670  0.4467235434
7
Iter 144 Image 5  Energy = -4188.4988074324
C   0.8876427994  0.8817419996 -0.0285895417
H   0.6287164936  1.3708151352 -0.9889234507
O   0.7941871189  1.4787196879  1.0132511518
C   1.2529793328 -0.5643814813  0.0010190674
H   0.6726765252 -0.8418615990  0.8813704752
H   1.0893648714 -1.1211361602 -0.9234894962
H   2.2756749774 -0.7135319675  0.3392987821
7
Iter 144 Image 6  Energy = -4188.6726470909
C   0.8460188334  0.8883702164  0.0165197870
H   0.7145604494  1.3156657830 -0.9959713493
O   0.6921116920  1.5712487499  0.9955618238
C   1.2475420104 -0.5576270769  0.0559755386
H   0.7233071056 -1.0806475997  0.8525775312
H   1.0613203228 -1.0427306606 -0.8981667230
H   2.3163811912 -0.6039123129  0.2674427285
7
Iter 144 Image 7  Energy = -4188.6825218222
C   0.8108809447  0.8743761652 -0.0157096350
H   0.8444222643  1.3070090104 -1.0354856090
O   0.4379854170  1.5290939838  0.9183281085
C   1.2764383403 -0.5476638784  0.0880944624
H   0.8799396278 -1.0028811386  0.9899973341
H   0.9850568414 -1.1171263181 -0.7915636702
H   2.3665181146 -0.5524409780  0.1402778624
7
Iter 144 Image 8  Energy = -4188.6819968244
C   0.7840367852  0.8656586589 -0.0371164025
H   0.9809293880  1.3403901038 -1.0231241499
O   0.1875804579  1.4681235287  0.8223429327
C   1.3100769769 -0.5359012779  0.1153731248
H   1.0639489065 -0.9236344469  1.1059940899
H   0.8779311114 -1.1816924395 -0.6582837811
H   2.3967379442 -0.5425772870 -0.0312469938
7
Iter 145 Image 0  Energy = -4188.2527480593
C   0.8260657415  0.5508603911 -0.1261794589
H   0.4554445983  1.2417513435 -0.8784317668
O   0.5680753083  1.0246514429  1.1187434847
C   1.4411098584 -0.5873603774 -0.4363613732
H   0.9099091373  0.3932317500  1.7666320721
H   1.5916834696 -0.8592929697 -1.4741885892
H   1.8089534565 -1.2734747403  0.3237244514
7
Iter 145 Image 1  Energy = -4188.2206016651
C   0.8653812367  0.5832039280 -0.1470912182
H   0.5076730767  1.2712656836 -0.8983115491
O   0.6931809016  1.0652294562  1.1095017430
C   1.4063228294 -0.5935768115 -0.4205577805
H   0.8490541164  0.3206199839  1.6975824302
H   1.4195548738 -0.9857696045 -1.4213387885
H   1.8600749055 -1.1706067542  0.3741530409
7
Iter 145 Image 2  Energy = -4187.9785992524
C   0.8813294415  0.6310846918 -0.1785774481
H   0.5112387256  1.3446503470 -0.8989696936
O   0.7533454890  1.0337267603  1.1174130401
C   1.3892249419 -0.5711665003 -0.4013908559
H   0.7991154598  0.1724277362  1.5476498520
H   1.3326583769 -1.1151526846 -1.3193582364
H   1.9343297290 -1.0052046966  0.4271701391
7
Iter 145 Image 3  Energy = -4187.1660570374
C   0.9011724738  0.6967396093 -0.1857667519
H   0.5184075357  1.4020407008 -0.9151826434
O   0.8000110140  1.0024185975  1.1300393845
C   1.3336794402 -0.5620934792 -0.3167937011
H   0.7538924827 -0.0048198861  1.3063128813
H   1.2563741313 -1.1741006403 -1.1777576237
H   2.0377051904 -0.8698193366  0.4530849835
7
Iter 145 Image 4  Energy = -4186.6085181704
C   0.8873201330  0.8254301351 -0.1037794068
H   0.5227516121  1.4510622077 -0.9311400930
O   0.8605844934  1.2510766310  1.0410264666
C   1.2265699143 -0.6021628671 -0.1108267069
H   0.7630213427 -0.4370594930  1.0125271253
H   1.2175298200 -1.1760213376 -1.0652900545
H   2.1234650221 -0.8219596621  0.4514188988
7
Iter 145 Image 5  Energy = -4188.5020891002
C   0.8871630303  0.8819681239 -0.0300825984
H   0.6224015390  1.3710845272 -0.9882992715
O   0.8040076549  1.4803703882  1.0114853632
C   1.2524584762 -0.5650041261  0.0014450310
H   0.6696687613 -0.8453529416  0.8776510227
H   1.0921298378 -1.1215781583 -0.9232636568
H   2.2734128165 -0.7111222043  0.3450010712
7
Iter 145 Image 6  Energy = -4188.6727471671
C   0.8458408772  0.8889510397  0.0177354169
H   0.7152765934  1.3154565686 -0.9960538504
O   0.6917357246  1.5707692728  0.9948074031
C   1.2472968220 -0.5579384598  0.0561716093
H   0.7236001745 -1.0816649926  0.8527788431
H   1.0611530823 -1.0422243462 -0.8983883371
H   2.3163383298 -0.6029819697  0.2668882739
7
Iter 145 Image 7  Energy = -4188.6826311222
C   0.8110875727  0.8741764097 -0.0161277566
H   0.8447573329  1.3072540461 -1.0354288424
O   0.4375412084  1.5292407697  0.9187831171
C   1.2764519032 -0.5476685710  0.0880951500
H   0.8800011561 -1.0028325034  0.9901205503
H   0.9848148652 -1.1171797636 -0.7915611382
H   2.3665875053 -0.5526235450  0.1400577775
7
Iter 145 Image 8  Energy = -4188.6819968244
C   0.7840367852  0.8656586589 -0.0371164025
H   0.9809293880  1.3403901038 -1.0231241499
O   0.1875804579  1.4681235287  0.8223429327
C   1.3100769769 -0.5359012779  0.1153731248
H   1.0639489065 -0.9236344469  1.1059940899
H   0.8779311114 -1.1816924395 -0.6582837811
H   2.3967379442 -0.5425772870 -0.0312469938
7
Iter 146 Image 0  Energy = -4188.2527480593
C   0.8260657415  0.5508603911 -0.1261794589
H   0.4554445983  1.2417513435 -0.8784317668
O   0.5680753083  1.0246514429  1.1187434847
C   1.4411098584 -0.5873603774 -0.4363613732
H   0.9099091373  0.3932317500  1.7666320721
H   1.5916834696 -0.8592929697 -1.4741885892
H   1.8089534565 -1.2734747403  0.3237244514
7
Iter 146 Image 1  Energy = -4188.2207524499
C   0.8661996248  0.5832144133 -0.1473513276
H   0.5074913202  1.2719980225 -0.8973490152
O   0.6946253386  1.0655929125  1.1089871962
C   1.4062129341 -0.5939488542 -0.4207095737
H   0.8501768619  0.3211235368  1.6971684217
H   1.4186412903 -0.9859647337 -1.4215745357
H   1.8578945912 -1.1716494662  0.3747666673
7
Iter 146 Image 2  Energy = -4187.9788110873
C   0.8808444802  0.6302658413 -0.1790959751
H   0.5062071163  1.3405063349 -0.9003569351
O   0.7560365460  1.0356706616  1.1165875879
C   1.3895029453 -0.5718473897 -0.4005075537
H   0.7953324315  0.1748526582  1.5478196670
H   1.3355799494 -1.1164233435 -1.3180940223
H   1.9377387201 -1.0026591413  0.4275839339
7
Iter 146 Image 3  Energy = -4187.1542429051
C   0.9017848204  0.6965696000 -0.1878817812
H   0.5103021821  1.3999314686 -0.9133468892
O   0.8086053035  1.0027146453  1.1284455168
C   1.3376436928 -0.5600665033 -0.3167396907
H   0.7486637598 -0.0049314317  1.2997890303
H   1.2587116284 -1.1735865059 -1.1746771837
H   2.0355308699 -0.8702656851  0.4583474569
7
Iter 146 Image 4  Energy = -4186.6228274277
C   0.8925524953  0.8266902808 -0.1074753660
H   0.5076001848  1.4497686318 -0.9235123037
O   0.8819882839  1.2558214543  1.0369290700
C   1.2258997055 -0.6036916131 -0.1093710051
H   0.7523589907 -0.4380942789  1.0026162416
H   1.2242118761 -1.1759422141 -1.0637320741
H   2.1166308244 -0.8241866645  0.4584815963
7
Iter 146 Image 5  Energy = -4188.5067876300
C   0.8874555431  0.8824621650 -0.0319170213
H   0.6112369120  1.3717614784 -0.9853228266
O   0.8210657813  1.4831727258  1.0063317903
C   1.2516670194 -0.5658649998  0.0020071439
H   0.6640484967 -0.8509144785  0.8712622441
H   1.0969829107 -1.1226773658 -0.9224363063
H   2.2687854566 -0.7075739267  0.3540118710
7
Iter 146 Image 6  Energy = -4188.6726194492
C   0.8456894991  0.8883411297  0.0177884887
H   0.7167987686  1.3149427945 -0.9956799833
O   0.6902117851  1.5712215369  0.9950626509
C   1.2469603955 -0.5581298150  0.0565526665
H   0.7245257598 -1.0831955576  0.8530303476
H   1.0606855666 -1.0409288418 -0.8985534220
H   2.3163698264 -0.6018841053  0.2657386548
7
Iter 146 Image 7  Energy = -4188.6825325212
C   0.8115998648  0.8735014268 -0.0170978833
H   0.8454704158  1.3076123142 -1.0350530304
O   0.4367098100  1.5296346003  0.9196375507
C   1.2763848732 -0.5475584880  0.0880833316
H   0.8802197503 -1.0028033068  0.9901570249
H   0.9843701997 -1.1170978194 -0.7913960567
H   2.3664866225 -0.5529218873  0.1396079321
7
Iter 146 Image 8  Energy = -4188.6819968244
C   0.7840367852  0.8656586589 -0.0371164025
H   0.9809293880  1.3403901038 -1.0231241499
O   0.1875804579  1.4681235287  0.8223429327
C   1.3100769769 -0.5359012779  0.1153731248
H   1.0639489065 -0.9236344469  1.1059940899
H   0.8779311114 -1.1816924395 -0.6582837811
H   2.3967379442 -0.5425772870 -0.0312469938
7
Iter 147 Image 0  Energy = -4188.2527480593
C   0.8260657415  0.5508603911 -0.1261794589
H   0.4554445983  1.2417513435 -0.8784317668
O   0.5680753083  1.0246514429  1.1187434847
C   1.4411098584 -0.5873603774 -0.4363613732
H   0.9099091373  0.3932317500  1.7666320721
H   1.5916834696 -0.8592929697 -1.4741885892
H   1.8089534565 -1.2734747403  0.3237244514
7
Iter 147 Image 1  Energy = -4188.2209996155
C   0.8674429644  0.5834861627 -0.1477423347
H   0.5071560426  1.2728587495 -0.8960858148
O   0.6972856772  1.0663465574  1.1084225779
C   1.4057426979 -0.5945357844 -0.4210406617
H   0.8520013933  0.3220418739  1.6967452163
H   1.4174527555 -0.9865926418 -1.4218252273
H   1.8541604673 -1.1732391805  0.3754639846
7
Iter 147 Image 2  Energy = -4187.9786756209
C   0.8794082267  0.6293622552 -0.1803831059
H   0.4969182711  1.3328862761 -0.9028360775
O   0.7612608393  1.0391908475  1.1147527618
C   1.3915240165 -0.5730982373 -0.3989792709
H   0.7884939510  0.1789538951  1.5476949724
H   1.3404627934 -1.1182855541 -1.3153133702
H   1.9431741290 -0.9986439116  0.4290006243
7
Iter 147 Image 3  Energy = -4187.1274026653
C   0.9035047767  0.6959702040 -0.1911327597
H   0.4958796855  1.3981639178 -0.9082827956
O   0.8242712278  1.0037383627  1.1250871820
C   1.3436884553 -0.5576997172 -0.3159821693
H   0.7387306772 -0.0042136413  1.2878803804
H   1.2630968392 -1.1753588939 -1.1704690268
H   2.0320705931 -0.8702346052  0.4668355168
7
Iter 147 Image 4  Energy = -4186.6486412606
C   0.9048763683  0.8296307752 -0.1108342698
H   0.4810666413  1.4451335688 -0.9114021140
O   0.9190342685  1.2654579283  1.0315797004
C   1.2241627896 -0.6047875809 -0.1089791163
H   0.7326874418 -0.4393840870  0.9847245381
H   1.2349146610 -1.1771736496 -1.0617975730
H   2.1045002271 -0.8285113854  0.4706448740
7
Iter 147 Image 5  Energy = -4188.5145780167
C   0.8899561027  0.8808561514 -0.0376184675
H   0.5902032764  1.3718997133 -0.9795296867
O   0.8519859838  1.4918167955  1.0008622279
C   1.2496318630 -0.5665281463  0.0021082901
H   0.6522097408 -0.8605707364  0.8597004075
H   1.1063195155 -1.1249123221 -0.9214355453
H   2.2609356433 -0.7021958732  0.3698495478
7
Iter 147 Image 6  Energy = -4188.6724254808
C   0.8449298628  0.8882263365  0.0194882088
H   0.7196865977  1.3140286106 -0.9950562495
O   0.6874100675  1.5709409333  0.9941034433
C   1.2465482997 -0.5582447011  0.0571591703
H   0.7264594107 -1.0857043253  0.8533370993
H   1.0597772807 -1.0385671070 -0.8986883253
H   2.3164300791 -0.6003125508  0.2635961380
7
Iter 147 Image 7  Energy = -4188.6827042869
C   0.8114195723  0.8740826439 -0.0159537544
H   0.8468407472  1.3082664455 -1.0344851690
O   0.4362128600  1.5285587158  0.9185008576
C   1.2762739802 -0.5475043428  0.0879853184
H   0.8806878488 -1.0026736624  0.9901413404
H   0.9835800884 -1.1169351963 -0.7909991988
H   2.3662264273 -0.5534277749  0.1387494976
7
Iter 147 Image 8  Energy = -4188.6819968244
C   0.7840367852  0.8656586589 -0.0371164025
H   0.9809293880  1.3403901038 -1.0231241499
O   0.1875804579  1.4681235287  0.8223429327
C   1.3100769769 -0.5359012779  0.1153731248
H   1.0639489065 -0.9236344469  1.1059940899
H   0.8779311114 -1.1816924395 -0.6582837811
H   2.3967379442 -0.5425772870 -0.0312469938
7
Iter 148 Image 0  Energy = -4188.2527480593
C   0.8260657415  0.5508603911 -0.1261794589
H   0.4554445983  1.2417513435 -0.8784317668
O   0.5680753083  1.0246514429  1.1187434847
C   1.4411098584 -0.5873603774 -0.4363613732
H   0.9099091373  0.3932317500  1.7666320721
H   1.5916834696 -0.8592929697 -1.4741885892
H   1.8089534565 -1.2734747403  0.3237244514
7
Iter 148 Image 1  Energy = -4188.2212091854
C   0.8682667697  0.5839260587 -0.1479785446
H   0.5062845479  1.2727375809 -0.8958422650
O   0.6999228103  1.0674536640  1.1081035400
C   1.4049475894 -0.5948028637 -0.4213716854
H   0.8534191439  0.3230647708  1.6967786535
H   1.4172313305 -0.9880880386 -1.4215028609
H   1.8511698471 -1.1739255233  0.3757507749
7
Iter 148 Image 2  Energy = -4187.9781752995
C   0.8787154728  0.6264215751 -0.1816125956
H   0.4880835110  1.3257217048 -0.9058755887
O   0.7667227172  1.0428755629  1.1126957215
C   1.3944460855 -0.5716709360 -0.3967217123
H   0.7812196158  0.1828486991  1.5467328905
H   1.3436647756 -1.1193581989 -1.3121458824
H   1.9483900922 -0.9964728817  0.4308635432
7
Iter 148 Image 3  Energy = -4187.0926115832
C   0.9061147690  0.6949721994 -0.1947861420
H   0.4854454197  1.4013785392 -0.8985013244
O   0.8385450690  1.0064483261  1.1218888295
C   1.3456323487 -0.5581837391 -0.3166976682
H   0.7292589063 -0.0029086394  1.2755282224
H   1.2652769155 -1.1807746010 -1.1659420061
H   2.0309688650 -0.8705664407  0.4724462086
7
Iter 148 Image 4  Energy = -4186.6710590592
C   0.9219316540  0.8331803825 -0.1095027851
H   0.4602991435  1.4372987755 -0.9009225249
O   0.9484354339  1.2770851373  1.0300621877
C   1.2209375483 -0.6031252200 -0.1118819736
H   0.7150811956 -0.4377808727  0.9689596278
H   1.2405117756 -1.1803795937 -1.0608894132
H   2.0940456949 -0.8359130524  0.4781107575
7
Iter 148 Image 5  Energy = -4188.5193398467
C   0.8952318227  0.8819117568 -0.0376725277
H   0.5699416430  1.3726290231 -0.9718896632
O   0.8816729088  1.4991301625  0.9919117908
C   1.2474253312 -0.5669546849  0.0008566296
H   0.6392619765 -0.8673732457  0.8489672720
H   1.1147759732 -1.1286370022 -0.9209358722
H   2.2529324948 -0.7003404440  0.3826989761
7
Iter 148 Image 6  Energy = -4188.6722562632
C   0.8439413529  0.8876825032  0.0206425850
H   0.7228703498  1.3132031044 -0.9942440954
O   0.6831220768  1.5703769142  0.9935701473
C   1.2466834531 -0.5578179676  0.0575714745
H   0.7291050370 -1.0869762115  0.8537217803
H   1.0586241572 -1.0360477809 -0.8984719476
H   2.3168951685 -0.6000533056  0.2611496333
7
Iter 148 Image 7  Energy = -4188.6820323786
C   0.8124661576  0.8725539846 -0.0178791387
H   0.8483597810  1.3087130480 -1.0334304165
O   0.4347319452  1.5294804387  0.9200416975
C   1.2760068816 -0.5472351450  0.0880187957
H   0.8812389742 -1.0027992894  0.9899181937
H   0.9827238203 -1.1165311436 -0.7905750064
H   2.3657139568 -0.5538150750  0.1378447824
7
Iter 148 Image 8  Energy = -4188.6819968244
C   0.7840367852  0.8656586589 -0.0371164025
H   0.9809293880  1.3403901038 -1.0231241499
O   0.1875804579  1.4681235287  0.8223429327
C   1.3100769769 -0.5359012779  0.1153731248
H   1.0639489065 -0.9236344469  1.1059940899
H   0.8779311114 -1.1816924395 -0.6582837811
H   2.3967379442 -0.5425772870 -0.0312469938
7
Iter 149 Image 0  Energy = -4188.2527480593
C   0.8260657415  0.5508603911 -0.1261794589
H   0.4554445983  1.2417513435 -0.8784317668
O   0.5680753083  1.0246514429  1.1187434847
C   1.4411098584 -0.5873603774 -0.4363613732
H   0.9099091373  0.3932317500  1.7666320721
H   1.5916834696 -0.8592929697 -1.4741885892
H   1.8089534565 -1.2734747403  0.3237244514
7
Iter 149 Image 1  Energy = -4188.2213309726
C   0.8682276446  0.5840470187 -0.1480562307
H   0.5053297861  1.2719055138 -0.8966222451
O   0.7012468189  1.0683335231  1.1081409324
C   1.4043949427 -0.5946502864 -0.4213735896
H   0.8538461648  0.3238234308  1.6970652412
H   1.4177694448 -0.9893532557 -1.4210092828
H   1.8504272602 -1.1737403353  0.3757927043
7
Iter 149 Image 2  Energy = -4187.9776378146
C   0.8784322516  0.6256792804 -0.1822728175
H   0.4839526796  1.3227059356 -0.9067428541
O   0.7692239555  1.0444946247  1.1114150001
C   1.3974759739 -0.5713054739 -0.3958273893
H   0.7772190430  0.1848321775  1.5455828123
H   1.3442822896 -1.1195852042 -1.3104963442
H   1.9506560977 -0.9964558334  0.4322778996
7
Iter 149 Image 3  Energy = -4187.0738657138
C   0.9106220066  0.6966314526 -0.1965157724
H   0.4821596082  1.4044922278 -0.8920092303
O   0.8445574622  1.0090876560  1.1216195632
C   1.3429700362 -0.5607709570 -0.3175480210
H   0.7248584892 -0.0016131020  1.2701505411
H   1.2651531622 -1.1863141773 -1.1641857740
H   2.0309215701 -0.8711474639  0.4724246728
7
Iter 149 Image 4  Energy = -4186.6808254740
C   0.9297923016  0.8364780217 -0.1050100623
H   0.4555722423  1.4321509216 -0.8971701898
O   0.9596781745  1.2824104756  1.0309842876
C   1.2207797358 -0.6004650534 -0.1147119107
H   0.7066552315 -0.4350111018  0.9622115264
H   1.2384415125 -1.1829134953 -1.0613513273
H   2.0903232793 -0.8422842074  0.4789834439
7
Iter 149 Image 5  Energy = -4188.5215999356
C   0.8988720102  0.8834880384 -0.0377130727
H   0.5601859458  1.3718664107 -0.9677412598
O   0.8969878872  1.5045776185  0.9904547128
C   1.2464167700 -0.5672247772  0.0000801989
H   0.6311435033 -0.8687549241  0.8434424864
H   1.1184389291 -1.1312298212 -0.9220154109
H   2.2491971300 -0.7023569870  0.3874288468
7
Iter 149 Image 6  Energy = -4188.6725037715
C   0.8435686425  0.8868839667  0.0199477767
H   0.7244764421  1.3130443266 -0.9939978584
O   0.6799811309  1.5702434689  0.9947429834
C   1.2471204534 -0.5573568513  0.0576042341
H   0.7306881734 -1.0866517171  0.8541302689
H   1.0579274335 -1.0351006650 -0.8983366881
H   2.3174793165 -0.6006952437  0.2598489111
7
Iter 149 Image 7  Energy = -4188.6827728769
C   0.8119459633  0.8735193805 -0.0161823403
H   0.8493110869  1.3089559165 -1.0332074091
O   0.4347792153  1.5284164124  0.9185511314
C   1.2758998663 -0.5473054243  0.0879458138
H   0.8815461524 -1.0029019423  0.9899489063
H   0.9822104199 -1.1164047973 -0.7904148286
H   2.3655488103 -0.5539127328  0.1372976366
7
Iter 149 Image 8  Energy = -4188.6819968244
C   0.7840367852  0.8656586589 -0.0371164025
H   0.9809293880  1.3403901038 -1.0231241499
O   0.1875804579  1.4681235287  0.8223429327
C   1.3100769769 -0.5359012779  0.1153731248
H   1.0639489065 -0.9236344469  1.1059940899
H   0.8779311114 -1.1816924395 -0.6582837811
H   2.3967379442 -0.5425772870 -0.0312469938
7
Iter 150 Image 0  Energy = -4188.2527480593
C   0.8260657415  0.5508603911 -0.1261794589
H   0.4554445983  1.2417513435 -0.8784317668
O   0.5680753083  1.0246514429  1.1187434847
C   1.4411098584 -0.5873603774 -0.4363613732
H   0.9099091373  0.3932317500  1.7666320721
H   1.5916834696 -0.8592929697 -1.4741885892
H   1.8089534565 -1.2734747403  0.3237244514
7
Iter 150 Image 1  Energy = -4188.2212789825
C   0.8664850818  0.5844065441 -0.1480428890
H   0.5027125794  1.2683641279 -0.9001518195
O   0.7024780352  1.0701473787  1.1086812629
C   1.4036146764 -0.5941192067 -0.4209631584
H   0.8531698710  0.3254170207  1.6982194548
H   1.4204843284 -0.9922818455 -1.4192151239
H   1.8522975160 -1.1715684257  0.3754096468
7
Iter 150 Image 2  Energy = -4187.9762350491
C   0.8795436052  0.6257350234 -0.1831880759
H   0.4814139801  1.3217660438 -0.9059138940
O   0.7708568584  1.0460899978  1.1095382298
C   1.4042151880 -0.5702368217 -0.3952509795
H   0.7723848547  0.1862128503  1.5426000471
H   1.3412159174 -1.1189174293 -1.3086475115
H   1.9516119127 -1.0002841529  0.4347984317
7
Iter 150 Image 3  Energy = -4187.0499305150
C   0.9235695579  0.7015056354 -0.1959592067
H   0.4871621090  1.4142567544 -0.8803203580
O   0.8472786782  1.0152106156  1.1237339212
C   1.3292538051 -0.5672012892 -0.3183269396
H   0.7219342004  0.0016179608  1.2666469474
H   1.2592990312 -1.2013400204 -1.1644322808
H   2.0327450757 -0.8736840601  0.4625936252
7
Iter 150 Image 4  Energy = -4186.6771292335
C   0.9384443225  0.8409578396 -0.0908724076
H   0.4703863877  1.4239475848 -0.8993735753
O   0.9561245170  1.2883304358  1.0418364361
C   1.2223150528 -0.5919291390 -0.1225253860
H   0.7016467720 -0.4254863864  0.9599142949
H   1.2195735619 -1.1879946993 -1.0643722653
H   2.0927519269 -0.8574600388  0.4693284583
7
Iter 150 Image 5  Energy = -4188.5210119805
C   0.9067665575  0.8876823918 -0.0339923855
H   0.5529026160  1.3687234064 -0.9623814540
O   0.9119046008  1.5135784049  0.9952510467
C   1.2450053735 -0.5666978751 -0.0028292411
H   0.6185264083 -0.8626207641  0.8384257942
H   1.1193411150 -1.1355762115 -0.9261421995
H   2.2467955752 -0.7147237900  0.3856047540
7
Iter 150 Image 6  Energy = -4188.6729947498
C   0.8429280490  0.8870063950  0.0195961124
H   0.7261692742  1.3138431880 -0.9943138374
O   0.6739412630  1.5678422290  0.9962888819
C   1.2488903624 -0.5561772250  0.0568784878
H   0.7332390829 -1.0829669637  0.8552373347
H   1.0568002325 -1.0351193210 -0.8979408102
H   2.3192733221 -0.6040609800  0.2581935187
7
Iter 150 Image 7  Energy = -4188.6827504060
C   0.8116965144  0.8740930414 -0.0151570651
H   0.8506433954  1.3089710114 -1.0329955972
O   0.4345253642  1.5281331039  0.9179968355
C   1.2756528409 -0.5474841123  0.0879677194
H   0.8818362217 -1.0034499314  0.9900682078
H   0.9814769446 -1.1161908443 -0.7905670212
H   2.3654102403 -0.5537054619  0.1366258215
7
Iter 150 Image 8  Energy = -4188.6819968244
C   0.7840367852  0.8656586589 -0.0371164025
H   0.9809293880  1.3403901038 -1.0231241499
O   0.1875804579  1.4681235287  0.8223429327
C   1.3100769769 -0.5359012779  0.1153731248
H   1.0639489065 -0.9236344469  1.1059940899
H   0.8779311114 -1.1816924395 -0.6582837811
H   2.3967379442 -0.5425772870 -0.0312469938
7
Iter 151 Image 0  Energy = -4188.2527480593
C   0.8260657415  0.5508603911 -0.1261794589
H   0.4554445983  1.2417513435 -0.8784317668
O   0.5680753083  1.0246514429  1.1187434847
C   1.4411098584 -0.5873603774 -0.4363613732
H   0.9099091373  0.3932317500  1.7666320721
H   1.5916834696 -0.8592929697 -1.4741885892
H   1.8089534565 -1.2734747403  0.3237244514
7
Iter 151 Image 1  Energy = -4188.2209109238
C   0.8645975430  0.5836512559 -0.1480889979
H   0.5008364212  1.2654492536 -0.9029414471
O   0.7011241830  1.0708864250  1.1087185044
C   1.4038796510 -0.5933793746 -0.4201414914
H   0.8512536183  0.3261587347  1.6988824065
H   1.4227689646 -0.9933252879 -1.4178495896
H   1.8567817004 -1.1690753580  0.3753579526
7
Iter 151 Image 2  Energy = -4187.9754832110
C   0.8839125415  0.6255838556 -0.1826720313
H   0.4872456806  1.3277333364 -0.9029878414
O   0.7673157655  1.0450388862  1.1102141423
C   1.4044099255 -0.5679168443 -0.3960655386
H   0.7744603037  0.1839631300  1.5416081476
H   1.3358720593 -1.1186780980 -1.3104529613
H   1.9480260276 -1.0053587150  0.4342923970
7
Iter 151 Image 3  Energy = -4187.0584456793
C   0.9270976412  0.7070722595 -0.1899254371
H   0.5037557209  1.4189945249 -0.8810647597
O   0.8394666657  1.0168549685  1.1273627407
C   1.3210230170 -0.5720340522 -0.3193695991
H   0.7274054059  0.0030046378  1.2734082700
H   1.2485766566 -1.2056831161 -1.1653644287
H   2.0339174307 -0.8778436896  0.4488888534
7
Iter 151 Image 4  Energy = -4186.6539696327
C   0.9328895305  0.8412503204 -0.0855648699
H   0.5029221104  1.4271501886 -0.9097098776
O   0.9261839332  1.2827010579  1.0553470706
C   1.2255996914 -0.5910800818 -0.1230832321
H   0.7148790261 -0.4182309637  0.9709039783
H   1.1962835518 -1.1872741202 -1.0665701219
H   2.1024847120 -0.8641507741  0.4526125340
7
Iter 151 Image 5  Energy = -4188.5132388791
C   0.9094162571  0.8912100198 -0.0260749810
H   0.5650539773  1.3664441425 -0.9643710109
O   0.8997268171  1.5111809479  1.0021568628
C   1.2452742662 -0.5657945451 -0.0045407210
H   0.6196188446 -0.8505557547  0.8423837135
H   1.1111474561 -1.1340814997 -0.9285858925
H   2.2510046732 -0.7280377417  0.3729682951
7
Iter 151 Image 6  Energy = -4188.6734663865
C   0.8434307172  0.8877946266  0.0189044184
H   0.7249216731  1.3155534002 -0.9949972918
O   0.6721000537  1.5656573306  0.9971997027
C   1.2503989309 -0.5557127301  0.0559068825
H   0.7331734824 -1.0784192367  0.8560097779
H   1.0567573223 -1.0374021620 -0.8977312375
H   2.3204594035 -0.6071039298  0.2586474148
7
Iter 151 Image 7  Energy = -4188.6792711636
C   0.8102787626  0.8763727971 -0.0117205237
H   0.8506093114  1.3086504603 -1.0336794826
O   0.4357823300  1.5264701262  0.9152704224
C   1.2756614067 -0.5478598952  0.0879292910
H   0.8817297185 -1.0037514057  0.9903217045
H   0.9815531485 -1.1163049830 -0.7909025696
H   2.3656268560 -0.5532102884  0.1367200394
7
Iter 151 Image 8  Energy = -4188.6819968244
C   0.7840367852  0.8656586589 -0.0371164025
H   0.9809293880  1.3403901038 -1.0231241499
O   0.1875804579  1.4681235287  0.8223429327
C   1.3100769769 -0.5359012779  0.1153731248
H   1.0639489065 -0.9236344469  1.1059940899
H   0.8779311114 -1.1816924395 -0.6582837811
H   2.3967379442 -0.5425772870 -0.0312469938
7
Iter 152 Image 0  Energy = -4188.2527480593
C   0.8260657415  0.5508603911 -0.1261794589
H   0.4554445983  1.2417513435 -0.8784317668
O   0.5680753083  1.0246514429  1.1187434847
C   1.4411098584 -0.5873603774 -0.4363613732
H   0.9099091373  0.3932317500  1.7666320721
H   1.5916834696 -0.8592929697 -1.4741885892
H   1.8089534565 -1.2734747403  0.3237244514
7
Iter 152 Image 1  Energy = -4188.2202352604
C   0.8615890429  0.5824720074 -0.1480386764
H   0.4992378178  1.2620297364 -0.9060381538
O   0.6967849148  1.0706107634  1.1085584503
C   1.4054337778 -0.5927616871 -0.4188050821
H   0.8474646959  0.3262759044  1.6993744155
H   1.4255300650 -0.9929714225 -1.4164030648
H   1.8652017228 -1.1652895079  0.3752895212
7
Iter 152 Image 2  Energy = -4187.9758730403
C   0.8896697340  0.6300407424 -0.1804736821
H   0.5038846658  1.3415766572 -0.8966294979
O   0.7579480145  1.0401180977  1.1133572305
C   1.4010856712 -0.5681588558 -0.3996065623
H   0.7840972016  0.1776648722  1.5420250650
H   1.3262096321 -1.1174398039 -1.3153230535
H   1.9383473313 -1.0134360690  0.4305870352
7
Iter 152 Image 3  Energy = -4187.0925986192
C   0.9257728246  0.7103900697 -0.1795699803
H   0.5366953038  1.4222368121 -0.8930267930
O   0.8169578471  1.0157826503  1.1350882779
C   1.3111733029 -0.5728643674 -0.3194019012
H   0.7435248005  0.0024607354  1.2927836464
H   1.2303030682 -1.2030777584 -1.1695603684
H   2.0368154547 -0.8845627023  0.4276228626
7
Iter 152 Image 4  Energy = -4186.5954021683
C   0.9129199330  0.8374879562 -0.0795013396
H   0.5632071358  1.4417317755 -0.9322896594
O   0.8590959090  1.2625221060  1.0703415658
C   1.2297034253 -0.5934326424 -0.1201000198
H   0.7502355035 -0.4109293638  1.0003087650
H   1.1616834594 -1.1819945466 -1.0689291075
H   2.1243971649 -0.8650196137  0.4241053272
7
Iter 152 Image 5  Energy = -4188.4927660397
C   0.9077520716  0.8926375010 -0.0180407150
H   0.6008360987  1.3642998642 -0.9734055679
O   0.8557067946  1.5001631418  1.0190900747
C   1.2479859610 -0.5640871713 -0.0052638009
H   0.6345826423 -0.8289416779  0.8575751937
H   1.0913496595 -1.1272610348 -0.9309229030
H   2.2630290984 -0.7464450339  0.3449040688
7
Iter 152 Image 6  Energy = -4188.6735718867
C   0.8451765624  0.8888490321  0.0166799299
H   0.7203844996  1.3185767672 -0.9962152357
O   0.6737741710  1.5635968026  0.9986506871
C   1.2521042162 -0.5556027968  0.0543330638
H   0.7305631537 -1.0714929137  0.8566190452
H   1.0577979216 -1.0425485666 -0.8975328101
H   2.3214410586 -0.6110111141  0.2614048741
7
Iter 152 Image 7  Energy = -4188.6805761179
C   0.8102073222  0.8761508192 -0.0124938488
H   0.8490678489  1.3076786991 -1.0348362549
O   0.4363674711  1.5276764408  0.9164113762
C   1.2758106662 -0.5481435507  0.0881095862
H   0.8811556439 -1.0041028941  0.9906893147
H   0.9824450502 -1.1166459461 -0.7916332848
H   2.3661875549 -0.5522467435  0.1376919539
7
Iter 152 Image 8  Energy = -4188.6819968244
C   0.7840367852  0.8656586589 -0.0371164025
H   0.9809293880  1.3403901038 -1.0231241499
O   0.1875804579  1.4681235287  0.8223429327
C   1.3100769769 -0.5359012779  0.1153731248
H   1.0639489065 -0.9236344469  1.1059940899
H   0.8779311114 -1.1816924395 -0.6582837811
H   2.3967379442 -0.5425772870 -0.0312469938
7
Iter 153 Image 0  Energy = -4188.2527480593
C   0.8260657415  0.5508603911 -0.1261794589
H   0.4554445983  1.2417513435 -0.8784317668
O   0.5680753083  1.0246514429  1.1187434847
C   1.4411098584 -0.5873603774 -0.4363613732
H   0.9099091373  0.3932317500  1.7666320721
H   1.5916834696 -0.8592929697 -1.4741885892
H   1.8089534565 -1.2734747403  0.3237244514
7
Iter 153 Image 1  Energy = -4188.2194714567
C   0.8582666727  0.5806276599 -0.1482484194
H   0.4983590686  1.2591929859 -0.9072154766
O   0.6879292555  1.0683213291  1.1070408846
C   1.4098658418 -0.5933443646 -0.4167225005
H   0.8415631165  0.3258690365  1.6985627219
H   1.4273640103 -0.9895995007 -1.4155606576
H   1.8778939694 -1.1607010703  0.3760810893
7
Iter 153 Image 2  Energy = -4187.9737775645
C   0.8973910062  0.6382871268 -0.1753878508
H   0.5371635032  1.3658850908 -0.8871420877
O   0.7419946258  1.0301418097  1.1211384309
C   1.3875619560 -0.5701737053 -0.4064658265
H   0.8045627194  0.1661641769  1.5465759501
H   1.3117292351 -1.1158320304 -1.3245230919
H   1.9208391107 -1.0241066839  0.4197413961
7
Iter 153 Image 3  Energy = -4187.1369623712
C   0.9088558332  0.7090927171 -0.1664478466
H   0.5938980968  1.4206562226 -0.9254478646
O   0.7752034083  1.0052883816  1.1461267655
C   1.3076647620 -0.5644430589 -0.3151355536
H   0.7756681278 -0.0021572542  1.3292357962
H   1.1977123416 -1.1801166498 -1.1770088861
H   2.0422400153 -0.8979549823  0.4026137147
7
Iter 153 Image 4  Energy = -4186.4873834273
C   0.8736475441  0.8277292941 -0.0867580802
H   0.6579718981  1.4773788357 -0.9609555623
O   0.7457788971  1.2199970275  1.0771033304
C   1.2274249493 -0.6016773789 -0.1097903231
H   0.8178880445 -0.4106463310  1.0592560547
H   1.1180321310 -1.1674118110 -1.0672918824
H   2.1604990046 -0.8550039372  0.3823721915
7
Iter 153 Image 5  Energy = -4188.4476463965
C   0.8986297775  0.8913322891 -0.0096892223
H   0.6717212933  1.3671307979 -0.9916292398
O   0.7671154754  1.4695729656  1.0409847376
C   1.2552330908 -0.5623022226 -0.0033482505
H   0.6730083604 -0.7986173309  0.8890896081
H   1.0522961445 -1.1094863032 -0.9300775838
H   2.2832382036 -0.7672645545  0.2986065606
7
Iter 153 Image 6  Energy = -4188.6655542871
C   0.8476590666  0.8945317145  0.0201711822
H   0.7113277398  1.3235862517 -0.9979200327
O   0.6827533616  1.5573796422  0.9928452954
C   1.2533901128 -0.5569388989  0.0517829967
H   0.7239082572 -1.0620742859  0.8568521476
H   1.0606635726 -1.0514342775 -0.8970742887
H   2.3215394803 -0.6146831076  0.2672820000
7
Iter 153 Image 7  Energy = -4188.6775204113
C   0.8089483684  0.8774124985 -0.0113833672
H   0.8453631054  1.3060860031 -1.0367544482
O   0.4389363461  1.5275874037  0.9153573074
C   1.2762509847 -0.5484247207  0.0883307424
H   0.8800675693 -1.0040969393  0.9909773088
H   0.9846590667 -1.1173022873 -0.7924479119
H   2.3670161474 -0.5508950886  0.1398591537
7
Iter 153 Image 8  Energy = -4188.6819968244
C   0.7840367852  0.8656586589 -0.0371164025
H   0.9809293880  1.3403901038 -1.0231241499
O   0.1875804579  1.4681235287  0.8223429327
C   1.3100769769 -0.5359012779  0.1153731248
H   1.0639489065 -0.9236344469  1.1059940899
H   0.8779311114 -1.1816924395 -0.6582837811
H   2.3967379442 -0.5425772870 -0.0312469938
7
Iter 154 Image 0  Energy = -4188.2527480593
C   0.8260657415  0.5508603911 -0.1261794589
H   0.4554445983  1.2417513435 -0.8784317668
O   0.5680753083  1.0246514429  1.1187434847
C   1.4411098584 -0.5873603774 -0.4363613732
H   0.9099091373  0.3932317500  1.7666320721
H   1.5916834696 -0.8592929697 -1.4741885892
H   1.8089534565 -1.2734747403  0.3237244514
7
Iter 154 Image 1  Energy = -4188.2199582776
C   0.8605394532  0.5797734613 -0.1485978166
H   0.4988610520  1.2612730297 -0.9044765859
O   0.6884071353  1.0681534013  1.1058173780
C   1.4101822739 -0.5935693027 -0.4169465798
H   0.8428897448  0.3260840169  1.6975566675
H   1.4252539902 -0.9887110899 -1.4166031014
H   1.8751082940 -1.1626374695  0.3771876761
7
Iter 154 Image 2  Energy = -4187.9757812044
C   0.8949389382  0.6377629794 -0.1752011292
H   0.5357990390  1.3619884297 -0.8896362398
O   0.7455898928  1.0306284259  1.1217158359
C   1.3841864642 -0.5711956997 -0.4057139707
H   0.8027838190  0.1688175579  1.5486081893
H   1.3146473337 -1.1167216853 -1.3234597087
H   1.9232967004 -1.0209142629  0.4176238431
7
Iter 154 Image 3  Energy = -4187.1492375678
C   0.9018709882  0.7070088883 -0.1706529100
H   0.5886783949  1.4166859991 -0.9272114634
O   0.7811427547  1.0006075062  1.1420713660
C   1.3172125718 -0.5614547354 -0.3147382260
H   0.7734790228 -0.0033723087  1.3246606174
H   1.1974019135 -1.1691394750 -1.1734164248
H   2.0414568800 -0.8999704232  0.4132231647
7
Iter 154 Image 4  Energy = -4186.5227412006
C   0.8772462901  0.8292506311 -0.0975804033
H   0.6418824186  1.4793906051 -0.9443963557
O   0.7656649278  1.2211073073  1.0599127841
C   1.2236877415 -0.6055258506 -0.1047154819
H   0.8124416678 -0.4166577992  1.0548304755
H   1.1306526044 -1.1655792285 -1.0632021281
H   2.1496668357 -0.8516199975  0.3890868060
7
Iter 154 Image 5  Energy = -4188.4625295869
C   0.8968926569  0.8901495517 -0.0143776817
H   0.6669803610  1.3720909891 -0.9874515379
O   0.7769373313  1.4658675751  1.0297944845
C   1.2546101766 -0.5636285733 -0.0011214236
H   0.6744563790 -0.8078224391  0.8858392414
H   1.0530338028 -1.1071686972 -0.9262814997
H   2.2783316247 -0.7591227647  0.3075349973
7
Iter 154 Image 6  Energy = -4188.6711927673
C   0.8489590446  0.8879479366  0.0113606127
H   0.7124744885  1.3228375038 -0.9963177012
O   0.6820857773  1.5637020756  0.9999802410
C   1.2524134636 -0.5570871772  0.0528840157
H   0.7240032189 -1.0645632581  0.8566231818
H   1.0605733194 -1.0500362555 -0.8971274594
H   2.3207322794 -0.6124337697  0.2665364236
7
Iter 154 Image 7  Energy = -4188.6788906029
C   0.8124047988  0.8716710060 -0.0200143716
H   0.8453677585  1.3063014326 -1.0355359501
O   0.4360515474  1.5324934529  0.9227564641
C   1.2761024181 -0.5477274202  0.0885239292
H   0.8801239270 -1.0040263664  0.9905578730
H   0.9845824279 -1.1169635888 -0.7921499265
H   2.3666086992 -0.5513816411  0.1398007826
7
Iter 154 Image 8  Energy = -4188.6819968244
C   0.7840367852  0.8656586589 -0.0371164025
H   0.9809293880  1.3403901038 -1.0231241499
O   0.1875804579  1.4681235287  0.8223429327
C   1.3100769769 -0.5359012779  0.1153731248
H   1.0639489065 -0.9236344469  1.1059940899
H   0.8779311114 -1.1816924395 -0.6582837811
H   2.3967379442 -0.5425772870 -0.0312469938
7
Iter 155 Image 0  Energy = -4188.2527480593
C   0.8260657415  0.5508603911 -0.1261794589
H   0.4554445983  1.2417513435 -0.8784317668
O   0.5680753083  1.0246514429  1.1187434847
C   1.4411098584 -0.5873603774 -0.4363613732
H   0.9099091373  0.3932317500  1.7666320721
H   1.5916834696 -0.8592929697 -1.4741885892
H   1.8089534565 -1.2734747403  0.3237244514
7
Iter 155 Image 1  Energy = -4188.2204060575
C   0.8624488419  0.5808184314 -0.1487039138
H   0.4993929815  1.2630192445 -0.9025200550
O   0.6913121709  1.0685816760  1.1056150003
C   1.4094466991 -0.5943249227 -0.4178208132
H   0.8453573816  0.3265012609  1.6971863428
H   1.4235650878 -0.9893399131 -1.4172700747
H   1.8697188151 -1.1648898259  0.3774510715
7
Iter 155 Image 2  Energy = -4187.9779826722
C   0.8904120484  0.6355328184 -0.1764023424
H   0.5257312118  1.3524896571 -0.8941696968
O   0.7527764618  1.0341864738  1.1195213915
C   1.3867540765 -0.5717709295 -0.4034436396
H   0.7956324352  0.1733640371  1.5486395138
H   1.3200589817 -1.1170679030 -1.3196804161
H   1.9298770212 -1.0163684744  0.4194718315
7
Iter 155 Image 3  Energy = -4187.1450992173
C   0.9039902039  0.7028041060 -0.1784286105
H   0.5698241255  1.4168764002 -0.9176318160
O   0.7960544787  1.0019029369  1.1366613573
C   1.3219847568 -0.5599617287 -0.3145846965
H   0.7632255539 -0.0033262189  1.3114951660
H   1.2058394310 -1.1702885571 -1.1704594085
H   2.0403239501 -0.8976414146  0.4268840022
7
Iter 155 Image 4  Energy = -4186.5688281453
C   0.8940191312  0.8298780897 -0.0997524793
H   0.6052114446  1.4716358485 -0.9283134619
O   0.8084186490  1.2355713969  1.0488970268
C   1.2189393625 -0.6028249490 -0.1073039911
H   0.7898964306 -0.4205602718  1.0365565991
H   1.1501339073 -1.1696712870 -1.0612541064
H   2.1346235964 -0.8536631925  0.4051060142
7
Iter 155 Image 5  Energy = -4188.4830773494
C   0.8999812917  0.8869153606 -0.0239745112
H   0.6438903130  1.3751779855 -0.9791397403
O   0.8078356171  1.4750998567  1.0209927814
C   1.2520998064 -0.5644950733 -0.0009068505
H   0.6638128332 -0.8221052408  0.8756299158
H   1.0642456438 -1.1114906568 -0.9246137886
H   2.2693768201 -0.7487366019  0.3259486659
7
Iter 155 Image 6  Energy = -4188.6735065004
C   0.8470816997  0.8894496301  0.0166379452
H   0.7158668679  1.3211641342 -0.9955868726
O   0.6805326575  1.5622369572  0.9955061701
C   1.2515325618 -0.5571678117  0.0536303723
H   0.7261363621 -1.0684585593  0.8564563015
H   1.0597624094 -1.0466714476 -0.8970012587
H   2.3203290318 -0.6101857838  0.2642967403
7
Iter 155 Image 7  Energy = -4188.6824583134
C   0.8115624697  0.8732709412 -0.0170444813
H   0.8467108555  1.3070462517 -1.0348227594
O   0.4362945622  1.5301675429  0.9197289228
C   1.2759834080 -0.5476327290  0.0883030881
H   0.8806785145 -1.0037690854  0.9903060702
H   0.9838713484 -1.1166933506 -0.7914864637
H   2.3661404039 -0.5520227048  0.1389544476
7
Iter 155 Image 8  Energy = -4188.6819968244
C   0.7840367852  0.8656586589 -0.0371164025
H   0.9809293880  1.3403901038 -1.0231241499
O   0.1875804579  1.4681235287  0.8223429327
C   1.3100769769 -0.5359012779  0.1153731248
H   1.0639489065 -0.9236344469  1.1059940899
H   0.8779311114 -1.1816924395 -0.6582837811
H   2.3967379442 -0.5425772870 -0.0312469938
7
Iter 156 Image 0  Energy = -4188.2527480593
C   0.8260657415  0.5508603911 -0.1261794589
H   0.4554445983  1.2417513435 -0.8784317668
O   0.5680753083  1.0246514429  1.1187434847
C   1.4411098584 -0.5873603774 -0.4363613732
H   0.9099091373  0.3932317500  1.7666320721
H   1.5916834696 -0.8592929697 -1.4741885892
H   1.8089534565 -1.2734747403  0.3237244514
7
Iter 156 Image 1  Energy = -4188.2204293779
C   0.8626964244  0.5808915616 -0.1487142004
H   0.4988598793  1.2625253008 -0.9029756155
O   0.6917791700  1.0691338969  1.1056247000
C   1.4091208698 -0.5940177389 -0.4179293996
H   0.8456238410  0.3268907787  1.6973500485
H   1.4238116026 -0.9903383849 -1.4169128202
H   1.8693502028 -1.1647194831  0.3774947949
7
Iter 156 Image 2  Energy = -4187.9784574232
C   0.8893712021  0.6338744097 -0.1763610648
H   0.5252261856  1.3514101426 -0.8956700019
O   0.7548373327  1.0354777291  1.1188126715
C   1.3879559776 -0.5706788164 -0.4025297887
H   0.7937789308  0.1737505258  1.5485820111
H   1.3188624541 -1.1159845119 -1.3187679990
H   1.9312101734 -1.0174838110  0.4198707609
7
Iter 156 Image 3  Energy = -4187.1392401925
C   0.9069380085  0.7017993056 -0.1799749935
H   0.5706970378  1.4217426885 -0.9120129733
O   0.7969830641  1.0044971096  1.1352899852
C   1.3193092516 -0.5637317740 -0.3162384485
H   0.7624100836 -0.0036472142  1.3103392253
H   1.2038269973 -1.1717774227 -1.1704649566
H   2.0410780820 -0.8985171622  0.4269980493
7
Iter 156 Image 4  Energy = -4186.5740644953
C   0.9025880484  0.8261387950 -0.0952012655
H   0.6037468685  1.4731475470 -0.9302481920
O   0.8099298444  1.2412151002  1.0517234270
C   1.2159921642 -0.6004597155 -0.1102247843
H   0.7878436784 -0.4194568301  1.0362308755
H   1.1479131010 -1.1726197493 -1.0618894139
H   2.1332288437 -0.8575995096  0.4035448729
7
Iter 156 Image 5  Energy = -4188.4841837904
C   0.9038231083  0.8850598975 -0.0253328143
H   0.6411542859  1.3782043166 -0.9765249823
O   0.8133384258  1.4781049840  1.0208516019
C   1.2500657436 -0.5641023489 -0.0025219140
H   0.6609201981 -0.8231193398  0.8752712069
H   1.0640429986 -1.1136582879 -0.9253364962
H   2.2678975845 -0.7501235915  0.3275297906
7
Iter 156 Image 6  Energy = -4188.6734951904
C   0.8468954144  0.8877722311  0.0145752446
H   0.7168558317  1.3210709566 -0.9951653530
O   0.6786853810  1.5629358497  0.9973822394
C   1.2518016929 -0.5565537385  0.0536876564
H   0.7270237645 -1.0679515075  0.8566764046
H   1.0594154510 -1.0461951528 -0.8967585108
H   2.3205640517 -0.6107115064  0.2635417385
7
Iter 156 Image 7  Energy = -4188.6824856272
C   0.8108675943  0.8744254096 -0.0149700717
H   0.8472537362  1.3072037468 -1.0346949679
O   0.4366877770  1.5288613524  0.9177734383
C   1.2759205656 -0.5476877435  0.0882105187
H   0.8809392959 -1.0037728256  0.9902388455
H   0.9836204020 -1.1165843156 -0.7912472816
H   2.3659521922 -0.5520787592  0.1386283415
7
Iter 156 Image 8  Energy = -4188.6819968244
C   0.7840367852  0.8656586589 -0.0371164025
H   0.9809293880  1.3403901038 -1.0231241499
O   0.1875804579  1.4681235287  0.8223429327
C   1.3100769769 -0.5359012779  0.1153731248
H   1.0639489065 -0.9236344469  1.1059940899
H   0.8779311114 -1.1816924395 -0.6582837811
H   2.3967379442 -0.5425772870 -0.0312469938
7
Iter 157 Image 0  Energy = -4188.2527480593
C   0.8260657415  0.5508603911 -0.1261794589
H   0.4554445983  1.2417513435 -0.8784317668
O   0.5680753083  1.0246514429  1.1187434847
C   1.4411098584 -0.5873603774 -0.4363613732
H   0.9099091373  0.3932317500  1.7666320721
H   1.5916834696 -0.8592929697 -1.4741885892
H   1.8089534565 -1.2734747403  0.3237244514
7
Iter 157 Image 1  Energy = -4188.2202667615
C   0.8624177517  0.5807078313 -0.1487692558
H   0.4985380936  1.2618983384 -0.9033096853
O   0.6904390784  1.0690012872  1.1053803093
C   1.4097607243 -0.5939447213 -0.4176632927
H   0.8448549616  0.3270141100  1.6972518325
H   1.4240843447 -0.9903903532 -1.4166072177
H   1.8711470256 -1.1639205209  0.3776548281
7
Iter 157 Image 2  Energy = -4187.9783278725
C   0.8893490394  0.6345994035 -0.1754371455
H   0.5316113614  1.3549567913 -0.8952570471
O   0.7536577244  1.0342467743  1.1200393267
C   1.3861024946 -0.5708851346 -0.4030434708
H   0.7964750566  0.1721122180  1.5495375015
H   1.3149810480 -1.1143969085 -1.3198496077
H   1.9290655311 -1.0202674604  0.4179470594
7
Iter 157 Image 3  Energy = -4187.1419703460
C   0.9056868186  0.7007925409 -0.1784182480
H   0.5819041228  1.4254656059 -0.9138598524
O   0.7893433102  1.0037173265  1.1354120074
C   1.3172055134 -0.5652704275 -0.3156085546
H   0.7683312171 -0.0048420251  1.3165902358
H   1.1964548525 -1.1681467827 -1.1729427222
H   2.0423166986 -0.9013507072  0.4227630144
7
Iter 157 Image 4  Energy = -4186.5575548655
C   0.9003329342  0.8244777716 -0.0945387277
H   0.6197415941  1.4805136848 -0.9357443851
O   0.7905269711  1.2370450553  1.0534582056
C   1.2141550611 -0.6024158514 -0.1096315244
H   0.7994007149 -0.4191235391  1.0477985361
H   1.1394784777 -1.1722728174 -1.0620996596
H   2.1376068027 -0.8578586628  0.3946930578
7
Iter 157 Image 5  Energy = -4188.4781795612
C   0.9044733749  0.8846252322 -0.0235393790
H   0.6532442962  1.3822409522 -0.9781499860
O   0.8000830942  1.4729980370  1.0225305490
C   1.2497712582 -0.5642542015 -0.0030636680
H   0.6671616429 -0.8189925670  0.8816507032
H   1.0561616189 -1.1122997749 -0.9255863703
H   2.2703470765 -0.7539520386  0.3200945328
7
Iter 157 Image 6  Energy = -4188.6737361720
C   0.8469940223  0.8882871699  0.0148661079
H   0.7159142245  1.3218536422 -0.9952464871
O   0.6794986051  1.5617743448  0.9965853135
C   1.2521059650 -0.5564984179  0.0532833273
H   0.7263437568 -1.0660754168  0.8568176884
H   1.0597528791 -1.0474467743 -0.8964772504
H   2.3206321336 -0.6115274423  0.2641106850
7
Iter 157 Image 7  Energy = -4188.6826584360
C   0.8110049993  0.8740523661 -0.0155318612
H   0.8468698661  1.3069967142 -1.0347717111
O   0.4367180008  1.5292738703  0.9181863285
C   1.2759397776 -0.5476525545  0.0882672044
H   0.8808953970 -1.0037980736  0.9901963973
H   0.9838657110 -1.1165971917 -0.7912528219
H   2.3659478166 -0.5519082585  0.1388452760
7
Iter 157 Image 8  Energy = -4188.6819968244
C   0.7840367852  0.8656586589 -0.0371164025
H   0.9809293880  1.3403901038 -1.0231241499
O   0.1875804579  1.4681235287  0.8223429327
C   1.3100769769 -0.5359012779  0.1153731248
H   1.0639489065 -0.9236344469  1.1059940899
H   0.8779311114 -1.1816924395 -0.6582837811
H   2.3967379442 -0.5425772870 -0.0312469938
7
Iter 158 Image 0  Energy = -4188.2527480593
C   0.8260657415  0.5508603911 -0.1261794589
H   0.4554445983  1.2417513435 -0.8784317668
O   0.5680753083  1.0246514429  1.1187434847
C   1.4411098584 -0.5873603774 -0.4363613732
H   0.9099091373  0.3932317500  1.7666320721
H   1.5916834696 -0.8592929697 -1.4741885892
H   1.8089534565 -1.2734747403  0.3237244514
7
Iter 158 Image 1  Energy = -4188.2197143158
C   0.8620787356  0.5801643670 -0.1490376353
H   0.4978428810  1.2604714866 -0.9038290224
O   0.6861691970  1.0684703411  1.1044027277
C   1.4120138970 -0.5937841946 -0.4168587949
H   0.8428247872  0.3274984678  1.6966929889
H   1.4242155930 -0.9906259276 -1.4157812149
H   1.8760968622 -1.1618284499  0.3783484912
7
Iter 158 Image 2  Energy = -4187.9769753984
C   0.8887663490  0.6359568302 -0.1722531112
H   0.5539152171  1.3659009914 -0.8949892438
O   0.7510049698  1.0302550437  1.1245812276
C   1.3782396673 -0.5715192964 -0.4038489937
H   0.8053051887  0.1675237628  1.5533026279
H   1.3009872000 -1.1081332133 -1.3237667388
H   1.9230236783 -1.0296184041  0.4109108901
7
Iter 158 Image 3  Energy = -4187.1353183037
C   0.9004576865  0.6985701322 -0.1741013044
H   0.6200676651  1.4388880746 -0.9185435880
O   0.7641302491  0.9987554209  1.1341706487
C   1.3105767713 -0.5711077411 -0.3119032414
H   0.7889529082 -0.0089052156  1.3362428433
H   1.1711731254 -1.1542738815 -1.1819150250
H   2.0458841503 -0.9115612259  0.4099854896
7
Iter 158 Image 4  Energy = -4186.4988576344
C   0.8911238828  0.8247365385 -0.0973173483
H   0.6718070614  1.5037569519 -0.9471387573
O   0.7298566573  1.2231846335  1.0536355712
C   1.2082069946 -0.6115829760 -0.1043118542
H   0.8380175912 -0.4187163585  1.0867732145
H   1.1140892186 -1.1719768111 -1.0627561366
H   2.1481411931 -0.8590363469  0.3650507117
7
Iter 158 Image 5  Energy = -4188.4569381943
C   0.9059100447  0.8832983083 -0.0233179436
H   0.6953942540  1.3995241994 -0.9814385559
O   0.7567452114  1.4557427755  1.0279872794
C   1.2483316619 -0.5671272603 -0.0033687573
H   0.6903872599 -0.8077967160  0.9036341499
H   1.0283737493 -1.1088528305 -0.9256504035
H   2.2761002360 -0.7644228098  0.2960905357
7
Iter 158 Image 6  Energy = -4188.6734910330
C   0.8477107968  0.8880659622  0.0130392648
H   0.7132351893  1.3242024222 -0.9951585964
O   0.6819606928  1.5597506322  0.9962910147
C   1.2527931849 -0.5564329329  0.0522551112
H   0.7241414448 -1.0601966034  0.8573280643
H   1.0607861074 -1.0512699430 -0.8955480667
H   2.3206141745 -0.6137525198  0.2657324735
7
Iter 158 Image 7  Energy = -4188.6823413840
C   0.8105722207  0.8743383238 -0.0150445206
H   0.8457631350  1.3064940407 -1.0350670185
O   0.4375227313  1.5290465107  0.9173328964
C   1.2760375996 -0.5475891094  0.0883531217
H   0.8808359728 -1.0037764360  0.9900505129
H   0.9846038914 -1.1166601092 -0.7911384333
H   2.3659060387 -0.5514863222  0.1394522290
7
Iter 158 Image 8  Energy = -4188.6819968244
C   0.7840367852  0.8656586589 -0.0371164025
H   0.9809293880  1.3403901038 -1.0231241499
O   0.1875804579  1.4681235287  0.8223429327
C   1.3100769769 -0.5359012779  0.1153731248
H   1.0639489065 -0.9236344469  1.1059940899
H   0.8779311114 -1.1816924395 -0.6582837811
H   2.3967379442 -0.5425772870 -0.0312469938
7
Iter 159 Image 0  Energy = -4188.2527480593
C   0.8260657415  0.5508603911 -0.1261794589
H   0.4554445983  1.2417513435 -0.8784317668
O   0.5680753083  1.0246514429  1.1187434847
C   1.4411098584 -0.5873603774 -0.4363613732
H   0.9099091373  0.3932317500  1.7666320721
H   1.5916834696 -0.8592929697 -1.4741885892
H   1.8089534565 -1.2734747403  0.3237244514
7
Iter 159 Image 1  Energy = -4188.2196596882
C   0.8631137915  0.5808530997 -0.1491065950
H   0.4983634357  1.2608106311 -0.9042081787
O   0.6866413673  1.0690347001  1.1044988388
C   1.4118734136 -0.5933032032 -0.4172009253
H   0.8441619043  0.3281119660  1.6968303760
H   1.4229330870 -0.9927295812 -1.4152340297
H   1.8741549823 -1.1624115542  0.3783579377
7
Iter 159 Image 2  Energy = -4187.9764141014
C   0.8856522409  0.6345321462 -0.1709521465
H   0.5619096819  1.3645986722 -0.8984679503
O   0.7557015760  1.0317348084  1.1248061044
C   1.3759166750 -0.5734641923 -0.4009117152
H   0.8051101482  0.1684477883  1.5549022870
H   1.2910029594 -1.1006743659 -1.3245425132
H   1.9259490700 -1.0348091908  0.4091023876
7
Iter 159 Image 3  Energy = -4187.1123088321
C   0.9063892264  0.6988671762 -0.1765694918
H   0.6333709822  1.4540708145 -0.9045606506
O   0.7578849340  0.9976415928  1.1303332006
C   1.2985962960 -0.5797059598 -0.3107656386
H   0.7956966124 -0.0100126117  1.3358742648
H   1.1630669568 -1.1548705826 -1.1859894778
H   2.0462375895 -0.9156248040  0.4056133023
7
Iter 159 Image 4  Energy = -4186.4902756757
C   0.8962627806  0.8258542797 -0.0930788812
H   0.6802921778  1.5074087854 -0.9412594653
O   0.7250933916  1.2310531331  1.0459477734
C   1.2019400393 -0.6107055322 -0.1024683469
H   0.8443284106 -0.4143227314  1.0944090879
H   1.1098482188 -1.1799986193 -1.0644543804
H   2.1434776690 -0.8689237074  0.3548393550
7
Iter 159 Image 5  Energy = -4188.4455247393
C   0.9092539163  0.8871330541 -0.0213286243
H   0.7081980157  1.4188778240 -0.9758198550
O   0.7549222754  1.4498286955  1.0171999528
C   1.2416105746 -0.5721713880 -0.0049123448
H   0.6982445826 -0.8108471254  0.9124424660
H   1.0181526542 -1.1177585422 -0.9250184119
H   2.2708604648 -0.7646968423  0.2913728521
7
Iter 159 Image 6  Energy = -4188.6687697491
C   0.8462805404  0.8905736434  0.0178938717
H   0.7151976498  1.3242184586 -0.9954248439
O   0.6811487257  1.5558078930  0.9919231411
C   1.2527533255 -0.5563850989  0.0519586143
H   0.7251035536 -1.0585465048  0.8582185033
H   1.0601762736 -1.0510076682 -0.8950140427
H   2.3205815190 -0.6142937106  0.2643840106
7
Iter 159 Image 7  Energy = -4188.6821460447
C   0.8117290447  0.8725416402 -0.0177461184
H   0.8466277630  1.3068017116 -1.0344002819
O   0.4359531120  1.5305239233  0.9195781798
C   1.2759183522 -0.5473381691  0.0884483109
H   0.8812610399 -1.0038907892  0.9900105927
H   0.9840478414 -1.1165107217 -0.7908740626
H   2.3657044401 -0.5517606839  0.1389221671
7
Iter 159 Image 8  Energy = -4188.6819968244
C   0.7840367852  0.8656586589 -0.0371164025
H   0.9809293880  1.3403901038 -1.0231241499
O   0.1875804579  1.4681235287  0.8223429327
C   1.3100769769 -0.5359012779  0.1153731248
H   1.0639489065 -0.9236344469  1.1059940899
H   0.8779311114 -1.1816924395 -0.6582837811
H   2.3967379442 -0.5425772870 -0.0312469938
7
Iter 160 Image 0  Energy = -4188.2527480593
C   0.8260657415  0.5508603911 -0.1261794589
H   0.4554445983  1.2417513435 -0.8784317668
O   0.5680753083  1.0246514429  1.1187434847
C   1.4411098584 -0.5873603774 -0.4363613732
H   0.9099091373  0.3932317500  1.7666320721
H   1.5916834696 -0.8592929697 -1.4741885892
H   1.8089534565 -1.2734747403  0.3237244514
7
Iter 160 Image 1  Energy = -4188.2198207995
C   0.8630250992  0.5810272781 -0.1490527358
H   0.4986424270  1.2612278032 -0.9039473390
O   0.6876964544  1.0690284953  1.1046975303
C   1.4114004872 -0.5935788958 -0.4173335830
H   0.8445831652  0.3279452937  1.6969230271
H   1.4228677426 -0.9923312278 -1.4155208994
H   1.8730266103 -1.1629527125  0.3781714310
7
Iter 160 Image 2  Energy = -4187.9773912898
C   0.8865745733  0.6347610292 -0.1718298878
H   0.5558833830  1.3620350048 -0.8978538959
O   0.7556429063  1.0322383044  1.1239505125
C   1.3776184115 -0.5736169110 -0.4011086347
H   0.8032059626  0.1698527015  1.5537290445
H   1.2952916155 -1.1029857461 -1.3237009968
H   1.9270254888 -1.0319187201  0.4107503146
7
Iter 160 Image 3  Energy = -4187.1201226062
C   0.9063580419  0.6992156931 -0.1765825647
H   0.6229408259  1.4490294303 -0.9056154274
O   0.7651770028  0.9984452015  1.1310055818
C   1.3017834192 -0.5760651281 -0.3110311011
H   0.7900460574 -0.0087818222  1.3308040876
H   1.1701850791 -1.1585567458 -1.1832398373
H   2.0447521618 -0.9129210171  0.4085948111
7
Iter 160 Image 4  Energy = -4186.5088594949
C   0.8965503020  0.8274475326 -0.0957790719
H   0.6671796862  1.5003232748 -0.9374645602
O   0.7405846642  1.2334505825  1.0471793605
C   1.2046330688 -0.6100344477 -0.1034091101
H   0.8344075986 -0.4147442141  1.0837809199
H   1.1167555954 -1.1784338232 -1.0634373463
H   2.1411317531 -0.8676432944  0.3630650012
7
Iter 160 Image 5  Energy = -4188.4589310309
C   0.9083224444  0.8852100425 -0.0261546283
H   0.6975153637  1.4125800573 -0.9754291958
O   0.7647321459  1.4564161532  1.0210224040
C   1.2428665615 -0.5708610111 -0.0041090953
H   0.6923665132 -0.8131895779  0.9061178436
H   1.0257393078 -1.1177984339 -0.9247033263
H   2.2697001281 -0.7619915635  0.2971920738
7
Iter 160 Image 6  Energy = -4188.6733187905
C   0.8468323690  0.8886167585  0.0149439429
H   0.7156645018  1.3236018528 -0.9952656820
O   0.6802587497  1.5584980893  0.9950729453
C   1.2525201198 -0.5563774487  0.0523877808
H   0.7254897807 -1.0602338812  0.8580483194
H   1.0599159916 -1.0501011431 -0.8953771711
H   2.3205600750 -0.6136371951  0.2641291465
7
Iter 160 Image 7  Energy = -4188.6824890843
C   0.8115332864  0.8729623393 -0.0171326665
H   0.8468354378  1.3069182329 -1.0344686304
O   0.4360235301  1.5301442219  0.9191635601
C   1.2759259764 -0.5474150403  0.0883995704
H   0.8812431721 -1.0038634340  0.9900965809
H   0.9839087448 -1.1165406936 -0.7909259617
H   2.3657714399 -0.5518387241  0.1388063409
7
Iter 160 Image 8  Energy = -4188.6819968244
C   0.7840367852  0.8656586589 -0.0371164025
H   0.9809293880  1.3403901038 -1.0231241499
O   0.1875804579  1.4681235287  0.8223429327
C   1.3100769769 -0.5359012779  0.1153731248
H   1.0639489065 -0.9236344469  1.1059940899
H   0.8779311114 -1.1816924395 -0.6582837811
H   2.3967379442 -0.5425772870 -0.0312469938
7
Iter 161 Image 0  Energy = -4188.2527480593
C   0.8260657415  0.5508603911 -0.1261794589
H   0.4554445983  1.2417513435 -0.8784317668
O   0.5680753083  1.0246514429  1.1187434847
C   1.4411098584 -0.5873603774 -0.4363613732
H   0.9099091373  0.3932317500  1.7666320721
H   1.5916834696 -0.8592929697 -1.4741885892
H   1.8089534565 -1.2734747403  0.3237244514
7
Iter 161 Image 1  Energy = -4188.2199074200
C   0.8632391364  0.5812222403 -0.1490451441
H   0.4990917646  1.2616914335 -0.9038519120
O   0.6885836454  1.0691539418  1.1048496397
C   1.4109696113 -0.5936251506 -0.4174747169
H   0.8452504381  0.3279727759  1.6970108451
H   1.4223744994 -0.9925012912 -1.4156056120
H   1.8717329012 -1.1635479396  0.3780543080
7
Iter 161 Image 2  Energy = -4187.9777964374
C   0.8871580029  0.6342161557 -0.1719464123
H   0.5539181498  1.3602138983 -0.8980944966
O   0.7565140871  1.0330220733  1.1234889104
C   1.3776199540 -0.5739670618 -0.4004748652
H   0.8021037698  0.1710313779  1.5533114218
H   1.2955470823 -1.1028635141 -1.3236048481
H   1.9283813104 -1.0312872775  0.4112566916
7
Iter 161 Image 3  Energy = -4187.1183999276
C   0.9070884181  0.7000312519 -0.1769044990
H   0.6193909543  1.4490849399 -0.9033651562
O   0.7690628448  0.9988434155  1.1308345507
C   1.3012592488 -0.5756126679 -0.3111889301
H   0.7879271116 -0.0083188100  1.3272672200
H   1.1732006915 -1.1613260162 -1.1818175369
H   2.0433133254 -0.9123364941  0.4091098478
7
Iter 161 Image 4  Energy = -4186.5168794414
C   0.8974040296  0.8284804561 -0.0970478919
H   0.6605983312  1.4965374230 -0.9336257691
O   0.7499222797  1.2368705990  1.0464222751
C   1.2048001174 -0.6095485908 -0.1035582500
H   0.8293068483 -0.4137461840  1.0782760183
H   1.1204104854 -1.1787933105 -1.0627233700
H   2.1388005869 -0.8694347886  0.3661921446
7
Iter 161 Image 5  Energy = -4188.4616182020
C   0.9079181214  0.8849789746 -0.0282414446
H   0.6941472717  1.4131213049 -0.9742337478
O   0.7706497569  1.4589989765  1.0208464243
C   1.2420110626 -0.5710162874 -0.0040944505
H   0.6906520476 -0.8151250004  0.9042184212
H   1.0282117731 -1.1202443018 -0.9240300171
H   2.2676524361 -0.7603480036  0.2994708462
7
Iter 161 Image 6  Energy = -4188.6737004986
C   0.8469449495  0.8879843586  0.0141759692
H   0.7164646349  1.3231872744 -0.9952599336
O   0.6794730603  1.5593677201  0.9961135725
C   1.2523293199 -0.5564000731  0.0526206827
H   0.7259422225 -1.0610345336  0.8582008070
H   1.0595464142 -1.0494601635 -0.8955352306
H   2.3205409854 -0.6132775393  0.2636234287
7
Iter 161 Image 7  Energy = -4188.6827247909
C   0.8112431397  0.8735544801 -0.0162361551
H   0.8472168248  1.3071106674 -1.0344641689
O   0.4360536803  1.5295461940  0.9184315202
C   1.2759236752 -0.5474788395  0.0883475194
H   0.8813346427 -1.0038458563  0.9901770359
H   0.9836701756 -1.1165543223 -0.7908979253
H   2.3657994464 -0.5519654239  0.1385809708
7
Iter 161 Image 8  Energy = -4188.6819968244
C   0.7840367852  0.8656586589 -0.0371164025
H   0.9809293880  1.3403901038 -1.0231241499
O   0.1875804579  1.4681235287  0.8223429327
C   1.3100769769 -0.5359012779  0.1153731248
H   1.0639489065 -0.9236344469  1.1059940899
H   0.8779311114 -1.1816924395 -0.6582837811
H   2.3967379442 -0.5425772870 -0.0312469938
7
Iter 162 Image 0  Energy = -4188.2527480593
C   0.8260657415  0.5508603911 -0.1261794589
H   0.4554445983  1.2417513435 -0.8784317668
O   0.5680753083  1.0246514429  1.1187434847
C   1.4411098584 -0.5873603774 -0.4363613732
H   0.9099091373  0.3932317500  1.7666320721
H   1.5916834696 -0.8592929697 -1.4741885892
H   1.8089534565 -1.2734747403  0.3237244514
7
Iter 162 Image 1  Energy = -4188.2199865153
C   0.8635344790  0.5814528656 -0.1490383078
H   0.4998456114  1.2622820407 -0.9038514406
O   0.6896182870  1.0693566397  1.1050079090
C   1.4103911889 -0.5936674984 -0.4176153031
H   0.8461547020  0.3280753330  1.6971309255
H   1.4215103520 -0.9928227346 -1.4156182541
H   1.8701873916 -1.1643106616  0.3779218340
7
Iter 162 Image 2  Energy = -4187.9780328295
C   0.8882559094  0.6338424697 -0.1716112001
H   0.5535513602  1.3586762324 -0.8981864672
O   0.7575596086  1.0340473221  1.1231532118
C   1.3767055097 -0.5749553425 -0.3996429011
H   0.8014932401  0.1722555039  1.5530778752
H   1.2939839023 -1.1019125482 -1.3239613044
H   1.9296928548 -1.0315880008  0.4111070830
7
Iter 162 Image 3  Energy = -4187.1123222730
C   0.9077095764  0.7010064384 -0.1770566182
H   0.6183580633  1.4510267232 -0.9002190389
O   0.7727879656  0.9997322801  1.1309724725
C   1.2990179315 -0.5755545984 -0.3116898012
H   0.7869200033 -0.0082557446  1.3238631986
H   1.1752086360 -1.1646673540 -1.1800099525
H   2.0412404361 -0.9129221180  0.4080751284
7
Iter 162 Image 4  Energy = -4186.5213030225
C   0.8982881073  0.8283707539 -0.0972063401
H   0.6559920130  1.4939597472 -0.9304959016
O   0.7578113731  1.2409221974  1.0453614228
C   1.2039339195 -0.6089086058 -0.1036140821
H   0.8254244075 -0.4116029746  1.0737927078
H   1.1229079522 -1.1792701486 -1.0616033555
H   2.1368849311 -0.8731053753  0.3677006180
7
Iter 162 Image 5  Energy = -4188.4622364810
C   0.9073151937  0.8847686067 -0.0299876245
H   0.6941109929  1.4161366260 -0.9731511642
O   0.7751484720  1.4607484264  1.0206476853
C   1.2400803493 -0.5712678345 -0.0046348281
H   0.6905219681 -0.8163802202  0.9040420904
H   1.0288180244 -1.1242878039 -0.9227647613
H   2.2652474892 -0.7593521406  0.2997845384
7
Iter 162 Image 6  Energy = -4188.6737144908
C   0.8470759151  0.8876371891  0.0138172875
H   0.7175164212  1.3228245118 -0.9953518129
O   0.6785273991  1.5598619235  0.9968179793
C   1.2521311811 -0.5564375828  0.0528125440
H   0.7264467830 -1.0615977844  0.8585778148
H   1.0589986532 -1.0489091202 -0.8956794758
H   2.3205452336 -0.6130120874  0.2629449690
7
Iter 162 Image 7  Energy = -4188.6827452949
C   0.8112064852  0.8737634657 -0.0159553774
H   0.8477248781  1.3073481611 -1.0343902376
O   0.4357657320  1.5293200194  0.9182804754
C   1.2759082092 -0.5475207953  0.0883197243
H   0.8814617955 -1.0038550465  0.9902826935
H   0.9833388781 -1.1165604855 -0.7908789682
H   2.3658356039 -0.5521284191  0.1382804880
7
Iter 162 Image 8  Energy = -4188.6819968244
C   0.7840367852  0.8656586589 -0.0371164025
H   0.9809293880  1.3403901038 -1.0231241499
O   0.1875804579  1.4681235287  0.8223429327
C   1.3100769769 -0.5359012779  0.1153731248
H   1.0639489065 -0.9236344469  1.1059940899
H   0.8779311114 -1.1816924395 -0.6582837811
H   2.3967379442 -0.5425772870 -0.0312469938
7
Iter 163 Image 0  Energy = -4188.2527480593
C   0.8260657415  0.5508603911 -0.1261794589
H   0.4554445983  1.2417513435 -0.8784317668
O   0.5680753083  1.0246514429  1.1187434847
C   1.4411098584 -0.5873603774 -0.4363613732
H   0.9099091373  0.3932317500  1.7666320721
H   1.5916834696 -0.8592929697 -1.4741885892
H   1.8089534565 -1.2734747403  0.3237244514
7
Iter 163 Image 1  Energy = -4188.2201624236
C   0.8639885786  0.5819470276 -0.1489882232
H   0.5016233968  1.2635171393 -0.9037348463
O   0.6918480279  1.0697281432  1.1053202532
C   1.4090398622 -0.5941121164 -0.4178200060
H   0.8479345486  0.3282561467  1.6973157201
H   1.4195969771 -0.9930279608 -1.4157852100
H   1.8672106575 -1.1659424516  0.3776295873
7
Iter 163 Image 2  Energy = -4187.9782852700
C   0.8912015369  0.6338229454 -0.1711518219
H   0.5521694332  1.3562851780 -0.8972769141
O   0.7591043119  1.0360742914  1.1227006771
C   1.3748447368 -0.5768860824 -0.3987012258
H   0.8007034668  0.1744878870  1.5523815020
H   1.2919082431 -1.1015448891 -1.3245598164
H   1.9313107096 -1.0318737172  0.4105436928
7
Iter 163 Image 3  Energy = -4187.1000708362
C   0.9075851762  0.7029499744 -0.1765638929
H   0.6142031549  1.4527968646 -0.8972336651
O   0.7825482116  1.0024428261  1.1320330845
C   1.2965247967 -0.5735511875 -0.3123526197
H   0.7838333306 -0.0081139123  1.3171110911
H   1.1801318394 -1.1718987345 -1.1754315739
H   2.0364161396 -0.9142602066  0.4063727770
7
Iter 163 Image 4  Energy = -4186.5296915269
C   0.8996717529  0.8283578757 -0.0977999034
H   0.6450636839  1.4889448076 -0.9272805548
O   0.7749936070  1.2474230779  1.0456232023
C   1.2039785696 -0.6085747094 -0.1035680784
H   0.8161870563 -0.4079268618  1.0638852565
H   1.1279312432 -1.1782897715 -1.0592183224
H   2.1334168286 -0.8795688387  0.3722933177
7
Iter 163 Image 5  Energy = -4188.4634570351
C   0.9052061197  0.8854333813 -0.0305578828
H   0.6930686317  1.4190197689 -0.9727477404
O   0.7844374636  1.4634583878  1.0201178097
C   1.2369140974 -0.5709487778 -0.0057265477
H   0.6890908607 -0.8171495860  0.9027191474
H   1.0310304835 -1.1315439372 -0.9199404869
H   2.2614948677 -0.7579035965  0.3000714609
7
Iter 163 Image 6  Energy = -4188.6737956873
C   0.8473054946  0.8877871790  0.0142844128
H   0.7195058579  1.3221649842 -0.9956077752
O   0.6769134200  1.5603078422  0.9971295685
C   1.2517325355 -0.5566108923  0.0531822249
H   0.7273493286 -1.0630132686  0.8592752870
H   1.0578457429 -1.0478954786 -0.8959992997
H   2.3205892074 -0.6123733076  0.2616749036
7
Iter 163 Image 7  Energy = -4188.6825659296
C   0.8109611715  0.8744748959 -0.0149504637
H   0.8487171854  1.3078139173 -1.0343134795
O   0.4353533015  1.5285949089  0.9176113045
C   1.2758937755 -0.5476503046  0.0882568919
H   0.8816849852 -1.0038363315  0.9905171585
H   0.9826964211 -1.1165940946 -0.7908687986
H   2.3659347362 -0.5524360999  0.1376861864
7
Iter 163 Image 8  Energy = -4188.6819968244
C   0.7840367852  0.8656586589 -0.0371164025
H   0.9809293880  1.3403901038 -1.0231241499
O   0.1875804579  1.4681235287  0.8223429327
C   1.3100769769 -0.5359012779  0.1153731248
H   1.0639489065 -0.9236344469  1.1059940899
H   0.8779311114 -1.1816924395 -0.6582837811
H   2.3967379442 -0.5425772870 -0.0312469938
7
Iter 164 Image 0  Energy = -4188.2527480593
C   0.8260657415  0.5508603911 -0.1261794589
H   0.4554445983  1.2417513435 -0.8784317668
O   0.5680753083  1.0246514429  1.1187434847
C   1.4411098584 -0.5873603774 -0.4363613732
H   0.9099091373  0.3932317500  1.7666320721
H   1.5916834696 -0.8592929697 -1.4741885892
H   1.8089534565 -1.2734747403  0.3237244514
7
Iter 164 Image 1  Energy = -4188.2203360072
C   0.8649660634  0.5820221606 -0.1488674036
H   0.5039566528  1.2650542144 -0.9035535313
O   0.6943521194  1.0703782816  1.1056276683
C   1.4070079889 -0.5944226523 -0.4179246705
H   0.8500479901  0.3285215292  1.6974300406
H   1.4169311661 -0.9931945141 -1.4161413309
H   1.8639801142 -1.1679931535  0.3773663830
7
Iter 164 Image 2  Energy = -4187.9780842832
C   0.8939178366  0.6337988528 -0.1703176882
H   0.5524056095  1.3554531240 -0.8961360437
O   0.7617244899  1.0383940232  1.1225882688
C   1.3721864766 -0.5782588430 -0.3980020904
H   0.8007223650  0.1763212971  1.5519594549
H   1.2885429392 -1.1017717774 -1.3251012806
H   1.9317427913 -1.0335710749  0.4089452153
7
Iter 164 Image 3  Energy = -4187.0808765239
C   0.9073396031  0.7065749361 -0.1771430266
H   0.6108212127  1.4549452607 -0.8954889008
O   0.7932844433  1.0062117266  1.1336871066
C   1.2934741016 -0.5736367014 -0.3132769014
H   0.7814050008 -0.0083475215  1.3106942830
H   1.1830849476 -1.1781471059 -1.1699059961
H   2.0318333987 -0.9172349863  0.4053683770
7
Iter 164 Image 4  Energy = -4186.5353902003
C   0.9027099422  0.8292942358 -0.0945943196
H   0.6340662444  1.4857700716 -0.9274118996
O   0.7927463026  1.2519552763  1.0440485618
C   1.2037731657 -0.6076166768 -0.1027959966
H   0.8068982667 -0.4044609507  1.0560927305
H   1.1313585934 -1.1770852043 -1.0581818686
H   2.1296902798 -0.8874911773  0.3767774907
7
Iter 164 Image 5  Energy = -4188.4614569119
C   0.9040611206  0.8861548609 -0.0323900448
H   0.6944744948  1.4222437526 -0.9729272111
O   0.7921839402  1.4655991942  1.0215565219
C   1.2334188257 -0.5709822988 -0.0067515747
H   0.6880836345 -0.8158571380  0.9029370993
H   1.0310358944 -1.1392396980 -0.9167720157
H   2.2579846640 -0.7575530570  0.2982827459
7
Iter 164 Image 6  Energy = -4188.6737144461
C   0.8475297901  0.8876208451  0.0143335027
H   0.7219050438  1.3216040306 -0.9957089649
O   0.6750768431  1.5609081398  0.9976193182
C   1.2513114732 -0.5567196915  0.0536087691
H   0.7283581569 -1.0643458604  0.8600517185
H   1.0564250505 -1.0469407748 -0.8961268128
H   2.3206352278 -0.6117596243  0.2601617989
7
Iter 164 Image 7  Energy = -4188.6824419519
C   0.8119316549  0.8732047248 -0.0169940288
H   0.8498597443  1.3082765388 -1.0338778511
O   0.4337561533  1.5296685250  0.9196287666
C   1.2758243063 -0.5475925079  0.0883087058
H   0.8819739337 -1.0038411032  0.9907251833
H   0.9819344385 -1.1165541088 -0.7908292416
H   2.3659613399 -0.5527951857  0.1369772706
7
Iter 164 Image 8  Energy = -4188.6819968244
C   0.7840367852  0.8656586589 -0.0371164025
H   0.9809293880  1.3403901038 -1.0231241499
O   0.1875804579  1.4681235287  0.8223429327
C   1.3100769769 -0.5359012779  0.1153731248
H   1.0639489065 -0.9236344469  1.1059940899
H   0.8779311114 -1.1816924395 -0.6582837811
H   2.3967379442 -0.5425772870 -0.0312469938
7
Iter 165 Image 0  Energy = -4188.2527480593
C   0.8260657415  0.5508603911 -0.1261794589
H   0.4554445983  1.2417513435 -0.8784317668
O   0.5680753083  1.0246514429  1.1187434847
C   1.4411098584 -0.5873603774 -0.4363613732
H   0.9099091373  0.3932317500  1.7666320721
H   1.5916834696 -0.8592929697 -1.4741885892
H   1.8089534565 -1.2734747403  0.3237244514
7
Iter 165 Image 1  Energy = -4188.2204373649
C   0.8652345922  0.5823490373 -0.1487681642
H   0.5050541534  1.2656527407 -0.9033542046
O   0.6954595133  1.0706146421  1.1057427421
C   1.4061833835 -0.5949819129 -0.4179795003
H   0.8508878301  0.3286587058  1.6974354822
H   1.4157208925 -0.9930609698 -1.4163402996
H   1.8627017496 -1.1688664025  0.3772010505
7
Iter 165 Image 2  Energy = -4187.9780375829
C   0.8947677803  0.6344784820 -0.1701677472
H   0.5522628550  1.3555820640 -0.8953095670
O   0.7629328758  1.0391731616  1.1227076860
C   1.3714035649 -0.5789507314 -0.3982206702
H   0.8009158691  0.1769620389  1.5517339671
H   1.2877236656 -1.1026313424 -1.3249986676
H   1.9312359239 -1.0342480713  0.4081907283
7
Iter 165 Image 3  Energy = -4187.0730299747
C   0.9075251756  0.7070511948 -0.1768898676
H   0.6081682590  1.4549438282 -0.8966133714
O   0.7984383503  1.0079632017  1.1341979867
C   1.2928953534 -0.5721275690 -0.3127598210
H   0.7799607293 -0.0083733793  1.3081176957
H   1.1840992145 -1.1806339418 -1.1678474309
H   2.0301556521 -0.9184577376  0.4057296526
7
Iter 165 Image 4  Energy = -4186.5387576243
C   0.9043560670  0.8298282205 -0.0951868148
H   0.6287138427  1.4843709044 -0.9285538219
O   0.8006860054  1.2536361892  1.0457212323
C   1.2042838332 -0.6074903652 -0.1025388372
H   0.8023661102 -0.4039168029  1.0529618672
H   1.1326174067 -1.1758036229 -1.0580637733
H   2.1282195498 -0.8902589501  0.3795947607
7
Iter 165 Image 5  Energy = -4188.4613444826
C   0.9037355229  0.8871172814 -0.0312440382
H   0.6942476455  1.4220276442 -0.9737787656
O   0.7955339036  1.4657510982  1.0213475541
C   1.2324432602 -0.5707039914 -0.0070982927
H   0.6868765605 -0.8145013373  0.9026531906
H   1.0312606150 -1.1415841124 -0.9155480726
H   2.2571450869 -0.7577409811  0.2976038504
7
Iter 165 Image 6  Energy = -4188.6739646068
C   0.8474919972  0.8880415435  0.0151421349
H   0.7228568784  1.3214358891 -0.9957643963
O   0.6745043241  1.5607423075  0.9970547416
C   1.2511474893 -0.5568034397  0.0537601908
H   0.7287439028 -1.0649954139  0.8603005244
H   1.0558324057 -1.0465876833 -0.8961245301
H   2.3206645880 -0.6114661363  0.2595706670
7
Iter 165 Image 7  Energy = -4188.6827782413
C   0.8116808922  0.8737436710 -0.0161556479
H   0.8503483189  1.3084933465 -1.0338237280
O   0.4336725007  1.5290593319  0.9189361297
C   1.2758199543 -0.5476534265  0.0882682274
H   0.8821033063 -1.0037802044  0.9908231037
H   0.9816398314 -1.1165616344 -0.7907757989
H   2.3659767654 -0.5529342063  0.1366665214
7
Iter 165 Image 8  Energy = -4188.6819968244
C   0.7840367852  0.8656586589 -0.0371164025
H   0.9809293880  1.3403901038 -1.0231241499
O   0.1875804579  1.4681235287  0.8223429327
C   1.3100769769 -0.5359012779  0.1153731248
H   1.0639489065 -0.9236344469  1.1059940899
H   0.8779311114 -1.1816924395 -0.6582837811
H   2.3967379442 -0.5425772870 -0.0312469938
7
Iter 166 Image 0  Energy = -4188.2527480593
C   0.8260657415  0.5508603911 -0.1261794589
H   0.4554445983  1.2417513435 -0.8784317668
O   0.5680753083  1.0246514429  1.1187434847
C   1.4411098584 -0.5873603774 -0.4363613732
H   0.9099091373  0.3932317500  1.7666320721
H   1.5916834696 -0.8592929697 -1.4741885892
H   1.8089534565 -1.2734747403  0.3237244514
7
Iter 166 Image 1  Energy = -4188.2207123211
C   0.8663961359  0.5831171156 -0.1484294373
H   0.5084645358  1.2675687644 -0.9026361278
O   0.6989478667  1.0714878010  1.1061260929
C   1.4033874902 -0.5965229564 -0.4181257941
H   0.8535229476  0.3291291259  1.6974071578
H   1.4118267587 -0.9927237355 -1.4170790272
H   1.8586964441 -1.1716903502  0.3766740789
7
Iter 166 Image 2  Energy = -4187.9779099992
C   0.8964077749  0.6358438922 -0.1699755743
H   0.5516040183  1.3566295536 -0.8933817929
O   0.7678196422  1.0415305461  1.1231639072
C   1.3692887816 -0.5798381676 -0.3989103595
H   0.8013908167  0.1787490391  1.5511537394
H   1.2855143415 -1.1058597742 -1.3241736612
H   1.9292172411 -1.0366894900  0.4060591351
7
Iter 166 Image 3  Energy = -4187.0454711264
C   0.9093491082  0.7095961186 -0.1772192580
H   0.5988312307  1.4540522386 -0.9002144584
O   0.8141391745  1.0130438879  1.1350404727
C   1.2917740630 -0.5696045659 -0.3106008946
H   0.7752634454 -0.0082543215  1.3001845242
H   1.1859108987 -1.1865731533 -1.1620504396
H   2.0259748977 -0.9218946481  0.4087945899
7
Iter 166 Image 4  Energy = -4186.5487083963
C   0.9110571485  0.8330614743 -0.0960082670
H   0.6109325395  1.4798148846 -0.9318104761
O   0.8269248786  1.2582033341  1.0492104848
C   1.2056915292 -0.6066135087 -0.1020083426
H   0.7876168505 -0.4033513265  1.0440982948
H   1.1363921311 -1.1722349058 -1.0589740090
H   2.1226278040 -0.8985143727  0.3894266491
7
Iter 166 Image 5  Energy = -4188.4592435828
C   0.9043575066  0.8896880048 -0.0292255675
H   0.6920643226  1.4206745454 -0.9759358691
O   0.8065515699  1.4666526686  1.0210961852
C   1.2298960297 -0.5702479031 -0.0076619504
H   0.6821445769 -0.8102781633  0.9016437672
H   1.0315826098 -1.1476632617 -0.9124014472
H   2.2546460415 -0.7584603274  0.2964200142
7
Iter 166 Image 6  Energy = -4188.6740179828
C   0.8472594065  0.8887857939  0.0169685887
H   0.7259465564  1.3209360770 -0.9957493016
O   0.6726193519  1.5606110357  0.9957798378
C   1.2506438568 -0.5569758645  0.0542901045
H   0.7300448463 -1.0670366596  0.8609412581
H   1.0539959729 -1.0454172812 -0.8959524671
H   2.3207315936 -0.6105360255  0.2576613216
7
Iter 166 Image 7  Energy = -4188.6828177145
C   0.8114914855  0.8744337529 -0.0150337997
H   0.8518728520  1.3091376776 -1.0334421414
O   0.4329236417  1.5280267563  0.9180480921
C   1.2757687500 -0.5477228383  0.0881916659
H   0.8825187498 -1.0035991491  0.9910615948
H   0.9807177349 -1.1165242939 -0.7905759502
H   2.3659483478 -0.5533850440  0.1356893603
7
Iter 166 Image 8  Energy = -4188.6819968244
C   0.7840367852  0.8656586589 -0.0371164025
H   0.9809293880  1.3403901038 -1.0231241499
O   0.1875804579  1.4681235287  0.8223429327
C   1.3100769769 -0.5359012779  0.1153731248
H   1.0639489065 -0.9236344469  1.1059940899
H   0.8779311114 -1.1816924395 -0.6582837811
H   2.3967379442 -0.5425772870 -0.0312469938
7
Iter 167 Image 0  Energy = -4188.2527480593
C   0.8260657415  0.5508603911 -0.1261794589
H   0.4554445983  1.2417513435 -0.8784317668
O   0.5680753083  1.0246514429  1.1187434847
C   1.4411098584 -0.5873603774 -0.4363613732
H   0.9099091373  0.3932317500  1.7666320721
H   1.5916834696 -0.8592929697 -1.4741885892
H   1.8089534565 -1.2734747403  0.3237244514
7
Iter 167 Image 1  Energy = -4188.2211117467
C   0.8685335220  0.5842630627 -0.1478459624
H   0.5140555039  1.2707296024 -0.9014201514
O   0.7047067121  1.0730511072  1.1067728824
C   1.3986974874 -0.5988849821 -0.4183746054
H   0.8578511842  0.3299850393  1.6973693900
H   1.4052825323 -0.9923771766 -1.4183002929
H   1.8521153438 -1.1764010156  0.3757354038
7
Iter 167 Image 2  Energy = -4187.9775265774
C   0.8981280698  0.6378327515 -0.1698769108
H   0.5508704735  1.3590145756 -0.8909396389
O   0.7770870711  1.0451896540  1.1239682125
C   1.3660756666 -0.5807423378 -0.4000166474
H   0.8022051722  0.1814851142  1.5504352730
H   1.2815298596 -1.1111469083 -1.3224317367
H   1.9253464432 -1.0412672558  0.4027962786
7
Iter 167 Image 3  Energy = -4186.9916730768
C   0.9143562589  0.7139571283 -0.1784925585
H   0.5837537086  1.4521841805 -0.9056206443
O   0.8386526627  1.0208918501  1.1354294317
C   1.2898958784 -0.5672898866 -0.3064410737
H   0.7678714039 -0.0080371452  1.2875012471
H   1.1865392515 -1.1941229132 -1.1536271323
H   2.0201737928 -0.9272177040  0.4151847426
7
Iter 167 Image 4  Energy = -4186.5614588431
C   0.9234725030  0.8389183147 -0.0967665484
H   0.5823981366  1.4724226153 -0.9359931737
O   0.8701951016  1.2657316294  1.0531852033
C   1.2071528647 -0.6047915347 -0.1017765996
H   0.7638857561 -0.4030723671  1.0308178724
H   1.1416953560 -1.1667484506 -1.0613759919
H   2.1124432776 -0.9120946268  0.4058430872
7
Iter 167 Image 5  Energy = -4188.4541268519
C   0.9072532446  0.8927592279 -0.0281025994
H   0.6880723373  1.4187633673 -0.9787514446
O   0.8245573182  1.4687194251  1.0214099790
C   1.2259910042 -0.5698862805 -0.0082168877
H   0.6739827684 -0.8034502229  0.9004867001
H   1.0307531941 -1.1562829273 -0.9079448504
H   2.2506329006 -0.7602570900  0.2950537317
7
Iter 167 Image 6  Energy = -4188.6737194678
C   0.8468850727  0.8891471525  0.0187485164
H   0.7311321634  1.3202072350 -0.9955689566
O   0.6692939707  1.5609846935  0.9946808044
C   1.2498510717 -0.5571507910  0.0551945616
H   0.7322616978 -1.0701887460  0.8619426603
H   1.0509856960 -1.0435386446 -0.8955118520
H   2.3208319108 -0.6090938081  0.2544536261
7
Iter 167 Image 7  Energy = -4188.6824231020
C   0.8114320021  0.8751379954 -0.0138060151
H   0.8544154522  1.3101925739 -1.0327057494
O   0.4314633600  1.5266749878  0.9170992639
C   1.2756622479 -0.5477786568  0.0880808977
H   0.8832298702 -1.0032986560  0.9914197280
H   0.9791872333 -1.1164273259 -0.7902045554
H   2.3658513861 -0.5541340801  0.1340552732
7
Iter 167 Image 8  Energy = -4188.6819968244
C   0.7840367852  0.8656586589 -0.0371164025
H   0.9809293880  1.3403901038 -1.0231241499
O   0.1875804579  1.4681235287  0.8223429327
C   1.3100769769 -0.5359012779  0.1153731248
H   1.0639489065 -0.9236344469  1.1059940899
H   0.8779311114 -1.1816924395 -0.6582837811
H   2.3967379442 -0.5425772870 -0.0312469938
7
Iter 168 Image 0  Energy = -4188.2527480593
C   0.8260657415  0.5508603911 -0.1261794589
H   0.4554445983  1.2417513435 -0.8784317668
O   0.5680753083  1.0246514429  1.1187434847
C   1.4411098584 -0.5873603774 -0.4363613732
H   0.9099091373  0.3932317500  1.7666320721
H   1.5916834696 -0.8592929697 -1.4741885892
H   1.8089534565 -1.2734747403  0.3237244514
7
Iter 168 Image 1  Energy = -4188.2221057883
C   0.8747810199  0.5873188215 -0.1462191874
H   0.5297308178  1.2797365089 -0.8980356590
O   0.7212136923  1.0776111215  1.1086674420
C   1.3854282558 -0.6050778283 -0.4191540326
H   0.8701302546  0.3325089393  1.6974213685
H   1.3867067000 -0.9918773645 -1.4216374837
H   1.8332518482 -1.1898549203  0.3728934074
7
Iter 168 Image 2  Energy = -4187.9744849375
C   0.9027649075  0.6425198744 -0.1700198220
H   0.5482923152  1.3655208490 -0.8852229323
O   0.8047340631  1.0553838445  1.1258696520
C   1.3572040532 -0.5827666828 -0.4025627730
H   0.8040794492  0.1894188420  1.5485671034
H   1.2697608313 -1.1254342860 -1.3173763417
H   1.9144075367 -1.0542768610  0.3946783319
7
Iter 168 Image 3  Energy = -4186.7850107870
C   0.9314918028  0.7267621902 -0.1826475205
H   0.5413409986  1.4456380384 -0.9181223189
O   0.9065940862  1.0421502436  1.1350650670
C   1.2847001707 -0.5632130516 -0.2946675616
H   0.7466442281 -0.0072431792  1.2510339723
H   1.1861066255 -1.2126444099 -1.1312094722
H   2.0043654382 -0.9410844348  0.4344803454
7
Iter 168 Image 4  Energy = -4186.5752808324
C   0.9594385430  0.8555492621 -0.0978739671
H   0.5025742222  1.4499464834 -0.9425602730
O   0.9945345380  1.2882047496  1.0599102882
C   1.2101002302 -0.5994120922 -0.1020421918
H   0.6970469136 -0.4016703810  0.9918960706
H   1.1565010739 -1.1517313493 -1.0683363947
H   2.0810478117 -0.9505210966  0.4529389305
7
Iter 168 Image 5  Energy = -4188.4364660403
C   0.9171817521  0.9002214101 -0.0271359801
H   0.6750846676  1.4142628591 -0.9849130220
O   0.8776819575  1.4759924533  1.0213083194
C   1.2151560740 -0.5694810657 -0.0093248672
H   0.6500999733 -0.7860267731  0.8968100869
H   1.0273708017 -1.1788449630 -0.8961749527
H   2.2386678583 -0.7657585994  0.2933635981
7
Iter 168 Image 6  Energy = -4188.6720949432
C   0.8458181789  0.8895983978  0.0229537877
H   0.7459699661  1.3182049614 -0.9950430626
O   0.6594988425  1.5623916606  0.9924126927
C   1.2476429093 -0.5576032134  0.0577597062
H   0.7386974135 -1.0789031187  0.8648172434
H   1.0424900039 -1.0382279320 -0.8942052215
H   2.3211242615 -0.6050936178  0.2452442653
7
Iter 168 Image 7  Energy = -4188.6808810553
C   0.8117496678  0.8763724512 -0.0115078249
H   0.8616857001  1.3131950694 -1.0305126578
O   0.4268700404  1.5235713302  0.9155103740
C   1.2753329804 -0.5478814049  0.0877972125
H   0.8852478953 -1.0024928064  0.9924228888
H   0.9747968674 -1.1161213937 -0.7891675272
H   2.3655583754 -0.5562764750  0.1293964344
7
Iter 168 Image 8  Energy = -4188.6819968244
C   0.7840367852  0.8656586589 -0.0371164025
H   0.9809293880  1.3403901038 -1.0231241499
O   0.1875804579  1.4681235287  0.8223429327
C   1.3100769769 -0.5359012779  0.1153731248
H   1.0639489065 -0.9236344469  1.1059940899
H   0.8779311114 -1.1816924395 -0.6582837811
H   2.3967379442 -0.5425772870 -0.0312469938
7
Iter 169 Image 0  Energy = -4188.2527480593
C   0.8260657415  0.5508603911 -0.1261794589
H   0.4554445983  1.2417513435 -0.8784317668
O   0.5680753083  1.0246514429  1.1187434847
C   1.4411098584 -0.5873603774 -0.4363613732
H   0.9099091373  0.3932317500  1.7666320721
H   1.5916834696 -0.8592929697 -1.4741885892
H   1.8089534565 -1.2734747403  0.3237244514
7
Iter 169 Image 1  Energy = -4188.2228062770
C   0.8799716396  0.5896430939 -0.1448875807
H   0.5420225525  1.2867523003 -0.8951923090
O   0.7344798434  1.0814023016  1.1101640125
C   1.3749060207 -0.6097489632 -0.4198315870
H   0.8796833735  0.3347539816  1.6976032868
H   1.3717933266 -0.9918100136 -1.4242441326
H   1.8183860758 -1.2006277012  0.3703235049
7
Iter 169 Image 2  Energy = -4187.9699830285
C   0.9047547418  0.6461632343 -0.1710509918
H   0.5458466750  1.3717881582 -0.8819290948
O   0.8291609614  1.0625033147  1.1271671284
C   1.3513595889 -0.5834628266 -0.4048877906
H   0.8055803063  0.1955261752  1.5475662204
H   1.2606375583 -1.1371926635 -1.3124595710
H   1.9039036433 -1.0649598267  0.3895260309
7
Iter 169 Image 3  Energy = -4186.5746064654
C   0.9499226964  0.7360851216 -0.1860699626
H   0.5063590468  1.4363203660 -0.9272409182
O   0.9589408086  1.0577516600  1.1316163572
C   1.2824730951 -0.5622449070 -0.2839454432
H   0.7289258958 -0.0058539879  1.2225610811
H   1.1809475367 -1.2204944562 -1.1171828427
H   1.9936745823 -0.9511984666  0.4541930567
7
Iter 169 Image 4  Energy = -4186.5669496974
C   0.9902676861  0.8700891716 -0.0970633779
H   0.4417567608  1.4308910948 -0.9421427614
O   1.0940019784  1.3043943878  1.0588229184
C   1.2120835909 -0.5949907526 -0.1023522586
H   0.6449983384 -0.4012026425  0.9606498845
H   1.1663653908 -1.1395855644 -1.0757977382
H   2.0517698642 -0.9792301181  0.4918146695
7
Iter 169 Image 5  Energy = -4188.4234064093
C   0.9285105171  0.9054937250 -0.0266510825
H   0.6619621523  1.4089252775 -0.9884496999
O   0.9214802338  1.4823018385  1.0185794895
C   1.2079851320 -0.5698060192 -0.0089281179
H   0.6288137072 -0.7737311061  0.8930287502
H   1.0222145754 -1.1913471598 -0.8883415056
H   2.2302770260 -0.7714713728  0.2946941925
7
Iter 169 Image 6  Energy = -4188.6700774601
C   0.8447258960  0.8896696996  0.0259443850
H   0.7577461510  1.3169550367 -0.9944199035
O   0.6515970822  1.5633778609  0.9906996044
C   1.2460376526 -0.5578864620  0.0597318211
H   0.7439106372 -1.0853619941  0.8669170697
H   1.0358859884 -1.0342770030 -0.8928479873
H   2.3213381642 -0.6021099617  0.2379144668
7
Iter 169 Image 7  Energy = -4188.6794991961
C   0.8121921408  0.8770781635 -0.0100454188
H   0.8674782786  1.3155558136 -1.0286564580
O   0.4230923728  1.5212693763  0.9145238701
C   1.2750508370 -0.5479132475  0.0875729512
H   0.8868596823 -1.0018349607  0.9931546464
H   0.9713258789 -1.1158248527 -0.7882911019
H   2.3652423176 -0.5579635749  0.1256804604
7
Iter 169 Image 8  Energy = -4188.6819968244
C   0.7840367852  0.8656586589 -0.0371164025
H   0.9809293880  1.3403901038 -1.0231241499
O   0.1875804579  1.4681235287  0.8223429327
C   1.3100769769 -0.5359012779  0.1153731248
H   1.0639489065 -0.9236344469  1.1059940899
H   0.8779311114 -1.1816924395 -0.6582837811
H   2.3967379442 -0.5425772870 -0.0312469938
7
Iter 170 Image 0  Energy = -4188.2527480593
C   0.8260657415  0.5508603911 -0.1261794589
H   0.4554445983  1.2417513435 -0.8784317668
O   0.5680753083  1.0246514429  1.1187434847
C   1.4411098584 -0.5873603774 -0.4363613732
H   0.9099091373  0.3932317500  1.7666320721
H   1.5916834696 -0.8592929697 -1.4741885892
H   1.8089534565 -1.2734747403  0.3237244514
7
Iter 170 Image 1  Energy = -4188.2240511498
C   0.8907399891  0.5940653798 -0.1421607767
H   0.5663932678  1.3005338421 -0.8892602391
O   0.7614677036  1.0892835602  1.1131083728
C   1.3538965781 -0.6185862107 -0.4213219598
H   0.8984976401  0.3397606114  1.6983516533
H   1.3415597047 -0.9922802414 -1.4293246282
H   1.7886884436 -1.2224124898  0.3645414018
7
Iter 170 Image 2  Energy = -4187.9521915188
C   0.9066571279  0.6527519149 -0.1746058315
H   0.5402993906  1.3861105079 -0.8773876938
O   0.8823281711  1.0749666886  1.1290798177
C   1.3413772108 -0.5830733881 -0.4099961019
H   0.8087792939  0.2076373056  1.5464823765
H   1.2423456354 -1.1612080003 -1.3014366183
H   1.8794572888 -1.0868194941  0.3817933844
7
Iter 170 Image 3  Energy = -4186.0383485130
C   0.9943792337  0.7532601165 -0.1934800134
H   0.4348468173  1.4090221762 -0.9420398155
O   1.0619870341  1.0872000275  1.1189351794
C   1.2818383801 -0.5641248622 -0.2604331980
H   0.6917004785 -0.0009869742  1.1663761371
H   1.1626941665 -1.2231076642 -1.0968148636
H   1.9737981771 -0.9708975876  0.5013855294
7
Iter 170 Image 4  Energy = -4186.4745756111
C   1.0554198656  0.8991802182 -0.0952132670
H   0.3267835053  1.3906737911 -0.9293958660
O   1.2940019784  1.3352896633  1.0464535177
C   1.2150513760 -0.5859338583 -0.1028529459
H   0.5429292315 -0.4008948927  0.8964660967
H   1.1824755532 -1.1142006094 -1.0936573412
H   1.9845826802 -1.0337487322  0.5721288173
7
Iter 170 Image 5  Energy = -4188.4073656371
C   0.9567430243  0.9134914020 -0.0283148932
H   0.6316912404  1.3950229561 -0.9926370491
O   1.0120658129  1.4973535405  1.0099003359
C   1.1961175846 -0.5713644650 -0.0054068224
H   0.5823546450 -0.7523356216  0.8837370089
H   1.0067913570 -1.2064040558 -0.8752592904
H   2.2154802137 -0.7853988442  0.3019103995
7
Iter 170 Image 6  Energy = -4188.6664059034
C   0.8423701682  0.8889351375  0.0305646860
H   0.7813026143  1.3151274981 -0.9927574795
O   0.6353528770  1.5654511132  0.9881086665
C   1.2430995052 -0.5582867246  0.0635422021
H   0.7545051454 -1.0972900369  0.8708877264
H   1.0228866032 -1.0269993096 -0.8896029381
H   2.3217246506 -0.5965704248  0.2231966898
7
Iter 170 Image 7  Energy = -4188.6775660834
C   0.8134786987  0.8779530760 -0.0078755330
H   0.8791598667  1.3202509164 -1.0247417899
O   0.4151897650  1.5170189650  0.9131695755
C   1.2744544953 -0.5478947271  0.0871340906
H   0.8901013124 -1.0005030941  0.9945332578
H   0.9643695862 -1.1151446038 -0.7864704767
H   2.3644877471 -0.5613139166  0.1181899269
7
Iter 170 Image 8  Energy = -4188.6819968244
C   0.7840367852  0.8656586589 -0.0371164025
H   0.9809293880  1.3403901038 -1.0231241499
O   0.1875804579  1.4681235287  0.8223429327
C   1.3100769769 -0.5359012779  0.1153731248
H   1.0639489065 -0.9236344469  1.1059940899
H   0.8779311114 -1.1816924395 -0.6582837811
H   2.3967379442 -0.5425772870 -0.0312469938
7
Iter 171 Image 0  Energy = -4188.2527480593
C   0.8260657415  0.5508603911 -0.1261794589
H   0.4554445983  1.2417513435 -0.8784317668
O   0.5680753083  1.0246514429  1.1187434847
C   1.4411098584 -0.5873603774 -0.4363613732
H   0.9099091373  0.3932317500  1.7666320721
H   1.5916834696 -0.8592929697 -1.4741885892
H   1.8089534565 -1.2734747403  0.3237244514
7
Iter 171 Image 1  Energy = -4188.2233848891
C   0.8849615246  0.5906200346 -0.1436725372
H   0.5482098915  1.2899096589 -0.8924040484
O   0.7424505565  1.0849404632  1.1111114180
C   1.3686564028 -0.6114504825 -0.4204761858
H   0.8838526415  0.3375467373  1.6980440264
H   1.3619116457 -0.9939814763 -1.4257598451
H   1.8112003219 -1.2072200458  0.3670918559
7
Iter 171 Image 2  Energy = -4187.9549841604
C   0.8905746177  0.6470679950 -0.1776873045
H   0.5445835985  1.3861710847 -0.8897257454
O   0.8615899226  1.0605105063  1.1283711117
C   1.3558251265 -0.5752478203 -0.4084924611
H   0.8070152100  0.1959731189  1.5502827343
H   1.2563226709 -1.1477538255 -1.3020716051
H   1.8853325152 -1.0763555026  0.3932543984
7
Iter 171 Image 3  Energy = -4186.4746246657
C   0.9950531517  0.7366713843 -0.1957023398
H   0.4805768348  1.4124817942 -0.9340430165
O   0.9714639453  1.0519809620  1.1111115389
C   1.2900564324 -0.5802941454 -0.2636213912
H   0.7182665011  0.0015387989  1.2065505888
H   1.1380285655 -1.1880512719 -1.1258962906
H   2.0077984256 -0.9439620856  0.4955315542
7
Iter 171 Image 4  Energy = -4186.6515081173
C   1.0253004242  0.8893779560 -0.0878566808
H   0.4288263634  1.4172467490 -0.9200085240
O   1.1444213452  1.3097912633  1.0271121862
C   1.2068446128 -0.5899456174 -0.1069895951
H   0.6235916545 -0.4215224570  0.9552973325
H   1.1520984644 -1.1363402635 -1.0888403664
H   2.0201609638 -0.9782420743  0.5152161813
7
Iter 171 Image 5  Energy = -4188.4281365743
C   0.9627875436  0.9033421042 -0.0298837732
H   0.6367155153  1.3969725266 -0.9826246785
O   0.9516898113  1.4849880562  1.0027332652
C   1.2132349398 -0.5749481589 -0.0015495103
H   0.6028913194 -0.7696037809  0.8907025274
H   1.0016812713 -1.1646447485 -0.8965280531
H   2.2322431496 -0.7857408761  0.3110814940
7
Iter 171 Image 6  Energy = -4188.6713489315
C   0.8417640793  0.8869115744  0.0248650239
H   0.7646894403  1.3184818088 -0.9925380102
O   0.6466433387  1.5634318363  0.9903855657
C   1.2460629060 -0.5572632884  0.0605142603
H   0.7476305027 -1.0860185738  0.8666127476
H   1.0330414916 -1.0335192015 -0.8894152155
H   2.3214098140 -0.6016569496  0.2335151150
7
Iter 171 Image 7  Energy = -4188.6823301783
C   0.8136577727  0.8753638356 -0.0117734039
H   0.8708703119  1.3167198760 -1.0265884278
O   0.4202301112  1.5210341177  0.9156510615
C   1.2746844573 -0.5474419789  0.0874453818
H   0.8879487150 -1.0012393750  0.9929822733
H   0.9695241396 -1.1152066543 -0.7872149853
H   2.3643260129 -0.5588631270  0.1234370924
7
Iter 171 Image 8  Energy = -4188.6819968244
C   0.7840367852  0.8656586589 -0.0371164025
H   0.9809293880  1.3403901038 -1.0231241499
O   0.1875804579  1.4681235287  0.8223429327
C   1.3100769769 -0.5359012779  0.1153731248
H   1.0639489065 -0.9236344469  1.1059940899
H   0.8779311114 -1.1816924395 -0.6582837811
H   2.3967379442 -0.5425772870 -0.0312469938
7
Iter 172 Image 0  Energy = -4188.2527480593
C   0.8260657415  0.5508603911 -0.1261794589
H   0.4554445983  1.2417513435 -0.8784317668
O   0.5680753083  1.0246514429  1.1187434847
C   1.4411098584 -0.5873603774 -0.4363613732
H   0.9099091373  0.3932317500  1.7666320721
H   1.5916834696 -0.8592929697 -1.4741885892
H   1.8089534565 -1.2734747403  0.3237244514
7
Iter 172 Image 1  Energy = -4188.2217621675
C   0.8751636913  0.5859919743 -0.1460962464
H   0.5234826461  1.2762305138 -0.8980642590
O   0.7165900093  1.0781530803  1.1081940207
C   1.3895993179 -0.6019793348 -0.4194403104
H   0.8645146143  0.3334575689  1.6980589390
H   1.3908101454 -0.9952081975 -1.4203496804
H   1.8410820846 -1.1862801426  0.3716334712
7
Iter 172 Image 2  Energy = -4187.9693706206
C   0.8856025290  0.6387746513 -0.1765287236
H   0.5493701843  1.3763120552 -0.8990164368
O   0.8184509842  1.0464091396  1.1247759726
C   1.3681213186 -0.5721525684 -0.4042789394
H   0.8045879868  0.1825559145  1.5541073404
H   1.2736048874 -1.1251117108 -1.3111227230
H   1.9015051405 -1.0564218997  0.4059971483
7
Iter 172 Image 3  Energy = -4186.8779665849
C   0.9727722672  0.7162562590 -0.2022403474
H   0.5538604985  1.4254324485 -0.9169364648
O   0.8590217447  1.0098589143  1.1216542167
C   1.2972276406 -0.5869906748 -0.2842949690
H   0.7515614722  0.0016348014  1.2557043703
H   1.1246411280 -1.1670778542 -1.1464220780
H   2.0421585058 -0.9087482630  0.4664682164
7
Iter 172 Image 4  Energy = -4186.6672304145
C   0.9603448236  0.8461749976 -0.1159919998
H   0.5625687093  1.4539204342 -0.9218211952
O   0.9444213452  1.2949144540  1.0537262197
C   1.2000706081 -0.5972028666 -0.1080409849
H   0.7300463771 -0.4363587673  1.0224291530
H   1.1167070361 -1.1622894157 -1.0682979396
H   2.0870843836 -0.9087932909  0.4319294960
7
Iter 172 Image 5  Energy = -4188.4191765508
C   0.9486183278  0.8830038016 -0.0513372289
H   0.6560406704  1.4041034239 -0.9714367320
O   0.8697517258  1.4819797109  1.0219980372
C   1.2308157407 -0.5761490144 -0.0000133515
H   0.6412581286 -0.7926138343  0.8971484472
H   1.0066466794 -1.1276765416 -0.9183320096
H   2.2481117965 -0.7822821365  0.3159063302
7
Iter 172 Image 6  Energy = -4188.6713735184
C   0.8439828970  0.8839158051  0.0142410444
H   0.7413944303  1.3216475773 -0.9935452570
O   0.6613318963  1.5634435171  0.9978686694
C   1.2494636801 -0.5561979570  0.0566574776
H   0.7373949557 -1.0724517401  0.8625496723
H   1.0463115588 -1.0421032182 -0.8917618910
H   2.3213621646 -0.6078868512  0.2479296799
7
Iter 172 Image 7  Energy = -4188.6814728400
C   0.8137851536  0.8720243734 -0.0175874508
H   0.8594385566  1.3120093430 -1.0299715262
O   0.4269223946  1.5273338874  0.9202625830
C   1.2751535896 -0.5471891313  0.0880076349
H   0.8846992563 -1.0025686218  0.9914539448
H   0.9763689010 -1.1157242861 -0.7890129418
H   2.3648737236 -0.5555187685  0.1307866577
7
Iter 172 Image 8  Energy = -4188.6819968244
C   0.7840367852  0.8656586589 -0.0371164025
H   0.9809293880  1.3403901038 -1.0231241499
O   0.1875804579  1.4681235287  0.8223429327
C   1.3100769769 -0.5359012779  0.1153731248
H   1.0639489065 -0.9236344469  1.1059940899
H   0.8779311114 -1.1816924395 -0.6582837811
H   2.3967379442 -0.5425772870 -0.0312469938
7
Iter 173 Image 0  Energy = -4188.2527480593
C   0.8260657415  0.5508603911 -0.1261794589
H   0.4554445983  1.2417513435 -0.8784317668
O   0.5680753083  1.0246514429  1.1187434847
C   1.4411098584 -0.5873603774 -0.4363613732
H   0.9099091373  0.3932317500  1.7666320721
H   1.5916834696 -0.8592929697 -1.4741885892
H   1.8089534565 -1.2734747403  0.3237244514
7
Iter 173 Image 1  Energy = -4188.2220534703
C   0.8750333812  0.5867326154 -0.1461629459
H   0.5256260256  1.2776893968 -0.8980819333
O   0.7193187328  1.0783445870  1.1083942966
C   1.3883829846 -0.6030060744 -0.4196065825
H   0.8663640467  0.3336587863  1.6984477129
H   1.3885340029 -0.9949244330 -1.4204625171
H   1.8379833755 -1.1881294691  0.3714078016
7
Iter 173 Image 2  Energy = -4187.9764170072
C   0.8940692649  0.6401159829 -0.1754428763
H   0.5482473418  1.3720232610 -0.8948263024
O   0.8166667730  1.0493275573  1.1240000460
C   1.3642555567 -0.5767321938 -0.4039974452
H   0.8049561545  0.1858063010  1.5532545541
H   1.2707010577 -1.1249185520 -1.3140024244
H   1.9023469384 -1.0552567748  0.4049478792
7
Iter 173 Image 3  Energy = -4186.8877780756
C   0.9630244322  0.7160841513 -0.1983879814
H   0.5539427568  1.4252521239 -0.9146567316
O   0.8737732235  1.0206045053  1.1252379426
C   1.2997705137 -0.5783340154 -0.2903586399
H   0.7470542839 -0.0008143601  1.2552049435
H   1.1334267497 -1.1793666311 -1.1415546149
H   2.0302513472 -0.9130601896  0.4584478148
7
Iter 173 Image 4  Energy = -4186.7182091942
C   0.9597431626  0.8456987415 -0.0989415606
H   0.5498291760  1.4532845269 -0.9282133294
O   0.9636111228  1.2921566770  1.0450514256
C   1.2007751620 -0.5989792880 -0.1057561382
H   0.7212675252 -0.4272083533  1.0086341479
H   1.1203650953 -1.1589198805 -1.0646218929
H   2.0856520794 -0.9156668660  0.4377799326
7
Iter 173 Image 5  Energy = -4188.4546403906
C   0.9403632995  0.8918673234 -0.0356076214
H   0.6579647560  1.4050508442 -0.9744807799
O   0.8808075480  1.4782803178  1.0120762379
C   1.2268499665 -0.5753033448 -0.0029508387
H   0.6414561647 -0.7904180445  0.8945509937
H   1.0100343268 -1.1362488763 -0.9141464793
H   2.2437670439 -0.7828628335  0.3144917898
7
Iter 173 Image 6  Energy = -4188.6740697047
C   0.8442657503  0.8877158279  0.0194791260
H   0.7430432842  1.3211997296 -0.9944581847
O   0.6604396211  1.5609829156  0.9941842423
C   1.2490028696 -0.5567869600  0.0567041422
H   0.7379083327 -1.0738997535  0.8637839914
H   1.0450096819 -1.0416694175 -0.8925583337
H   2.3215720406 -0.6071752059  0.2468044171
7
Iter 173 Image 7  Energy = -4188.6828992239
C   0.8123818846  0.8746437252 -0.0138005282
H   0.8605229527  1.3125739576 -1.0303657916
O   0.4273652053  1.5249898486  0.9173170516
C   1.2752296145 -0.5475999576  0.0878645431
H   0.8848765477 -1.0025074632  0.9919260767
H   0.9756581060 -1.1159397697 -0.7891480856
H   2.3652072581 -0.5557935559  0.1301456395
7
Iter 173 Image 8  Energy = -4188.6819968244
C   0.7840367852  0.8656586589 -0.0371164025
H   0.9809293880  1.3403901038 -1.0231241499
O   0.1875804579  1.4681235287  0.8223429327
C   1.3100769769 -0.5359012779  0.1153731248
H   1.0639489065 -0.9236344469  1.1059940899
H   0.8779311114 -1.1816924395 -0.6582837811
H   2.3967379442 -0.5425772870 -0.0312469938
7
Iter 174 Image 0  Energy = -4188.2527480593
C   0.8260657415  0.5508603911 -0.1261794589
H   0.4554445983  1.2417513435 -0.8784317668
O   0.5680753083  1.0246514429  1.1187434847
C   1.4411098584 -0.5873603774 -0.4363613732
H   0.9099091373  0.3932317500  1.7666320721
H   1.5916834696 -0.8592929697 -1.4741885892
H   1.8089534565 -1.2734747403  0.3237244514
7
Iter 174 Image 1  Energy = -4188.2224717757
C   0.8763465467  0.5872917262 -0.1460089624
H   0.5299762342  1.2804137870 -0.8975038802
O   0.7245048440  1.0793782990  1.1089132437
C   1.3848628803 -0.6042869232 -0.4197773755
H   0.8699446414  0.3343451278  1.6988226014
H   1.3834195046 -0.9947731526 -1.4212132898
H   1.8321879851 -1.1920035585  0.3707032621
7
Iter 174 Image 2  Energy = -4187.9786808810
C   0.9015297320  0.6416494171 -0.1749482455
H   0.5468271570  1.3695519298 -0.8907287999
O   0.8205588459  1.0531356635  1.1236764987
C   1.3599792520 -0.5803159646 -0.4041097250
H   0.8054617692  0.1899891612  1.5519663570
H   1.2659463684 -1.1272872728 -1.3152845592
H   1.9009400776 -1.0563573562  0.4033614576
7
Iter 174 Image 3  Energy = -4186.8439344636
C   0.9580844307  0.7196889536 -0.1920385791
H   0.5460509826  1.4235016189 -0.9152483912
O   0.8980885149  1.0323753718  1.1251290572
C   1.3007522635 -0.5722250064 -0.2928536613
H   0.7398367714 -0.0021014075  1.2488972132
H   1.1408995182 -1.1906431680 -1.1356418167
H   2.0175309334 -0.9202308324  0.4556884914
7
Iter 174 Image 4  Energy = -4186.7304309627
C   0.9655899539  0.8505018093 -0.0918210917
H   0.5276958577  1.4465290827 -0.9297055746
O   1.0009130020  1.2942771575  1.0409383966
C   1.2023002528 -0.5999610551 -0.1024044201
H   0.7027329038 -0.4193965065  0.9896038014
H   1.1254455985 -1.1539957053 -1.0638467841
H   2.0765658488 -0.9275892113  0.4511678736
7
Iter 174 Image 5  Energy = -4188.4554876855
C   0.9368395836  0.8945129367 -0.0331168316
H   0.6566853320  1.4041992522 -0.9768906892
O   0.8993100554  1.4822869629  1.0126266029
C   1.2220532164 -0.5736730222 -0.0045631135
H   0.6365966771 -0.7866953886  0.8912892721
H   1.0114672872 -1.1457113008 -0.9093017882
H   2.2382910402 -0.7845541025  0.3138894458
7
Iter 174 Image 6  Energy = -4188.6742817482
C   0.8450518925  0.8878743588  0.0197787451
H   0.7469780834  1.3204938997 -0.9946635709
O   0.6571711675  1.5619306040  0.9948927932
C   1.2482841242 -0.5571089785  0.0573833994
H   0.7395359094 -1.0764461167  0.8651821034
H   1.0425031987 -1.0404120242 -0.8929002792
H   2.3217172021 -0.6059645953  0.2442662249
7
Iter 174 Image 7  Energy = -4188.6831568500
C   0.8128071134  0.8746214543 -0.0140280595
H   0.8626036812  1.3134535210 -1.0299513863
O   0.4256501722  1.5247946024  0.9179422260
C   1.2751657153 -0.5477348900  0.0878203909
H   0.8853428825 -1.0024097036  0.9924164599
H   0.9743141421 -1.1159763221 -0.7891128211
H   2.3653578505 -0.5563818963  0.1288521094
7
Iter 174 Image 8  Energy = -4188.6819968244
C   0.7840367852  0.8656586589 -0.0371164025
H   0.9809293880  1.3403901038 -1.0231241499
O   0.1875804579  1.4681235287  0.8223429327
C   1.3100769769 -0.5359012779  0.1153731248
H   1.0639489065 -0.9236344469  1.1059940899
H   0.8779311114 -1.1816924395 -0.6582837811
H   2.3967379442 -0.5425772870 -0.0312469938
7
Iter 175 Image 0  Energy = -4188.2527480593
C   0.8260657415  0.5508603911 -0.1261794589
H   0.4554445983  1.2417513435 -0.8784317668
O   0.5680753083  1.0246514429  1.1187434847
C   1.4411098584 -0.5873603774 -0.4363613732
H   0.9099091373  0.3932317500  1.7666320721
H   1.5916834696 -0.8592929697 -1.4741885892
H   1.8089534565 -1.2734747403  0.3237244514
7
Iter 175 Image 1  Energy = -4188.2236444226
C   0.8812583562  0.5889837431 -0.1451106581
H   0.5425671611  1.2879541446 -0.8952104734
O   0.7397131626  1.0830367272  1.1103800643
C   1.3741934486 -0.6079171475 -0.4205569914
H   0.8801980121  0.3368155359  1.6999400680
H   1.3679114562 -0.9950332952 -1.4235122260
H   1.8154013048 -1.2034746939  0.3680050928
7
Iter 175 Image 2  Energy = -4187.9774224928
C   0.9148437742  0.6439652951 -0.1747657312
H   0.5427237342  1.3678921744 -0.8839231303
O   0.8402546705  1.0623074192  1.1224885804
C   1.3510586286 -0.5851734046 -0.4048258218
H   0.8066108870  0.2000191595  1.5493599495
H   1.2527564218 -1.1360784084 -1.3151201596
H   1.8929954315 -1.0625666754  0.4007179403
7
Iter 175 Image 3  Energy = -4186.6369096211
C   0.9610478458  0.7320276978 -0.1840677498
H   0.5168565507  1.4123122286 -0.9165536423
O   0.9625556954  1.0562776499  1.1223030189
C   1.2990194569 -0.5652041478 -0.2913512527
H   0.7199730562 -0.0007865574  1.2220535994
H   1.1496435826 -1.2061778062 -1.1217571783
H   1.9921475471 -0.9380836486  0.4633042615
7
Iter 175 Image 4  Energy = -4186.7769698522
C   0.9895987661  0.8634300889 -0.0866317638
H   0.4711708014  1.4228923021 -0.9197275982
O   1.1083184107  1.3092334098  1.0310486866
C   1.2040749890 -0.5980876543 -0.0965528539
H   0.6484836805 -0.4076239353  0.9397153719
H   1.1357058013 -1.1414373278 -1.0647838237
H   2.0438912726 -0.9580412951  0.4908629850
7
Iter 175 Image 5  Energy = -4188.4576146624
C   0.9391357900  0.8992345304 -0.0321272134
H   0.6461160578  1.3990835881 -0.9797009668
O   0.9538372631  1.4951742000  1.0110287911
C   1.2117831603 -0.5713397821 -0.0054021699
H   0.6163468742 -0.7786241297  0.8823019186
H   1.0091367961 -1.1622653416 -0.8990883211
H   2.2248875198 -0.7908978617  0.3169196391
7
Iter 175 Image 6  Energy = -4188.6738562158
C   0.8456105049  0.8885043962  0.0222230117
H   0.7589444486  1.3191809161 -0.9946062098
O   0.6479195552  1.5630988268  0.9946917995
C   1.2465189863 -0.5578317408  0.0591885365
H   0.7448340016 -1.0828050362  0.8684081509
H   1.0354663388 -1.0368808219 -0.8925760098
H   2.3219477339 -0.6028993522  0.2366101858
7
Iter 175 Image 7  Energy = -4188.6834016165
C   0.8137587547  0.8749124271 -0.0136924966
H   0.8688356207  1.3160155610 -1.0283293137
O   0.4209788404  1.5233323230  0.9184528949
C   1.2749206929 -0.5479528784  0.0876217729
H   0.8868974294 -1.0019407717  0.9935562193
H   0.9704400073 -1.1158800637 -0.7886018404
H   2.3654101827 -0.5581198844  0.1249317299
7
Iter 175 Image 8  Energy = -4188.6819968244
C   0.7840367852  0.8656586589 -0.0371164025
H   0.9809293880  1.3403901038 -1.0231241499
O   0.1875804579  1.4681235287  0.8223429327
C   1.3100769769 -0.5359012779  0.1153731248
H   1.0639489065 -0.9236344469  1.1059940899
H   0.8779311114 -1.1816924395 -0.6582837811
H   2.3967379442 -0.5425772870 -0.0312469938
7
Iter 176 Image 0  Energy = -4188.2527480593
C   0.8260657415  0.5508603911 -0.1261794589
H   0.4554445983  1.2417513435 -0.8784317668
O   0.5680753083  1.0246514429  1.1187434847
C   1.4411098584 -0.5873603774 -0.4363613732
H   0.9099091373  0.3932317500  1.7666320721
H   1.5916834696 -0.8592929697 -1.4741885892
H   1.8089534565 -1.2734747403  0.3237244514
7
Iter 176 Image 1  Energy = -4188.2230504623
C   0.8782738542  0.5879562695 -0.1458085488
H   0.5344172892  1.2832213194 -0.8967800134
O   0.7314611158  1.0809520495  1.1094401092
C   1.3810792172 -0.6052158092 -0.4203379466
H   0.8738021813  0.3357533888  1.6999248577
H   1.3771200551 -0.9956820039 -1.4218001350
H   1.8250890376 -1.1966200099  0.3692969400
7
Iter 176 Image 2  Energy = -4187.9801047018
C   0.9101803934  0.6418082988 -0.1753369405
H   0.5444789586  1.3653153178 -0.8882208220
O   0.8287633036  1.0572671931  1.1215482636
C   1.3568542487 -0.5836627441 -0.4038144005
H   0.8055293539  0.1953461757  1.5506692561
H   1.2582254245 -1.1289746895 -1.3166914424
H   1.8972116638 -1.0567339840  0.4057785182
7
Iter 176 Image 3  Energy = -4186.7990454605
C   0.9585810712  0.7231642826 -0.1865404908
H   0.5390570053  1.4167728550 -0.9117567499
O   0.9251142681  1.0381008762  1.1245005188
C   1.3006577178 -0.5672661857 -0.2960402227
H   0.7307321020  0.0018713519  1.2375325806
H   1.1416820773 -1.1963498603 -1.1308999994
H   2.0054193005 -0.9259278294  0.4571361608
7
Iter 176 Image 4  Energy = -4186.7823630965
C   0.9724419595  0.8528847109 -0.0936323182
H   0.5167010746  1.4330694552 -0.9167484185
O   1.0424627526  1.3027139641  1.0349612095
C   1.2023978170 -0.5988897255 -0.1003122270
H   0.6817131142 -0.4143026624  0.9647874444
H   1.1222836480 -1.1513491462 -1.0594428059
H   2.0632431863 -0.9337610148  0.4643188206
7
Iter 176 Image 5  Energy = -4188.4652832916
C   0.9386455077  0.8944994112 -0.0344660588
H   0.6498837147  1.4005584997 -0.9754870806
O   0.9285764464  1.4922362794  1.0110610420
C   1.2182210166 -0.5722372061 -0.0044431196
H   0.6263634660 -0.7875623893  0.8842597195
H   1.0089140795 -1.1468532956 -0.9073724790
H   2.2306390807 -0.7902760003  0.3203803660
7
Iter 176 Image 6  Energy = -4188.6743345282
C   0.8457342795  0.8877852384  0.0197038108
H   0.7514836678  1.3205307546 -0.9947171062
O   0.6528160100  1.5622534077  0.9959990958
C   1.2477453437 -0.5574242746  0.0577989656
H   0.7417016393 -1.0778961920  0.8668141805
H   1.0399142020 -1.0397729974 -0.8928856285
H   2.3218464296 -0.6051087710  0.2412261211
7
Iter 176 Image 7  Energy = -4188.6832814834
C   0.8133742881  0.8744888755 -0.0143876512
H   0.8651777391  1.3144966679 -1.0293427691
O   0.4235662720  1.5245477194  0.9187150426
C   1.2750546170 -0.5478548213  0.0877414098
H   0.8859249619 -1.0022846039  0.9929632151
H   0.9726915899 -1.1159963016 -0.7890147317
H   2.3654520772 -0.5570307887  0.1272644221
7
Iter 176 Image 8  Energy = -4188.6819968244
C   0.7840367852  0.8656586589 -0.0371164025
H   0.9809293880  1.3403901038 -1.0231241499
O   0.1875804579  1.4681235287  0.8223429327
C   1.3100769769 -0.5359012779  0.1153731248
H   1.0639489065 -0.9236344469  1.1059940899
H   0.8779311114 -1.1816924395 -0.6582837811
H   2.3967379442 -0.5425772870 -0.0312469938
7
Iter 177 Image 0  Energy = -4188.2527480593
C   0.8260657415  0.5508603911 -0.1261794589
H   0.4554445983  1.2417513435 -0.8784317668
O   0.5680753083  1.0246514429  1.1187434847
C   1.4411098584 -0.5873603774 -0.4363613732
H   0.9099091373  0.3932317500  1.7666320721
H   1.5916834696 -0.8592929697 -1.4741885892
H   1.8089534565 -1.2734747403  0.3237244514
7
Iter 177 Image 1  Energy = -4188.2234137377
C   0.8796876070  0.5885692530 -0.1455706207
H   0.5369127343  1.2846978187 -0.8962228535
O   0.7357447060  1.0821239337  1.1097538723
C   1.3788420518 -0.6060272444 -0.4208313180
H   0.8760791788  0.3367853008  1.7006050351
H   1.3732025699 -0.9964219892 -1.4222085626
H   1.8207739733 -1.1993619273  0.3684094939
7
Iter 177 Image 2  Energy = -4187.9802023640
C   0.9129847675  0.6419000135 -0.1758423122
H   0.5432233306  1.3633127865 -0.8880873799
O   0.8356906060  1.0595463755  1.1203074205
C   1.3562333039 -0.5851486361 -0.4037970445
H   0.8052637670  0.1983663926  1.5500341470
H   1.2534948064 -1.1300200120 -1.3164497036
H   1.8943528518 -1.0575913583  0.4077669708
7
Iter 177 Image 3  Energy = -4186.7711607239
C   0.9635084167  0.7242938054 -0.1883023641
H   0.5341061325  1.4125458625 -0.9085782024
O   0.9394417879  1.0403721538  1.1253500238
C   1.2994851379 -0.5673121062 -0.2954197783
H   0.7257915532  0.0053783656  1.2291926549
H   1.1390014074 -1.1964572596 -1.1290667179
H   1.9999091866 -0.9284553387  0.4607558735
7
Iter 177 Image 4  Energy = -4186.8211383319
C   0.9806966787  0.8524794951 -0.0914663011
H   0.5112338544  1.4263255753 -0.9090964131
O   1.0668738791  1.3090282735  1.0298254382
C   1.2007561199 -0.5967601193 -0.1016695268
H   0.6680277016 -0.4131493674  0.9508720916
H   1.1185353870 -1.1512689770 -1.0567916908
H   2.0551200168 -0.9362892870  0.4722577942
7
Iter 177 Image 5  Energy = -4188.4735183737
C   0.9429300978  0.8951521578 -0.0351513827
H   0.6442344697  1.3975888384 -0.9735617157
O   0.9473072847  1.4984401800  1.0081110214
C   1.2163063390 -0.5723388255 -0.0038534335
H   0.6181918612 -0.7895422443  0.8796810189
H   1.0060812741 -1.1450645582 -0.9070408538
H   2.2261920613 -0.7938702676  0.3257474219
7
Iter 177 Image 6  Energy = -4188.6742784998
C   0.8457514032  0.8875186364  0.0196586014
H   0.7543050978  1.3207844650 -0.9945239921
O   0.6501832963  1.5621376104  0.9964378718
C   1.2475065018 -0.5574220170  0.0579729506
H   0.7431221233 -1.0783620326  0.8676665825
H   1.0384384691 -1.0395087033 -0.8926131341
H   2.3219346787 -0.6047807856  0.2393405757
7
Iter 177 Image 7  Energy = -4188.6832308194
C   0.8137550966  0.8742711496 -0.0146826252
H   0.8667674209  1.3151234193 -1.0288335248
O   0.4223006909  1.5243834663  0.9191360182
C   1.2749625090 -0.5478607638  0.0877072950
H   0.8863320510 -1.0021694061  0.9931934064
H   0.9717236897 -1.1159533066 -0.7888575987
H   2.3654000795 -0.5574278267  0.1262759779
7
Iter 177 Image 8  Energy = -4188.6819968244
C   0.7840367852  0.8656586589 -0.0371164025
H   0.9809293880  1.3403901038 -1.0231241499
O   0.1875804579  1.4681235287  0.8223429327
C   1.3100769769 -0.5359012779  0.1153731248
H   1.0639489065 -0.9236344469  1.1059940899
H   0.8779311114 -1.1816924395 -0.6582837811
H   2.3967379442 -0.5425772870 -0.0312469938
7
Iter 178 Image 0  Energy = -4188.2527480593
C   0.8260657415  0.5508603911 -0.1261794589
H   0.4554445983  1.2417513435 -0.8784317668
O   0.5680753083  1.0246514429  1.1187434847
C   1.4411098584 -0.5873603774 -0.4363613732
H   0.9099091373  0.3932317500  1.7666320721
H   1.5916834696 -0.8592929697 -1.4741885892
H   1.8089534565 -1.2734747403  0.3237244514
7
Iter 178 Image 1  Energy = -4188.2239287517
C   0.8816503534  0.5894826062 -0.1453789598
H   0.5386207344  1.2857815528 -0.8957083033
O   0.7420628045  1.0839840944  1.1100229198
C   1.3770147122 -0.6065340128 -0.4219556540
H   0.8782705796  0.3388439033  1.7023338300
H   1.3683882469 -0.9987045028 -1.4223097610
H   1.8152354862 -1.2024885373  0.3669306355
7
Iter 178 Image 2  Energy = -4187.9805312327
C   0.9178024412  0.6405087605 -0.1773999395
H   0.5410049070  1.3566423996 -0.8902980768
O   0.8468510871  1.0626554630  1.1166260580
C   1.3577890311 -0.5878087924 -0.4030399107
H   0.8039145558  0.2035077840  1.5490580079
H   1.2443477629 -1.1287047742 -1.3167796588
H   1.8895337559 -1.0564352903  0.4157652184
7
Iter 178 Image 3  Energy = -4186.7757536343
C   0.9748962872  0.7225503962 -0.1940302201
H   0.5345299452  1.4049082981 -0.8977266292
O   0.9548729602  1.0350941766  1.1289232751
C   1.2976650913 -0.5690573210 -0.2970157158
H   0.7188746427  0.0160511571  1.2165592535
H   1.1268643526 -1.1917752605 -1.1290830038
H   1.9935404391 -0.9274059392  0.4663041564
7
Iter 178 Image 4  Energy = -4186.9033658227
C   0.9926232856  0.8452528001 -0.0898648481
H   0.5228605243  1.4151419205 -0.8894987843
O   1.0914358136  1.3210542671  1.0203019730
C   1.1962245815 -0.5919463748 -0.1071083190
H   0.6514263779 -0.4138556320  0.9299756951
H   1.1006511844 -1.1567031809 -1.0469951192
H   2.0460219919 -0.9285781786  0.4771203936
7
Iter 178 Image 5  Energy = -4188.4949506244
C   0.9535681943  0.8947602444 -0.0369029100
H   0.6318523273  1.3907714649 -0.9664592221
O   0.9814793941  1.5122685533  0.9997741794
C   1.2149042985 -0.5731466454 -0.0019434739
H   0.6027644477 -0.7996251485  0.8688664719
H   0.9987961394 -1.1318057348 -0.9110065372
H   2.2178786959 -0.8028574444  0.3416031707
7
Iter 178 Image 6  Energy = -4188.6744196585
C   0.8456674168  0.8871942445  0.0192939582
H   0.7572708252  1.3222568515 -0.9941820167
O   0.6464067729  1.5605995977  0.9972520854
C   1.2476006888 -0.5572456239  0.0575531185
H   0.7449645602 -1.0766978483  0.8689766723
H   1.0372015378 -1.0405315165 -0.8920925086
H   2.3221297654 -0.6052085263  0.2371381754
7
Iter 178 Image 7  Energy = -4188.6830149612
C   0.8142053092  0.8739613888 -0.0150633394
H   0.8687771617  1.3158865362 -1.0281714910
O   0.4207930592  1.5241845311  0.9196761390
C   1.2748135261 -0.5478654918  0.0876575644
H   0.8868297726 -1.0020516711  0.9934566275
H   0.9705249328 -1.1159244461 -0.7886766740
H   2.3652977665 -0.5578241351  0.1250601354
7
Iter 178 Image 8  Energy = -4188.6819968244
C   0.7840367852  0.8656586589 -0.0371164025
H   0.9809293880  1.3403901038 -1.0231241499
O   0.1875804579  1.4681235287  0.8223429327
C   1.3100769769 -0.5359012779  0.1153731248
H   1.0639489065 -0.9236344469  1.1059940899
H   0.8779311114 -1.1816924395 -0.6582837811
H   2.3967379442 -0.5425772870 -0.0312469938
7
Iter 179 Image 0  Energy = -4188.2527480593
C   0.8260657415  0.5508603911 -0.1261794589
H   0.4554445983  1.2417513435 -0.8784317668
O   0.5680753083  1.0246514429  1.1187434847
C   1.4411098584 -0.5873603774 -0.4363613732
H   0.9099091373  0.3932317500  1.7666320721
H   1.5916834696 -0.8592929697 -1.4741885892
H   1.8089534565 -1.2734747403  0.3237244514
7
Iter 179 Image 1  Energy = -4188.2247687152
C   0.8856035506  0.5905571541 -0.1453135028
H   0.5416744651  1.2876392254 -0.8947871249
O   0.7537123986  1.0876514727  1.1106159202
C   1.3731878765 -0.6077505658 -0.4233904805
H   0.8825271418  0.3429388094  1.7048616298
H   1.3593061892 -1.0023605264 -1.4232498046
H   1.8052314772 -1.2083105258  0.3651974513
7
Iter 179 Image 2  Energy = -4187.9773515037
C   0.9267616083  0.6365937139 -0.1808857745
H   0.5377607223  1.3451708614 -0.8946331154
O   0.8665688398  1.0694204851  1.1124385288
C   1.3588641970 -0.5907744779 -0.4005446311
H   0.8011094037  0.2136704859  1.5466975371
H   1.2281232509 -1.1278322219 -1.3165265321
H   1.8820557165 -1.0558833178  0.4273849486
7
Iter 179 Image 3  Energy = -4186.7607615015
C   1.0001088200  0.7153132368 -0.1890426109
H   0.5343132019  1.4026972101 -0.8845979869
O   0.9832046817  1.0273910597  1.1266019854
C   1.2981069744 -0.5702512542 -0.3019738295
H   0.7032158994  0.0329437491  1.1985844900
H   1.1014362549 -1.1936024100 -1.1286120423
H   1.9808580731 -0.9241260415  0.4729703910
7
Iter 179 Image 4  Energy = -4187.0465793183
C   1.0159082156  0.8432510546 -0.0916404139
H   0.5331270393  1.4036907111 -0.8788630591
O   1.1374564318  1.3400327255  1.0260956187
C   1.1970075371 -0.5962797189 -0.1078156508
H   0.6167680208 -0.4171077056  0.8977181164
H   1.0668382736 -1.1650404641 -1.0345454977
H   2.0341384561 -0.9181809442  0.4829811730
7
Iter 179 Image 5  Energy = -4188.5246723613
C   0.9717987487  0.8994453396 -0.0269174103
H   0.6112243198  1.3787732443 -0.9581275449
O   1.0456991759  1.5327538636  0.9798258960
C   1.2096205506 -0.5739602000  0.0007532880
H   0.5728853644 -0.8155167927  0.8482162966
H   0.9876088835 -1.1130746246 -0.9175468788
H   2.2024066575 -0.8180555118  0.3677272965
7
Iter 179 Image 6  Energy = -4188.6726453772
C   0.8446678799  0.8900096292  0.0236685588
H   0.7627113923  1.3251001264 -0.9937883026
O   0.6406675300  1.5545473571  0.9940413639
C   1.2477285229 -0.5572164633  0.0565375904
H   0.7480076543 -1.0735086973  0.8715986686
H   1.0347178812 -1.0425083636 -0.8912377398
H   2.3227407020 -0.6060563973  0.2331193965
7
Iter 179 Image 7  Energy = -4188.6796268693
C   0.8124590270  0.8773912323 -0.0094391921
H   0.8726456566  1.3174803644 -1.0274437725
O   0.4201840124  1.5199423627  0.9149589565
C   1.2746384847 -0.5482462563  0.0872934728
H   0.8878466018 -1.0016585685  0.9940168604
H   0.9683268916 -1.1159556686 -0.7881563547
H   2.3651408409 -0.5585867909  0.1227090099
7
Iter 179 Image 8  Energy = -4188.6819968244
C   0.7840367852  0.8656586589 -0.0371164025
H   0.9809293880  1.3403901038 -1.0231241499
O   0.1875804579  1.4681235287  0.8223429327
C   1.3100769769 -0.5359012779  0.1153731248
H   1.0639489065 -0.9236344469  1.1059940899
H   0.8779311114 -1.1816924395 -0.6582837811
H   2.3967379442 -0.5425772870 -0.0312469938
7
Iter 180 Image 0  Energy = -4188.2527480593
C   0.8260657415  0.5508603911 -0.1261794589
H   0.4554445983  1.2417513435 -0.8784317668
O   0.5680753083  1.0246514429  1.1187434847
C   1.4411098584 -0.5873603774 -0.4363613732
H   0.9099091373  0.3932317500  1.7666320721
H   1.5916834696 -0.8592929697 -1.4741885892
H   1.8089534565 -1.2734747403  0.3237244514
7
Iter 180 Image 1  Energy = -4188.2249605230
C   0.8866363314  0.5908816383 -0.1453462593
H   0.5413877811  1.2873714380 -0.8946773088
O   0.7568356576  1.0888821242  1.1104896360
C   1.3728392578 -0.6081732367 -0.4238651249
H   0.8831363233  0.3444479044  1.7056852019
H   1.3572787924 -1.0036641459 -1.4234105594
H   1.8031290012 -1.2093806667  0.3650583249
7
Iter 180 Image 2  Energy = -4187.9757799676
C   0.9284751769  0.6361824185 -0.1816757959
H   0.5372584981  1.3407768167 -0.8973603234
O   0.8724537452  1.0712516627  1.1107062523
C   1.3604240144 -0.5926356507 -0.3997411807
H   0.7995903263  0.2168917853  1.5460659654
H   1.2229567453 -1.1268224507 -1.3157161438
H   1.8800852740 -1.0552790593  0.4316520384
7
Iter 180 Image 3  Energy = -4186.7785398385
C   1.0085123540  0.7159912098 -0.1910997231
H   0.5399470875  1.4035163394 -0.8782571346
O   0.9873046322  1.0227802086  1.1272510420
C   1.3004371267 -0.5747904218 -0.3053805051
H   0.6979309869  0.0383441091  1.1971294735
H   1.0884557301 -1.1943808446 -1.1296650889
H   1.9786560301 -0.9210950183  0.4739521798
7
Iter 180 Image 4  Energy = -4187.1062253138
C   1.0246102864  0.8454470522 -0.0835688630
H   0.5422346221  1.4044026240 -0.8807867525
O   1.1422840882  1.3395423803  1.0239023747
C   1.1965898847 -0.5974596495 -0.1078247886
H   0.6083188074 -0.4194861283  0.8919085487
H   1.0510374845 -1.1698286397 -1.0304542203
H   2.0361688520 -0.9122519681  0.4807538362
7
Iter 180 Image 5  Energy = -4188.5423045775
C   0.9778284665  0.8978597274 -0.0294997345
H   0.6047809201  1.3737810117 -0.9543803670
O   1.0675752864  1.5436465210  0.9789108150
C   1.2084416531 -0.5744700181  0.0025959535
H   0.5618198159 -0.8229319352  0.8402673519
H   0.9835433625 -1.1040403039 -0.9213546852
H   2.1972542493 -0.8234796528  0.3773914454
7
Iter 180 Image 6  Energy = -4188.6753204784
C   0.8452303259  0.8882534286  0.0205579669
H   0.7634272005  1.3264770109 -0.9932692170
O   0.6388634839  1.5545505108  0.9968089805
C   1.2479861289 -0.5569363840  0.0560656549
H   0.7484266361 -1.0711855754  0.8723230007
H   1.0343899933 -1.0438244339 -0.8909948032
H   2.3229177955 -0.6069673666  0.2324479606
7
Iter 180 Image 7  Energy = -4188.6834054610
C   0.8138576585  0.8753217677 -0.0125990437
H   0.8734330815  1.3177266399 -1.0269032100
O   0.4185359653  1.5217062340  0.9178790929
C   1.2745098226 -0.5481024852  0.0873651582
H   0.8880386734 -1.0016933789  0.9940527494
H   0.9678467079 -1.1158869532 -0.7880983668
H   2.3650196027 -0.5587051571  0.1222426017
7
Iter 180 Image 8  Energy = -4188.6819968244
C   0.7840367852  0.8656586589 -0.0371164025
H   0.9809293880  1.3403901038 -1.0231241499
O   0.1875804579  1.4681235287  0.8223429327
C   1.3100769769 -0.5359012779  0.1153731248
H   1.0639489065 -0.9236344469  1.1059940899
H   0.8779311114 -1.1816924395 -0.6582837811
H   2.3967379442 -0.5425772870 -0.0312469938
7
Iter 181 Image 0  Energy = -4188.2527480593
C   0.8260657415  0.5508603911 -0.1261794589
H   0.4554445983  1.2417513435 -0.8784317668
O   0.5680753083  1.0246514429  1.1187434847
C   1.4411098584 -0.5873603774 -0.4363613732
H   0.9099091373  0.3932317500  1.7666320721
H   1.5916834696 -0.8592929697 -1.4741885892
H   1.8089534565 -1.2734747403  0.3237244514
7
Iter 181 Image 1  Energy = -4188.2251271775
C   0.8876812806  0.5908811778 -0.1455867342
H   0.5390578867  1.2856287277 -0.8948946884
O   0.7599540868  1.0906482292  1.1097742824
C   1.3735056628 -0.6087701732 -0.4242272293
H   0.8828658663  0.3468320441  1.7065357766
H   1.3559567857 -1.0052663689 -1.4235626220
H   1.8022216178 -1.2095885131  0.3658949248
7
Iter 181 Image 2  Energy = -4187.9730213901
C   0.9299265176  0.6356787369 -0.1822648913
H   0.5378560000  1.3345457117 -0.9027999193
O   0.8786492566  1.0736617106  1.1085313050
C   1.3629871835 -0.5948815576 -0.3981508640
H   0.7964781325  0.2212328778  1.5454282620
H   1.2163707260 -1.1254049374 -1.3134969344
H   1.8789759834 -1.0544670217  0.4366837996
7
Iter 181 Image 3  Energy = -4186.8305060735
C   1.0211313408  0.7169968390 -0.1952693594
H   0.5565237663  1.4115324343 -0.8697224939
O   0.9850740290  1.0154512096  1.1284288651
C   1.3062660913 -0.5809589846 -0.3132855712
H   0.6894341544  0.0430223320  1.2047996768
H   1.0636437988 -1.2001758676 -1.1330335529
H   1.9791707978 -0.9155023028  0.4720125904
7
Iter 181 Image 4  Energy = -4187.1737759879
C   1.0344336782  0.8529504108 -0.0740330619
H   0.5612212076  1.4136090277 -0.8957699201
O   1.1349065021  1.3316535680  1.0301597982
C   1.1965514518 -0.6007621156 -0.1039082120
H   0.6005522011 -0.4257169443  0.8926159547
H   1.0233655690 -1.1776121225 -1.0260892540
H   2.0502134521 -0.9037561338  0.4709547689
7
Iter 181 Image 5  Energy = -4188.5595179519
C   0.9856484524  0.8982255672 -0.0287521274
H   0.5977910922  1.3660137743 -0.9498701203
O   1.0977639827  1.5572713365  0.9769253574
C   1.2064920866 -0.5756319070  0.0055953869
H   0.5447705870 -0.8345587235  0.8278171928
H   0.9787811496 -1.0901252740 -0.9280629951
H   2.1899964532 -0.8308293438  0.3902779837
7
Iter 181 Image 6  Energy = -4188.6750384441
C   0.8459854296  0.8866320819  0.0170546846
H   0.7627554982  1.3291167098 -0.9925675373
O   0.6379424871  1.5531137300  0.9995715008
C   1.2486764483 -0.5566060503  0.0549046479
H   0.7479722128 -1.0662225398  0.8731735614
H   1.0346470916 -1.0466275874 -0.8907156997
H   2.3232624015 -0.6090391603  0.2325183801
7
Iter 181 Image 7  Energy = -4188.6825371406
C   0.8149979497  0.8735052671 -0.0153485375
H   0.8739431960  1.3178459654 -1.0264341641
O   0.4173196067  1.5232573493  0.9203421984
C   1.2743729635 -0.5479615374  0.0874319003
H   0.8881784510 -1.0017594349  0.9940181292
H   0.9675797446 -1.1158528187 -0.7880343874
H   2.3648496017 -0.5586681277  0.1219638357
7
Iter 181 Image 8  Energy = -4188.6819968244
C   0.7840367852  0.8656586589 -0.0371164025
H   0.9809293880  1.3403901038 -1.0231241499
O   0.1875804579  1.4681235287  0.8223429327
C   1.3100769769 -0.5359012779  0.1153731248
H   1.0639489065 -0.9236344469  1.1059940899
H   0.8779311114 -1.1816924395 -0.6582837811
H   2.3967379442 -0.5425772870 -0.0312469938
7
Iter 182 Image 0  Energy = -4188.2527480593
C   0.8260657415  0.5508603911 -0.1261794589
H   0.4554445983  1.2417513435 -0.8784317668
O   0.5680753083  1.0246514429  1.1187434847
C   1.4411098584 -0.5873603774 -0.4363613732
H   0.9099091373  0.3932317500  1.7666320721
H   1.5916834696 -0.8592929697 -1.4741885892
H   1.8089534565 -1.2734747403  0.3237244514
7
Iter 182 Image 1  Energy = -4188.2250987461
C   0.8877451456  0.5899822600 -0.1461829859
H   0.5338920752  1.2817885212 -0.8957940012
O   0.7604852734  1.0921743282  1.1082046521
C   1.3760075418 -0.6090390449 -0.4239738786
H   0.8806969454  0.3493520497  1.7068326203
H   1.3574538143 -1.0063039960 -1.4232451941
H   1.8049623884 -1.2075888516  0.3680924118
7
Iter 182 Image 2  Energy = -4187.9709973207
C   0.9304143002  0.6349319252 -0.1824469608
H   0.5409500861  1.3294902234 -0.9095278868
O   0.8800812152  1.0754527142  1.1067336276
C   1.3655288466 -0.5954602862 -0.3961366720
H   0.7921019856  0.2244434872  1.5459506658
H   1.2113440530 -1.1247391016 -1.3103192127
H   1.8808232672 -1.0537534445  0.4396774040
7
Iter 182 Image 3  Energy = -4186.9134264758
C   1.0312288271  0.7167857547 -0.2021184794
H   0.5862093367  1.4287493617 -0.8634424084
O   0.9698622066  1.0077600697  1.1315130524
C   1.3129128492 -0.5841834276 -0.3262854605
H   0.6814415592  0.0419521804  1.2277018576
H   1.0332918026 -1.2093782102 -1.1385517443
H   1.9862973689 -0.9113199667  0.4651134813
7
Iter 182 Image 4  Energy = -4187.2133055201
C   1.0364143069  0.8606504498 -0.0727271856
H   0.5928376044  1.4323506416 -0.9173158366
O   1.1048806604  1.3156729197  1.0451067887
C   1.1938987597 -0.6015765135 -0.0975036315
H   0.6030963129 -0.4355994901  0.9057576648
H   0.9920866186 -1.1843847033 -1.0211618943
H   2.0780297766 -0.8967475971  0.4517743414
7
Iter 182 Image 5  Energy = -4188.5734388849
C   0.9915263042  0.8997511771 -0.0262429854
H   0.5956209020  1.3583834796 -0.9465438770
O   1.1216611762  1.5685812624  0.9778212027
C   1.2042365364 -0.5766554543  0.0088385362
H   0.5277140762 -0.8479358644  0.8153646984
H   0.9758636863 -1.0749644071 -0.9351075089
H   2.1846211256 -0.8367946389  0.3998007505
7
Iter 182 Image 6  Energy = -4188.6734801403
C   0.8470081748  0.8855346458  0.0139347158
H   0.7592620695  1.3325582778 -0.9920670795
O   0.6397244439  1.5506456728  1.0016217834
C   1.2498060705 -0.5564461457  0.0531445561
H   0.7457711105 -1.0591246156  0.8735184565
H   1.0360675059 -1.0506210215 -0.8905493288
H   2.3236022058 -0.6121796512  0.2343364081
7
Iter 182 Image 7  Energy = -4188.6799353680
C   0.8155971098  0.8722130213 -0.0172626121
H   0.8733040174  1.3175337144 -1.0264275721
O   0.4172640121  1.5245949489  0.9219894384
C   1.2742988894 -0.5478577216  0.0875016508
H   0.8880254016 -1.0019213181  0.9938274287
H   0.9680379954 -1.1158987644 -0.7880914964
H   2.3647140935 -0.5582972084  0.1224021163
7
Iter 182 Image 8  Energy = -4188.6819968244
C   0.7840367852  0.8656586589 -0.0371164025
H   0.9809293880  1.3403901038 -1.0231241499
O   0.1875804579  1.4681235287  0.8223429327
C   1.3100769769 -0.5359012779  0.1153731248
H   1.0639489065 -0.9236344469  1.1059940899
H   0.8779311114 -1.1816924395 -0.6582837811
H   2.3967379442 -0.5425772870 -0.0312469938
7
Iter 183 Image 0  Energy = -4188.2527480593
C   0.8260657415  0.5508603911 -0.1261794589
H   0.4554445983  1.2417513435 -0.8784317668
O   0.5680753083  1.0246514429  1.1187434847
C   1.4411098584 -0.5873603774 -0.4363613732
H   0.9099091373  0.3932317500  1.7666320721
H   1.5916834696 -0.8592929697 -1.4741885892
H   1.8089534565 -1.2734747403  0.3237244514
7
Iter 183 Image 1  Energy = -4188.2248403153
C   0.8852044332  0.5875093891 -0.1475842599
H   0.5244756794  1.2739666848 -0.8982234785
O   0.7556560863  1.0931496609  1.1048828794
C   1.3813421535 -0.6094146561 -0.4217434077
H   0.8754082247  0.3521374865  1.7054369917
H   1.3641487565 -1.0053431160 -1.4216607875
H   1.8150077586 -1.2016399086  0.3728258388
7
Iter 183 Image 2  Energy = -4187.9736292234
C   0.9285342040  0.6376063909 -0.1823862952
H   0.5519278693  1.3309748919 -0.9153131460
O   0.8692814434  1.0757553641  1.1075896522
C   1.3666731421 -0.5950581879 -0.3955498216
H   0.7855931216  0.2257994813  1.5510755699
H   1.2099362215 -1.1290526412 -1.3049760807
H   1.8892975746 -1.0556597421  0.4334918001
7
Iter 183 Image 3  Energy = -4187.0135720095
C   1.0278774366  0.7206185400 -0.2074818089
H   0.6414050610  1.4714989057 -0.8710168176
O   0.9342903207  0.9831165188  1.1371220263
C   1.3224519937 -0.5838522717 -0.3502211061
H   0.6745888817  0.0363676867  1.2724097364
H   0.9937967182 -1.2297286291 -1.1337220237
H   2.0068334185 -0.9076547982  0.4468408521
7
Iter 183 Image 4  Energy = -4187.1749909318
C   1.0203554913  0.8708791128 -0.0660988003
H   0.6530006430  1.4685959507 -0.9472372045
O   1.0185742931  1.2793352430  1.0509622213
C   1.1985683334 -0.5990060858 -0.0913661542
H   0.6269663821 -0.4574937939  0.9520223570
H   0.9580417491 -1.1827063099 -1.0057559368
H   2.1257369639 -0.8892383839  0.4014044559
7
Iter 183 Image 5  Energy = -4188.5984813145
C   0.9923932621  0.9073630032 -0.0109596142
H   0.6079642852  1.3545637316 -0.9496029991
O   1.1249123439  1.5674786288  0.9796035841
C   1.1990497062 -0.5753257548  0.0123275631
H   0.5127345952 -0.8628142330  0.8054535265
H   0.9788171754 -1.0640553483 -0.9370425033
H   2.1853723305 -0.8368442944  0.3941518667
7
Iter 183 Image 6  Energy = -4188.6743456742
C   0.8487243288  0.8865902232  0.0131934757
H   0.7505690559  1.3367496075 -0.9922068917
O   0.6478988196  1.5464950110  1.0008261646
C   1.2514132935 -0.5569414730  0.0507120625
H   0.7397861088 -1.0494070635  0.8725473598
H   1.0391050509 -1.0561088077 -0.8906555511
H   2.3237449520 -0.6170103736  0.2395227837
7
Iter 183 Image 7  Energy = -4188.6833312532
C   0.8138492980  0.8741240352 -0.0143361179
H   0.8706698803  1.3164574815 -1.0276833284
O   0.4202063710  1.5235032123  0.9191032763
C   1.2744368719 -0.5480300573  0.0875212909
H   0.8874853931 -1.0021472531  0.9935864577
H   0.9697797304 -1.1162518310 -0.7882751375
H   2.3648140020 -0.5572888878  0.1240224556
7
Iter 183 Image 8  Energy = -4188.6819968244
C   0.7840367852  0.8656586589 -0.0371164025
H   0.9809293880  1.3403901038 -1.0231241499
O   0.1875804579  1.4681235287  0.8223429327
C   1.3100769769 -0.5359012779  0.1153731248
H   1.0639489065 -0.9236344469  1.1059940899
H   0.8779311114 -1.1816924395 -0.6582837811
H   2.3967379442 -0.5425772870 -0.0312469938
7
Iter 184 Image 0  Energy = -4188.2527480593
C   0.8260657415  0.5508603911 -0.1261794589
H   0.4554445983  1.2417513435 -0.8784317668
O   0.5680753083  1.0246514429  1.1187434847
C   1.4411098584 -0.5873603774 -0.4363613732
H   0.9099091373  0.3932317500  1.7666320721
H   1.5916834696 -0.8592929697 -1.4741885892
H   1.8089534565 -1.2734747403  0.3237244514
7
Iter 184 Image 1  Energy = -4188.2247035822
C   0.8831443203  0.5854031261 -0.1484274994
H   0.5192068333  1.2690411686 -0.9002844732
O   0.7519303890  1.0938545621  1.1025796932
C   1.3841244520 -0.6094539486 -0.4197693206
H   0.8722782073  0.3537774987  1.7042392248
H   1.3685362085 -1.0042616126 -1.4201681519
H   1.8220226163 -1.1979950887  0.3757644263
7
Iter 184 Image 2  Energy = -4187.9770322165
C   0.9289211008  0.6374121678 -0.1814340370
H   0.5612767646  1.3365582053 -0.9171073612
O   0.8593445852  1.0755805205  1.1087470694
C   1.3652433416 -0.5925454986 -0.3961016473
H   0.7816780835  0.2267629044  1.5563388923
H   1.2091658930 -1.1348340804 -1.3024833256
H   1.8956136903 -1.0585686186  0.4259725534
7
Iter 184 Image 3  Energy = -4187.0385110548
C   1.0181921692  0.7194895526 -0.2084267691
H   0.6790542689  1.5012233072 -0.8790708184
O   0.9140261480  0.9689376161  1.1385868419
C   1.3291499574 -0.5768138006 -0.3644790131
H   0.6705541672  0.0292667653  1.3023220116
H   0.9729858417 -1.2444068167 -1.1254999442
H   2.0172812023 -0.9073305513  0.4304989190
7
Iter 184 Image 4  Energy = -4187.2071276179
C   1.0044541639  0.8650856157 -0.0878777560
H   0.6955038427  1.4896465815 -0.9557823589
O   0.9579742934  1.2705321642  1.0710573118
C   1.2028703075 -0.5958504044 -0.0856129897
H   0.6476521124 -0.4750916097  0.9801268801
H   0.9405758660 -1.1785119628 -0.9920172897
H   2.1522131315 -0.8854446199  0.3640376139
7
Iter 184 Image 5  Energy = -4188.6026875398
C   0.9883750502  0.9042921426 -0.0137414714
H   0.6215973361  1.3549813606 -0.9524018048
O   1.1211121106  1.5707551274  0.9938589258
C   1.1954025109 -0.5730461004  0.0151635546
H   0.5057970907 -0.8704653314  0.8021324519
H   0.9818784898 -1.0619135400 -0.9346072335
H   2.1870810280 -0.8342378265  0.3835274198
7
Iter 184 Image 6  Energy = -4188.6725768915
C   0.8507008839  0.8861069090  0.0105454331
H   0.7449755335  1.3386376510 -0.9922572190
O   0.6538594863  1.5461507245  1.0022434258
C   1.2521083105 -0.5572042945  0.0496250302
H   0.7354318950 -1.0443933480  0.8715738690
H   1.0406234971 -1.0589760038 -0.8908242441
H   2.3235420274 -0.6199545388  0.2430330165
7
Iter 184 Image 7  Energy = -4188.6807304940
C   0.8146862072  0.8724596358 -0.0172244097
H   0.8687873402  1.3156072633 -1.0281162081
O   0.4204367588  1.5256828176  0.9215055720
C   1.2744723410 -0.5478533292  0.0877354301
H   0.8870505659 -1.0024346781  0.9934272558
H   0.9709044280 -1.1164188587 -0.7885450823
H   2.3649039247 -0.5566761323  0.1251562997
7
Iter 184 Image 8  Energy = -4188.6819968244
C   0.7840367852  0.8656586589 -0.0371164025
H   0.9809293880  1.3403901038 -1.0231241499
O   0.1875804579  1.4681235287  0.8223429327
C   1.3100769769 -0.5359012779  0.1153731248
H   1.0639489065 -0.9236344469  1.1059940899
H   0.8779311114 -1.1816924395 -0.6582837811
H   2.3967379442 -0.5425772870 -0.0312469938
7
Iter 185 Image 0  Energy = -4188.2527480593
C   0.8260657415  0.5508603911 -0.1261794589
H   0.4554445983  1.2417513435 -0.8784317668
O   0.5680753083  1.0246514429  1.1187434847
C   1.4411098584 -0.5873603774 -0.4363613732
H   0.9099091373  0.3932317500  1.7666320721
H   1.5916834696 -0.8592929697 -1.4741885892
H   1.8089534565 -1.2734747403  0.3237244514
7
Iter 185 Image 1  Energy = -4188.2248374245
C   0.8827665108  0.5856498930 -0.1481157431
H   0.5219583388  1.2707340959 -0.9002271407
O   0.7511990669  1.0931810431  1.1032172806
C   1.3827338049 -0.6093026816 -0.4195702383
H   0.8733470512  0.3526371194  1.7039518727
H   1.3680070138 -1.0035974491 -1.4199786733
H   1.8212312355 -1.1989363814  0.3746565999
7
Iter 185 Image 2  Energy = -4187.9791311792
C   0.9289474939  0.6376458065 -0.1809440527
H   0.5616741777  1.3414657940 -0.9126698917
O   0.8569363600  1.0743448298  1.1098130325
C   1.3633615542 -0.5919714504 -0.3977561949
H   0.7837723461  0.2253585812  1.5574100860
H   1.2114687911 -1.1366704276 -1.3043636047
H   1.8950827537 -1.0598075243  0.4224426868
7
Iter 185 Image 3  Energy = -4187.0387389234
C   1.0094100762  0.7180377984 -0.2055904960
H   0.6678422907  1.4937764109 -0.8823370527
O   0.9215103658  0.9742821465  1.1367312258
C   1.3260885555 -0.5721575784 -0.3588515028
H   0.6745302596  0.0272605120  1.2927994076
H   0.9892713963 -1.2407218210 -1.1195028904
H   2.0125908243 -0.9101114438  0.4306824837
7
Iter 185 Image 4  Energy = -4187.2136313489
C   1.0000941604  0.8585811819 -0.0875852757
H   0.6841273767  1.4803220712 -0.9401799552
O   0.9677969613  1.2797221892  1.0592140709
C   1.2044062373 -0.5945039564 -0.0894691894
H   0.6504521211 -0.4699981137  0.9743469268
H   0.9568650545 -1.1749698139 -0.9924396183
H   2.1375018053 -0.8887877904  0.3700443977
7
Iter 185 Image 5  Energy = -4188.6023923776
C   0.9846457274  0.9050377041 -0.0123581218
H   0.6259382439  1.3603542225 -0.9548686723
O   1.1053220845  1.5626052213  0.9920502559
C   1.1961093306 -0.5725138912  0.0136713796
H   0.5151213963 -0.8640176985  0.8095076198
H   0.9837051764 -1.0713943096 -0.9292272424
H   2.1904016472 -0.8297054783  0.3751565872
7
Iter 185 Image 6  Energy = -4188.6743528417
C   0.8502058167  0.8875659173  0.0134092349
H   0.7464934020  1.3366599525 -0.9926794176
O   0.6540470212  1.5470658599  1.0000260544
C   1.2513999251 -0.5573554770  0.0505430944
H   0.7360889187 -1.0482868059  0.8711753356
H   1.0397992372 -1.0568185006 -0.8908936357
H   2.3232073101 -0.6184638392  0.2423586452
7
Iter 185 Image 7  Energy = -4188.6832260659
C   0.8137473209  0.8741224942 -0.0147012781
H   0.8690239517  1.3157500981 -1.0282844012
O   0.4210457140  1.5240686791  0.9192432574
C   1.2745517470 -0.5479703669  0.0876495645
H   0.8871242062 -1.0023261203  0.9935583205
H   0.9707372800 -1.1164324777 -0.7885002914
H   2.3650113425 -0.5568455899  0.1249736944
7
Iter 185 Image 8  Energy = -4188.6819968244
C   0.7840367852  0.8656586589 -0.0371164025
H   0.9809293880  1.3403901038 -1.0231241499
O   0.1875804579  1.4681235287  0.8223429327
C   1.3100769769 -0.5359012779  0.1153731248
H   1.0639489065 -0.9236344469  1.1059940899
H   0.8779311114 -1.1816924395 -0.6582837811
H   2.3967379442 -0.5425772870 -0.0312469938
7
Iter 186 Image 0  Energy = -4188.2527480593
C   0.8260657415  0.5508603911 -0.1261794589
H   0.4554445983  1.2417513435 -0.8784317668
O   0.5680753083  1.0246514429  1.1187434847
C   1.4411098584 -0.5873603774 -0.4363613732
H   0.9099091373  0.3932317500  1.7666320721
H   1.5916834696 -0.8592929697 -1.4741885892
H   1.8089534565 -1.2734747403  0.3237244514
7
Iter 186 Image 1  Energy = -4188.2248906961
C   0.8813629671  0.5852731734 -0.1481255621
H   0.5220992212  1.2698116607 -0.9014685946
O   0.7488772265  1.0931300702  1.1028014842
C   1.3828580453 -0.6093911248 -0.4185328802
H   0.8728588920  0.3528178236  1.7033945119
H   1.3693968056 -1.0030645046 -1.4188839533
H   1.8237898338 -1.1982114356  0.3747490462
7
Iter 186 Image 2  Energy = -4187.9809580615
C   0.9283480934  0.6387635645 -0.1801579641
H   0.5683334625  1.3488566985 -0.9088868257
O   0.8506035068  1.0727143540  1.1108440511
C   1.3620956293 -0.5922094929 -0.4002520103
H   0.7835341710  0.2250156619  1.5614290711
H   1.2116743399 -1.1406201108 -1.3048655409
H   1.8966542384 -1.0621550310  0.4158214219
7
Iter 186 Image 3  Energy = -4187.0414010009
C   0.9968906560  0.7180946623 -0.2049520368
H   0.6789538518  1.4990693177 -0.8842958245
O   0.9169250413  0.9745201209  1.1357434804
C   1.3262746747 -0.5672265494 -0.3597932606
H   0.6777157243  0.0213504851  1.2989912679
H   0.9939916044 -1.2429241132 -1.1120114877
H   2.0104921930 -0.9125178916  0.4202491542
7
Iter 186 Image 4  Energy = -4187.1999842992
C   0.9904365946  0.8517156874 -0.0868556933
H   0.6961463368  1.4841401547 -0.9316377325
O   0.9484524056  1.2809087367  1.0520653313
C   1.2034459281 -0.5932865847 -0.0911205320
H   0.6652432774 -0.4684229331  0.9808328826
H   0.9599844690 -1.1754693145 -0.9892342899
H   2.1375346487 -0.8892199376  0.3598815525
7
Iter 186 Image 5  Energy = -4188.6020523182
C   0.9805504630  0.9060068104 -0.0098446506
H   0.6378400066  1.3663186593 -0.9575667951
O   1.0887603661  1.5561380204  0.9935166050
C   1.1951099060 -0.5719159865  0.0139662067
H   0.5202399955 -0.8638087264  0.8150791850
H   0.9846726534 -1.0782239025 -0.9239888427
H   2.1940701670 -0.8241491102  0.3627702673
7
Iter 186 Image 6  Energy = -4188.6744168124
C   0.8508723837  0.8881938798  0.0138950255
H   0.7452750630  1.3357108200 -0.9930213962
O   0.6574745132  1.5482739111  0.9994749232
C   1.2509370404 -0.5573776350  0.0507964137
H   0.7343905835 -1.0493372134  0.8703050939
H   1.0396743810 -1.0562646324 -0.8909866326
H   2.3226176769 -0.6188320283  0.2434758283
7
Iter 186 Image 7  Energy = -4188.6833783111
C   0.8133116121  0.8747528035 -0.0138116665
H   0.8683566993  1.3155114185 -1.0285591985
O   0.4217544405  1.5236364302  0.9183384390
C   1.2746327674 -0.5479774962  0.0876474825
H   0.8869695873 -1.0023409899  0.9935351393
H   0.9711182381 -1.1164712945 -0.7885607888
H   2.3650982234 -0.5567441473  0.1253494529
7
Iter 186 Image 8  Energy = -4188.6819968244
C   0.7840367852  0.8656586589 -0.0371164025
H   0.9809293880  1.3403901038 -1.0231241499
O   0.1875804579  1.4681235287  0.8223429327
C   1.3100769769 -0.5359012779  0.1153731248
H   1.0639489065 -0.9236344469  1.1059940899
H   0.8779311114 -1.1816924395 -0.6582837811
H   2.3967379442 -0.5425772870 -0.0312469938
7
Iter 187 Image 0  Energy = -4188.2527480593
C   0.8260657415  0.5508603911 -0.1261794589
H   0.4554445983  1.2417513435 -0.8784317668
O   0.5680753083  1.0246514429  1.1187434847
C   1.4411098584 -0.5873603774 -0.4363613732
H   0.9099091373  0.3932317500  1.7666320721
H   1.5916834696 -0.8592929697 -1.4741885892
H   1.8089534565 -1.2734747403  0.3237244514
7
Iter 187 Image 1  Energy = -4188.2250340006
C   0.8803315286  0.5847452271 -0.1481829550
H   0.5222480868  1.2685658910 -0.9031393586
O   0.7470859965  1.0938255178  1.1023501727
C   1.3828048634 -0.6092994146 -0.4174991613
H   0.8724567130  0.3539943807  1.7033857819
H   1.3701672077 -1.0035941914 -1.4176476728
H   1.8261485768 -1.1978717027  0.3746672793
7
Iter 187 Image 2  Energy = -4187.9816750309
C   0.9284953261  0.6374111498 -0.1796225307
H   0.5778003621  1.3566342564 -0.9052811276
O   0.8459356357  1.0714526701  1.1112043612
C   1.3607859371 -0.5913916020 -0.4029092177
H   0.7825593328  0.2255454585  1.5660520954
H   1.2088227994 -1.1443314628 -1.3057084142
H   1.8968440210 -1.0649547807  0.4101971475
7
Iter 187 Image 3  Energy = -4187.0408339074
C   0.9889935798  0.7167166302 -0.2026614872
H   0.6962678895  1.5065368357 -0.8810954573
O   0.9090467295  0.9736307754  1.1350239418
C   1.3228456991 -0.5638239401 -0.3635193726
H   0.6824911877  0.0172175514  1.3041871374
H   0.9939775025 -1.2453076813 -1.1062576228
H   2.0076211478 -0.9146041012  0.4082542276
7
Iter 187 Image 4  Energy = -4187.1898591539
C   0.9831117211  0.8504426401 -0.0846543739
H   0.7151446932  1.4908074753 -0.9264150512
O   0.9288438945  1.2817461334  1.0492572298
C   1.2018874498 -0.5972669264 -0.0916265056
H   0.6798051868 -0.4652312719  0.9863825459
H   0.9545694722 -1.1831802434 -0.9872479025
H   2.1378812050 -0.8869519268  0.3482357086
7
Iter 187 Image 5  Energy = -4188.6056086293
C   0.9783155558  0.9049070579 -0.0106521212
H   0.6515951395  1.3723733559 -0.9586336555
O   1.0762699715  1.5552488231  0.9969527758
C   1.1927831117 -0.5724125598  0.0152172418
H   0.5234131764 -0.8680784973  0.8192275292
H   0.9818941686 -1.0823657599 -0.9203538293
H   2.1969723963 -0.8193066369  0.3521741812
7
Iter 187 Image 6  Energy = -4188.6738172045
C   0.8514314602  0.8896131749  0.0154770800
H   0.7441034599  1.3351263123 -0.9934182173
O   0.6618415446  1.5486008414  0.9979588289
C   1.2503192296 -0.5574218507  0.0508165130
H   0.7323620025 -1.0495464914  0.8694165470
H   1.0393977033 -1.0561251349 -0.8909498031
H   2.3217862589 -0.6198797614  0.2446382388
7
Iter 187 Image 7  Energy = -4188.6830525866
C   0.8128595225  0.8753339828 -0.0128559295
H   0.8678682851  1.3153581877 -1.0287636132
O   0.4223853279  1.5231361070  0.9173722334
C   1.2747009865 -0.5480151455  0.0876273998
H   0.8868813011 -1.0023049338  0.9934804795
H   0.9714130988 -1.1164744201 -0.7885441136
H   2.3651330508 -0.5566670461  0.1256223929
7
Iter 187 Image 8  Energy = -4188.6819968244
C   0.7840367852  0.8656586589 -0.0371164025
H   0.9809293880  1.3403901038 -1.0231241499
O   0.1875804579  1.4681235287  0.8223429327
C   1.3100769769 -0.5359012779  0.1153731248
H   1.0639489065 -0.9236344469  1.1059940899
H   0.8779311114 -1.1816924395 -0.6582837811
H   2.3967379442 -0.5425772870 -0.0312469938
7
Iter 188 Image 0  Energy = -4188.2527480593
C   0.8260657415  0.5508603911 -0.1261794589
H   0.4554445983  1.2417513435 -0.8784317668
O   0.5680753083  1.0246514429  1.1187434847
C   1.4411098584 -0.5873603774 -0.4363613732
H   0.9099091373  0.3932317500  1.7666320721
H   1.5916834696 -0.8592929697 -1.4741885892
H   1.8089534565 -1.2734747403  0.3237244514
7
Iter 188 Image 1  Energy = -4188.2253387889
C   0.8786964576  0.5846945939 -0.1481979006
H   0.5229468997  1.2662500682 -0.9060646158
O   0.7445735511  1.0954816897  1.1014482755
C   1.3828483746 -0.6099630530 -0.4160820995
H   0.8719595011  0.3571239051  1.7039880458
H   1.3706071330 -1.0054883065 -1.4153671249
H   1.8296110376 -1.1977331010  0.3742095093
7
Iter 188 Image 2  Energy = -4187.9802638462
C   0.9275709188  0.6388714435 -0.1785536725
H   0.5970034369  1.3692141265 -0.8984563397
O   0.8402114313  1.0686441574  1.1113252849
C   1.3596847362 -0.5945649160 -0.4086151644
H   0.7807248090  0.2274042170  1.5738682357
H   1.2014556596 -1.1491390121 -1.3070959354
H   1.8945923917 -1.0700642379  0.4014600482
7
Iter 188 Image 3  Energy = -4187.0329492709
C   0.9797353631  0.7180966295 -0.1986790514
H   0.7300752895  1.5208028423 -0.8702419374
O   0.8932272943  0.9713610972  1.1350232006
C   1.3142924341 -0.5627818832 -0.3698589655
H   0.6931138678  0.0119706744  1.3115386322
H   0.9893964714 -1.2507704550 -1.1016731580
H   2.0014030098 -0.9183127529  0.3878227382
7
Iter 188 Image 4  Energy = -4187.1743633917
C   0.9752555414  0.8475098822 -0.0836572395
H   0.7522479184  1.5056062465 -0.9218571768
O   0.8974328522  1.2839978219  1.0526442403
C   1.1941893385 -0.6020066506 -0.0935692609
H   0.7023855411 -0.4603096296  0.9948289635
H   0.9390868825 -1.2017099712 -0.9834624728
H   2.1406455126 -0.8827216742  0.3290047575
7
Iter 188 Image 5  Energy = -4188.6099706462
C   0.9771782804  0.9078687677 -0.0041292583
H   0.6770346989  1.3829668530 -0.9602720052
O   1.0570569994  1.5528686562  0.9950257945
C   1.1879736544 -0.5747611727  0.0174332043
H   0.5279601663 -0.8798615755  0.8255673700
H   0.9729487717 -1.0871845264 -0.9154994150
H   2.2010908928 -0.8115311718  0.3358066566
7
Iter 188 Image 6  Energy = -4188.6732181481
C   0.8537277259  0.8880694415  0.0116405357
H   0.7423472292  1.3342317413 -0.9935938694
O   0.6691405014  1.5530700079  1.0012679672
C   1.2490058265 -0.5572346832  0.0510389009
H   0.7285302333 -1.0493985042  0.8678945083
H   1.0385517237 -1.0560150441 -0.8909309289
H   2.3199384501 -0.6223558950  0.2466219401
7
Iter 188 Image 7  Energy = -4188.6832698604
C   0.8134928319  0.8741232296 -0.0146645946
H   0.8671826116  1.3151124026 -1.0287448244
O   0.4221630536  1.5243301557  0.9188390020
C   1.2747560085 -0.5479104980  0.0877189303
H   0.8867390077 -1.0022885492  0.9933331099
H   0.9717786197 -1.1164035491 -0.7885535867
H   2.3651294471 -0.5565964434  0.1260108016
7
Iter 188 Image 8  Energy = -4188.6819968244
C   0.7840367852  0.8656586589 -0.0371164025
H   0.9809293880  1.3403901038 -1.0231241499
O   0.1875804579  1.4681235287  0.8223429327
C   1.3100769769 -0.5359012779  0.1153731248
H   1.0639489065 -0.9236344469  1.1059940899
H   0.8779311114 -1.1816924395 -0.6582837811
H   2.3967379442 -0.5425772870 -0.0312469938
7
Iter 189 Image 0  Energy = -4188.2527480593
C   0.8260657415  0.5508603911 -0.1261794589
H   0.4554445983  1.2417513435 -0.8784317668
O   0.5680753083  1.0246514429  1.1187434847
C   1.4411098584 -0.5873603774 -0.4363613732
H   0.9099091373  0.3932317500  1.7666320721
H   1.5916834696 -0.8592929697 -1.4741885892
H   1.8089534565 -1.2734747403  0.3237244514
7
Iter 189 Image 1  Energy = -4188.2255364677
C   0.8788980088  0.5846106610 -0.1481737561
H   0.5238021396  1.2660304301 -0.9066897033
O   0.7445352890  1.0962565761  1.1012414570
C   1.3824665026 -0.6100872090 -0.4159674984
H   0.8722046986  0.3586018994  1.7046396986
H   1.3697383225 -1.0067081277 -1.4149382013
H   1.8295980034 -1.1983384151  0.3738220466
7
Iter 189 Image 2  Energy = -4187.9803467861
C   0.9284995424  0.6375743993 -0.1782724619
H   0.6029718953  1.3723790884 -0.8967898357
O   0.8409852152  1.0681991889  1.1112611347
C   1.3582941924 -0.5942838593 -0.4096982362
H   0.7805774642  0.2278532743  1.5751414309
H   1.1979548536 -1.1494503129 -1.3084235969
H   1.8919602313 -1.0719059703  0.4007139915
7
Iter 189 Image 3  Energy = -4187.0326094648
C   0.9818854915  0.7186555824 -0.1975684136
H   0.7385359875  1.5251278858 -0.8644608808
O   0.8894993461  0.9714684798  1.1361406535
C   1.3088634687 -0.5639162235 -0.3704274265
H   0.6975948512  0.0118544818  1.3106565002
H   0.9859928334 -1.2530269584 -1.1052915602
H   1.9988717649 -0.9197970655  0.3848825540
7
Iter 189 Image 4  Energy = -4187.1749721712
C   0.9768910408  0.8495088208 -0.0812357908
H   0.7621632648  1.5099830978 -0.9225516789
O   0.8953460191  1.2828628914  1.0536400507
C   1.1899338909 -0.6022502905 -0.0951762906
H   0.7042099495 -0.4590964469  0.9952610427
H   0.9326327145 -1.2087120754 -0.9822455961
H   2.1400667261 -0.8819299200  0.3262400448
7
Iter 189 Image 5  Energy = -4188.6190301946
C   0.9774788592  0.9056929540 -0.0079197152
H   0.6844391298  1.3853296515 -0.9599884124
O   1.0548166125  1.5575419246  0.9985812979
C   1.1865404036 -0.5756253858  0.0183313591
H   0.5291824188 -0.8853436901  0.8269366120
H   0.9675003488 -1.0869571915 -0.9153735456
H   2.2012856908 -0.8102724139  0.3333647624
7
Iter 189 Image 6  Energy = -4188.6741983762
C   0.8537313823  0.8895801971  0.0139247302
H   0.7424909133  1.3341002414 -0.9938562645
O   0.6713834570  1.5525187540  0.9992980185
C   1.2485131822 -0.5574081430  0.0509625320
H   0.7277367399 -1.0494349901  0.8676756048
H   1.0380573135 -1.0559224253 -0.8908750506
H   2.3193287099 -0.6230665777  0.2468094471
7
Iter 189 Image 7  Energy = -4188.6833458862
C   0.8131915021  0.8745982478 -0.0138916504
H   0.8673089468  1.3151934640 -1.0287311193
O   0.4223819118  1.5238003037  0.9181343102
C   1.2747721579 -0.5479467663  0.0876857118
H   0.8867632049 -1.0022288468  0.9933246570
H   0.9717027385 -1.1163864523 -0.7885213972
H   2.3651211170 -0.5566631992  0.1259383263
7
Iter 189 Image 8  Energy = -4188.6819968244
C   0.7840367852  0.8656586589 -0.0371164025
H   0.9809293880  1.3403901038 -1.0231241499
O   0.1875804579  1.4681235287  0.8223429327
C   1.3100769769 -0.5359012779  0.1153731248
H   1.0639489065 -0.9236344469  1.1059940899
H   0.8779311114 -1.1816924395 -0.6582837811
H   2.3967379442 -0.5425772870 -0.0312469938
7
Iter 190 Image 0  Energy = -4188.2527480593
C   0.8260657415  0.5508603911 -0.1261794589
H   0.4554445983  1.2417513435 -0.8784317668
O   0.5680753083  1.0246514429  1.1187434847
C   1.4411098584 -0.5873603774 -0.4363613732
H   0.9099091373  0.3932317500  1.7666320721
H   1.5916834696 -0.8592929697 -1.4741885892
H   1.8089534565 -1.2734747403  0.3237244514
7
Iter 190 Image 1  Energy = -4188.2258211842
C   0.8795204932  0.5845889079 -0.1481200446
H   0.5255225733  1.2662023619 -0.9071926949
O   0.7448322017  1.0972795350  1.1010096486
C   1.3817205273 -0.6103716700 -0.4160217573
H   0.8728328213  0.3606790145  1.7056995097
H   1.3679842428 -1.0084727604 -1.4145996762
H   1.8288301237 -1.1995395617  0.3731589796
7
Iter 190 Image 2  Energy = -4187.9804844430
C   0.9301000844  0.6363596125 -0.1778569958
H   0.6104907113  1.3761276043 -0.8945410515
O   0.8433517334  1.0677463615  1.1113752172
C   1.3558477132 -0.5943333418 -0.4108734082
H   0.7809963278  0.2279870145  1.5759531229
H   1.1932798645 -1.1490001988 -1.3106714734
H   1.8871769869 -1.0745212042  0.4005469273
7
Iter 190 Image 3  Energy = -4187.0313159695
C   0.9868478950  0.7198579942 -0.1957837953
H   0.7467055534  1.5307735366 -0.8568074663
O   0.8864973706  0.9722458070  1.1379728475
C   1.2999625627 -0.5668819531 -0.3705822902
H   0.7041712028  0.0121720526  1.3073199260
H   0.9819310598 -1.2556406869 -1.1119767812
H   1.9951281252 -0.9221605302  0.3837889054
7
Iter 190 Image 4  Energy = -4187.1760742611
C   0.9808437882  0.8533215952 -0.0804106060
H   0.7725529079  1.5145770555 -0.9232821766
O   0.8979362684  1.2814863121  1.0565053372
C   1.1847325850 -0.6021453190 -0.0972475356
H   0.7031981779 -0.4582560470  0.9944340035
H   0.9252271286 -1.2168393181 -0.9807958003
H   2.1367527890 -0.8817781324  0.3247284664
7
Iter 190 Image 5  Energy = -4188.6235695353
C   0.9782772098  0.9050323152 -0.0094889644
H   0.6938617919  1.3881784696 -0.9601561461
O   1.0522476871  1.5620375034  0.9998460262
C   1.1846250090 -0.5768018036  0.0190608121
H   0.5316377663 -0.8925740963  0.8289932939
H   0.9593352387 -1.0864696521 -0.9153728856
H   2.2012587671 -0.8090368663  0.3310502003
7
Iter 190 Image 6  Energy = -4188.6740866622
C   0.8540793163  0.8902674563  0.0149323437
H   0.7431745399  1.3337941270 -0.9939983749
O   0.6737777342  1.5531925663  0.9985200611
C   1.2477273626 -0.5575956513  0.0510691860
H   0.7269019721 -1.0498276711  0.8675041500
H   1.0371420340 -1.0555526434 -0.8908860565
H   2.3184387502 -0.6239111369  0.2467976640
7
Iter 190 Image 7  Energy = -4188.6833561084
C   0.8132407043  0.8745919718 -0.0138846355
H   0.8676392585  1.3153523451 -1.0285831525
O   0.4221982772  1.5236819135  0.9181589496
C   1.2747638951 -0.5479422188  0.0876660770
H   0.8868114896 -1.0021650101  0.9933303675
H   0.9714815257 -1.1163398996 -0.7884980917
H   2.3651064280 -0.5568123492  0.1257493265
7
Iter 190 Image 8  Energy = -4188.6819968244
C   0.7840367852  0.8656586589 -0.0371164025
H   0.9809293880  1.3403901038 -1.0231241499
O   0.1875804579  1.4681235287  0.8223429327
C   1.3100769769 -0.5359012779  0.1153731248
H   1.0639489065 -0.9236344469  1.1059940899
H   0.8779311114 -1.1816924395 -0.6582837811
H   2.3967379442 -0.5425772870 -0.0312469938
7
Iter 191 Image 0  Energy = -4188.2527480593
C   0.8260657415  0.5508603911 -0.1261794589
H   0.4554445983  1.2417513435 -0.8784317668
O   0.5680753083  1.0246514429  1.1187434847
C   1.4411098584 -0.5873603774 -0.4363613732
H   0.9099091373  0.3932317500  1.7666320721
H   1.5916834696 -0.8592929697 -1.4741885892
H   1.8089534565 -1.2734747403  0.3237244514
7
Iter 191 Image 1  Energy = -4188.2263220719
C   0.8805868598  0.5846206848 -0.1480918741
H   0.5289128949  1.2666374565 -0.9077955524
O   0.7451455531  1.0989249739  1.1003253501
C   1.3804994310 -0.6114036280 -0.4160832571
H   0.8739899930  0.3644768992  1.7074769573
H   1.3647486048 -1.0111997642 -1.4141225447
H   1.8273596794 -1.2016907697  0.3722247561
7
Iter 191 Image 2  Energy = -4187.9808750024
C   0.9332152180  0.6370003064 -0.1767819285
H   0.6241592934  1.3834673859 -0.8903341941
O   0.8473324291  1.0668421291  1.1125319243
C   1.3504203007 -0.5964171422 -0.4129349992
H   0.7826363440  0.2272430927  1.5769382266
H   1.1858336945 -1.1478250694 -1.3149491327
H   1.8776461869 -1.0799447675  0.3994622976
7
Iter 191 Image 3  Energy = -4187.0237316212
C   0.9940116203  0.7223324887 -0.1930300636
H   0.7608952580  1.5442398404 -0.8461451108
O   0.8836123294  0.9736763225  1.1406642863
C   1.2844093838 -0.5727331475 -0.3712768407
H   0.7155131446  0.0100466464  1.3041525920
H   0.9754370324 -1.2600505994 -1.1226293340
H   1.9873650460 -0.9271452557  0.3821956775
7
Iter 191 Image 4  Energy = -4187.1740204936
C   0.9867062554  0.8586619614 -0.0800923397
H   0.7907662603  1.5242339440 -0.9230259403
O   0.9016209460  1.2771159949  1.0598870230
C   1.1773651720 -0.6015292067 -0.1000112777
H   0.7011685332 -0.4586242152  0.9944840133
H   0.9145407878 -1.2261962824 -0.9778121427
H   2.1290757605 -0.8832959428  0.3205022053
7
Iter 191 Image 5  Energy = -4188.6306100807
C   0.9784502728  0.9059568985 -0.0087455907
H   0.7124030648  1.3931601746 -0.9624386636
O   1.0454523916  1.5668288474  1.0006466047
C   1.1808122512 -0.5779196314  0.0200479061
H   0.5374019140 -0.9049628263  0.8334570019
H   0.9452311795 -1.0860873562 -0.9140110941
H   2.2014924062 -0.8066102029  0.3249761514
7
Iter 191 Image 6  Energy = -4188.6739940962
C   0.8550392957  0.8909182362  0.0157331625
H   0.7443729141  1.3331202535 -0.9941726391
O   0.6781392274  1.5552432115  0.9979178503
C   1.2462226908 -0.5579653730  0.0513973995
H   0.7252420959 -1.0508906660  0.8672699240
H   1.0353649215 -1.0547094735 -0.8910602565
H   2.3168605861 -0.6253491557  0.2468534458
7
Iter 191 Image 7  Energy = -4188.6832534841
C   0.8131228559  0.8749721048 -0.0132896935
H   0.8681703184  1.3156320851 -1.0284259607
O   0.4221120465  1.5231529899  0.9177392797
C   1.2747490978 -0.5479660785  0.0875880030
H   0.8868522938 -1.0020677934  0.9933649350
H   0.9711206802 -1.1162766278 -0.7884907481
H   2.3651142801 -0.5570799218  0.1254530262
7
Iter 191 Image 8  Energy = -4188.6819968244
C   0.7840367852  0.8656586589 -0.0371164025
H   0.9809293880  1.3403901038 -1.0231241499
O   0.1875804579  1.4681235287  0.8223429327
C   1.3100769769 -0.5359012779  0.1153731248
H   1.0639489065 -0.9236344469  1.1059940899
H   0.8779311114 -1.1816924395 -0.6582837811
H   2.3967379442 -0.5425772870 -0.0312469938
7
Iter 192 Image 0  Energy = -4188.2527480593
C   0.8260657415  0.5508603911 -0.1261794589
H   0.4554445983  1.2417513435 -0.8784317668
O   0.5680753083  1.0246514429  1.1187434847
C   1.4411098584 -0.5873603774 -0.4363613732
H   0.9099091373  0.3932317500  1.7666320721
H   1.5916834696 -0.8592929697 -1.4741885892
H   1.8089534565 -1.2734747403  0.3237244514
7
Iter 192 Image 1  Energy = -4188.2273685804
C   0.8837151551  0.5833332156 -0.1482405384
H   0.5378218172  1.2682498420 -0.9088969206
O   0.7457869088  1.1027876202  1.0981555522
C   1.3769773268 -0.6138973267 -0.4158539447
H   0.8770634963  0.3737678498  1.7113370926
H   1.3566403020 -1.0164710399 -1.4135661978
H   1.8232380863 -1.2074042388  0.3709985096
7
Iter 192 Image 2  Energy = -4187.9765787891
C   0.9451432195  0.6352083843 -0.1739618097
H   0.6574169443  1.4049792021 -0.8810704140
O   0.8567788101  1.0649189276  1.1178638727
C   1.3310410030 -0.5962283217 -0.4160056878
H   0.7892526362  0.2227726231  1.5783097694
H   1.1695318661 -1.1451055357 -1.3268292504
H   1.8520790994 -1.0961791565  0.3956253745
7
Iter 192 Image 3  Energy = -4186.9945513925
C   1.0029946541  0.7293321210 -0.1922619525
H   0.7991272329  1.5806759377 -0.8240779899
O   0.8856537311  0.9708222895  1.1447669654
C   1.2504133308 -0.5808366723 -0.3707665145
H   0.7406244196 -0.0000611015  1.3020569042
H   0.9597654660 -1.2693334542 -1.1406131522
H   1.9626650975 -0.9402326116  0.3748266198
7
Iter 192 Image 4  Energy = -4187.1639763883
C   0.9982663755  0.8615115161 -0.0833938036
H   0.8347003707  1.5528198270 -0.9150370742
O   0.9069374402  1.2678436175  1.0670740955
C   1.1578657008 -0.6012428004 -0.1052344690
H   0.6990404440 -0.4622126415  0.9954835734
H   0.8939028445 -1.2353364564 -0.9740785259
H   2.1105306878 -0.8930165332  0.3091173778
7
Iter 192 Image 5  Energy = -4188.6419908425
C   0.9759242902  0.9093912962 -0.0068459590
H   0.7615294649  1.4034869080 -0.9707464803
O   1.0252774791  1.5743680041  1.0053720969
C   1.1710530306 -0.5784320445  0.0236773475
H   0.5533271339 -0.9332145065  0.8454094941
H   0.9131200192 -1.0847491783 -0.9072987341
H   2.2010120580 -0.8004844881  0.3043645365
7
Iter 192 Image 6  Energy = -4188.6742829552
C   0.8580022830  0.8918374242  0.0162789978
H   0.7472270882  1.3313345314 -0.9944614124
O   0.6890103766  1.5612758795  0.9973432277
C   1.2424092553 -0.5589125229  0.0524726214
H   0.7208451501 -1.0540604713  0.8668839980
H   1.0306744118 -1.0523422130 -0.8917116714
H   2.3130732190 -0.6287656304  0.2471329097
7
Iter 192 Image 7  Energy = -4188.6786866954
C   0.8155232029  0.8718464116 -0.0182938992
H   0.8691922107  1.3161414844 -1.0276282775
O   0.4197888248  1.5259273576  0.9226634365
C   1.2746059608 -0.5477443189  0.0876516737
H   0.8867748912 -1.0020331670  0.9933252454
H   0.9702960158 -1.1160238286 -0.7886890587
H   2.3650604537 -0.5577471771  0.1249097123
7
Iter 192 Image 8  Energy = -4188.6819968244
C   0.7840367852  0.8656586589 -0.0371164025
H   0.9809293880  1.3403901038 -1.0231241499
O   0.1875804579  1.4681235287  0.8223429327
C   1.3100769769 -0.5359012779  0.1153731248
H   1.0639489065 -0.9236344469  1.1059940899
H   0.8779311114 -1.1816924395 -0.6582837811
H   2.3967379442 -0.5425772870 -0.0312469938
7
Iter 193 Image 0  Energy = -4188.2527480593
C   0.8260657415  0.5508603911 -0.1261794589
H   0.4554445983  1.2417513435 -0.8784317668
O   0.5680753083  1.0246514429  1.1187434847
C   1.4411098584 -0.5873603774 -0.4363613732
H   0.9099091373  0.3932317500  1.7666320721
H   1.5916834696 -0.8592929697 -1.4741885892
H   1.8089534565 -1.2734747403  0.3237244514
7
Iter 193 Image 1  Energy = -4188.2282752416
C   0.8860335578  0.5833466669 -0.1483284932
H   0.5456372617  1.2697143412 -0.9093388312
O   0.7466299796  1.1056886301  1.0962059459
C   1.3743408812 -0.6172718548 -0.4158408899
H   0.8798182921  0.3813838288  1.7143968989
H   1.3497224531 -1.0201694208 -1.4133264723
H   1.8190607309 -1.2123262133  0.3701651577
7
Iter 193 Image 2  Energy = -4187.9834778479
C   0.9526196181  0.6431216380 -0.1714551599
H   0.6848105029  1.4211477404 -0.8724857445
O   0.8657384322  1.0622693612  1.1224565399
C   1.3163185042 -0.6038979335 -0.4196242990
H   0.7959251687  0.2185104022  1.5788839504
H   1.1572120891 -1.1410288790 -1.3355991025
H   1.8286193619 -1.1097560493  0.3917553788
7
Iter 193 Image 3  Energy = -4186.9645894787
C   1.0089136274  0.7350083553 -0.1918321658
H   0.8300462888  1.6114324583 -0.8074901162
O   0.8913958668  0.9665895667  1.1476498906
C   1.2225020423 -0.5872463106 -0.3727408383
H   0.7602125699 -0.0090667626  1.3003828699
H   0.9468580062 -1.2751744659 -1.1521226049
H   1.9413156312 -0.9511761518  0.3700835647
7
Iter 193 Image 4  Energy = -4187.1558442733
C   1.0069062024  0.8657017596 -0.0833331705
H   0.8689023899  1.5764937062 -0.9063810972
O   0.9135689650  1.2578653544  1.0688201136
C   1.1432081062 -0.6019317061 -0.1084515751
H   0.6962429519 -0.4663341013  0.9964849828
H   0.8788095831 -1.2382378621 -0.9736431668
H   2.0936057891 -0.9031903969  0.3004347718
7
Iter 193 Image 5  Energy = -4188.6504660568
C   0.9737112816  0.9138631885 -0.0022942948
H   0.8021350290  1.4107310322 -0.9782997991
O   1.0081532179  1.5780517229  1.0072087388
C   1.1625984461 -0.5782591205  0.0265143983
H   0.5668602300 -0.9553407176  0.8554397638
H   0.8874963827 -1.0828693621 -0.9010325642
H   2.2002888863 -0.7958106823  0.2863960416
7
Iter 193 Image 6  Energy = -4188.6742710194
C   0.8604337774  0.8927380395  0.0170466281
H   0.7497441746  1.3298842250 -0.9947118643
O   0.6977475163  1.5660523746  0.9965089010
C   1.2392645994 -0.5597665568  0.0534078919
H   0.7173485975 -1.0568388176  0.8666965728
H   1.0266911035 -1.0502469481 -0.8922622232
H   2.3100120573 -0.6314553469  0.2472525887
7
Iter 193 Image 7  Energy = -4188.6834051779
C   0.8140736844  0.8745717109 -0.0140139807
H   0.8703438519  1.3167747075 -1.0276996552
O   0.4205380864  1.5230580790  0.9191365572
C   1.2746411238 -0.5480140133  0.0873959200
H   0.8869360957 -1.0017717646  0.9935030855
H   0.9695778058 -1.1160085176 -0.7886210264
H   2.3651308995 -0.5582434392  0.1242379244
7
Iter 193 Image 8  Energy = -4188.6819968244
C   0.7840367852  0.8656586589 -0.0371164025
H   0.9809293880  1.3403901038 -1.0231241499
O   0.1875804579  1.4681235287  0.8223429327
C   1.3100769769 -0.5359012779  0.1153731248
H   1.0639489065 -0.9236344469  1.1059940899
H   0.8779311114 -1.1816924395 -0.6582837811
H   2.3967379442 -0.5425772870 -0.0312469938
7
Iter 194 Image 0  Energy = -4188.2527480593
C   0.8260657415  0.5508603911 -0.1261794589
H   0.4554445983  1.2417513435 -0.8784317668
O   0.5680753083  1.0246514429  1.1187434847
C   1.4411098584 -0.5873603774 -0.4363613732
H   0.9099091373  0.3932317500  1.7666320721
H   1.5916834696 -0.8592929697 -1.4741885892
H   1.8089534565 -1.2734747403  0.3237244514
7
Iter 194 Image 1  Energy = -4188.2292828134
C   0.8888383246  0.5831280483 -0.1485181265
H   0.5548981740  1.2718168725 -0.9092811331
O   0.7480761351  1.1085275354  1.0938858300
C   1.3710041668 -0.6215654444 -0.4156535089
H   0.8833667659  0.3893438583  1.7172285624
H   1.3420665004 -1.0224216369 -1.4138392811
H   1.8129931583 -1.2184632016  0.3701107313
7
Iter 194 Image 2  Energy = -4187.9859350196
C   0.9621864253  0.6520766452 -0.1690425033
H   0.7140727522  1.4397190317 -0.8631480684
O   0.8771710513  1.0587668972  1.1287243687
C   1.2966229788 -0.6097219470 -0.4224151258
H   0.8061344323  0.2112104945  1.5781254263
H   1.1458224210 -1.1352292435 -1.3448728563
H   1.7992337269 -1.1264554271  0.3865599951
7
Iter 194 Image 3  Energy = -4186.9394175208
C   1.0085918561  0.7399597069 -0.1936365305
H   0.8648159383  1.6442718661 -0.7925518503
O   0.9082429590  0.9560677643  1.1487177883
C   1.1955629982 -0.5884673274 -0.3782718396
H   0.7779737667 -0.0211998747  1.2998099970
H   0.9323373336 -1.2774115146 -1.1547202398
H   1.9137193012 -0.9628537140  0.3645829569
7
Iter 194 Image 4  Energy = -4187.1486455968
C   1.0133566346  0.8678240047 -0.0843850383
H   0.9025520760  1.6029931527 -0.8896505680
O   0.9225253398  1.2476090704  1.0686953243
C   1.1286318781 -0.6048708283 -0.1094627584
H   0.6938716391 -0.4738075555  0.9970128497
H   0.8670031097 -1.2295086857 -0.9803439819
H   2.0733034385 -0.9198721788  0.2920646736
7
Iter 194 Image 5  Energy = -4188.6555433443
C   0.9705234402  0.9196581145  0.0037117390
H   0.8473628868  1.4149164844 -0.9866958073
O   0.9871751902  1.5782672680  1.0092380499
C   1.1526555058 -0.5766337976  0.0303437494
H   0.5824590500 -0.9756665491  0.8666903755
H   0.8626712146 -1.0790878484 -0.8919360907
H   2.1983961754 -0.7910875320  0.2625802565
7
Iter 194 Image 6  Energy = -4188.6742755494
C   0.8633533246  0.8932700568  0.0171864462
H   0.7526229135  1.3283009772 -0.9949189732
O   0.7067764146  1.5714957966  0.9959535906
C   1.2358720934 -0.5607179892  0.0546094132
H   0.7136694125 -1.0601609416  0.8666967800
H   1.0221214289 -1.0476531171 -0.8928629130
H   2.3068262836 -0.6341678416  0.2472739640
7
Iter 194 Image 7  Energy = -4188.6830887070
C   0.8137144412  0.8757839312 -0.0121990976
H   0.8714839224  1.3173939395 -1.0274890060
O   0.4205547333  1.5217171102  0.9179127418
C   1.2745855874 -0.5481516895  0.0872107845
H   0.8869653114 -1.0016279113  0.9935792844
H   0.9688206233 -1.1159110075 -0.7886791630
H   2.3651169172 -0.5588376140  0.1236032623
7
Iter 194 Image 8  Energy = -4188.6819968244
C   0.7840367852  0.8656586589 -0.0371164025
H   0.9809293880  1.3403901038 -1.0231241499
O   0.1875804579  1.4681235287  0.8223429327
C   1.3100769769 -0.5359012779  0.1153731248
H   1.0639489065 -0.9236344469  1.1059940899
H   0.8779311114 -1.1816924395 -0.6582837811
H   2.3967379442 -0.5425772870 -0.0312469938
7
Iter 195 Image 0  Energy = -4188.2527480593
C   0.8260657415  0.5508603911 -0.1261794589
H   0.4554445983  1.2417513435 -0.8784317668
O   0.5680753083  1.0246514429  1.1187434847
C   1.4411098584 -0.5873603774 -0.4363613732
H   0.9099091373  0.3932317500  1.7666320721
H   1.5916834696 -0.8592929697 -1.4741885892
H   1.8089534565 -1.2734747403  0.3237244514
7
Iter 195 Image 1  Energy = -4188.2306951901
C   0.8925957512  0.5820985418 -0.1486413840
H   0.5663201933  1.2746481185 -0.9092568160
O   0.7508783275  1.1118732670  1.0914395432
C   1.3659969190 -0.6260705850 -0.4151219171
H   0.8883917441  0.3978740502  1.7200517878
H   1.3334142448 -1.0231336267 -1.4152139718
H   1.8036461266 -1.2269236617  0.3706755505
7
Iter 195 Image 2  Energy = -4187.9876449129
C   0.9722982224  0.6608300458 -0.1658182493
H   0.7483659895  1.4620440436 -0.8519029664
O   0.8935334731  1.0532430515  1.1359559160
C   1.2727693867 -0.6130570407 -0.4261434795
H   0.8208854588  0.2009351014  1.5764488542
H   1.1333595084 -1.1266812206 -1.3541287059
H   1.7600318937 -1.1469473172  0.3795194659
7
Iter 195 Image 3  Energy = -4186.9147875255
C   1.0026764973  0.7465226124 -0.1971549482
H   0.9068831266  1.6739252169 -0.7737830829
O   0.9381216484  0.9398839207  1.1489840969
C   1.1712668329 -0.5840087295 -0.3876282599
H   0.7942202867 -0.0358417374  1.2976820100
H   0.9119193711 -1.2757030806 -1.1503920938
H   1.8761565437 -0.9744110231  0.3562221720
7
Iter 195 Image 4  Energy = -4187.1385995245
C   1.0191745205  0.8667567255 -0.0843739700
H   0.9382869467  1.6327197689 -0.8654008332
O   0.9368338330  1.2399000879  1.0724090997
C   1.1108947914 -0.6084047681 -0.1119370107
H   0.6922506789 -0.4843728490  0.9949469321
H   0.8544320622 -1.2125649263 -0.9966752655
H   2.0493714249 -0.9436668128  0.2849611175
7
Iter 195 Image 5  Energy = -4188.6572886130
C   0.9692628770  0.9231579632  0.0081418499
H   0.8991449051  1.4149044324 -0.9928773663
O   0.9606790259  1.5788602083  1.0131016530
C   1.1412766959 -0.5741642903  0.0358509397
H   0.5994030874 -0.9943326627  0.8798298066
H   0.8366872005 -1.0721890485 -0.8810869043
H   2.1947896577 -0.7858703767  0.2309722755
7
Iter 195 Image 6  Energy = -4188.6739012322
C   0.8667859290  0.8937806940  0.0172310566
H   0.7560799186  1.3265767230 -0.9951878623
O   0.7166015577  1.5772321090  0.9952548285
C   1.2321264269 -0.5617040507  0.0560307432
H   0.7096806645 -1.0637310718  0.8667542498
H   1.0167099492 -1.0444944305 -0.8932755190
H   2.3032574769 -0.6372930615  0.2471305993
7
Iter 195 Image 7  Energy = -4188.6812880954
C   0.8133513809  0.8770471477 -0.0101645843
H   0.8729750508  1.3181502571 -1.0271924460
O   0.4204139085  1.5202492677  0.9165206797
C   1.2744874897 -0.5483101915  0.0869849760
H   0.8870924383 -1.0014647092  0.9936833311
H   0.9678833720 -1.1157886394 -0.7886422504
H   2.3650378798 -0.5595163803  0.1227490797
7
Iter 195 Image 8  Energy = -4188.6819968244
C   0.7840367852  0.8656586589 -0.0371164025
H   0.9809293880  1.3403901038 -1.0231241499
O   0.1875804579  1.4681235287  0.8223429327
C   1.3100769769 -0.5359012779  0.1153731248
H   1.0639489065 -0.9236344469  1.1059940899
H   0.8779311114 -1.1816924395 -0.6582837811
H   2.3967379442 -0.5425772870 -0.0312469938
7
Iter 196 Image 0  Energy = -4188.2527480593
C   0.8260657415  0.5508603911 -0.1261794589
H   0.4554445983  1.2417513435 -0.8784317668
O   0.5680753083  1.0246514429  1.1187434847
C   1.4411098584 -0.5873603774 -0.4363613732
H   0.9099091373  0.3932317500  1.7666320721
H   1.5916834696 -0.8592929697 -1.4741885892
H   1.8089534565 -1.2734747403  0.3237244514
7
Iter 196 Image 1  Energy = -4188.2318102738
C   0.8963615437  0.5844093039 -0.1480552988
H   0.5827924775  1.2775729401 -0.9097225900
O   0.7570685465  1.1163325836  1.0891554591
C   1.3589419429 -0.6345442424 -0.4146444795
H   0.8968305085  0.4086633834  1.7235678456
H   1.3227014684 -1.0217975806 -1.4170185315
H   1.7865469409 -1.2402701719  0.3706499637
7
Iter 196 Image 2  Energy = -4187.9936884066
C   0.9817260818  0.6683580036 -0.1626495457
H   0.7978292642  1.4911949898 -0.8338273806
O   0.9209258299  1.0436799014  1.1452833012
C   1.2444105147 -0.6115387013 -0.4331406024
H   0.8433467044  0.1866134290  1.5754091313
H   1.1131991256 -1.1138747006 -1.3662277301
H   1.6998066209 -1.1740659443  0.3690830643
7
Iter 196 Image 3  Energy = -4186.8728691956
C   1.0007721398  0.7474692578 -0.1947911986
H   0.9637438550  1.7005804321 -0.7435141194
O   0.9840654884  0.9210141184  1.1538877799
C   1.1431354775 -0.5665423682 -0.4048046870
H   0.8119524239 -0.0524018396  1.2867839590
H   0.8723891810 -1.2722798508 -1.1481811269
H   1.8251859678 -0.9874721478  0.3445486813
7
Iter 196 Image 4  Energy = -4187.1116168967
C   1.0271478617  0.8760693007 -0.0669911812
H   0.9855266182  1.6632350462 -0.8314991217
O   0.9669315137  1.2286385576  1.0769070393
C   1.0886411437 -0.6125334693 -0.1246853657
H   0.6894237297 -0.4975624629  0.9878938998
H   0.8307763507 -1.1927078884 -1.0245265582
H   2.0127972501 -0.9747715423  0.2768307442
7
Iter 196 Image 5  Energy = -4188.6480262151
C   0.9740977446  0.9277859894  0.0214583453
H   0.9665215768  1.4085852292 -0.9928775033
O   0.9223904401  1.5794852190  1.0090087429
C   1.1279809069 -0.5735253446  0.0433941251
H   0.6181476108 -1.0133651229  0.8976303938
H   0.8022168698 -1.0596179796 -0.8698280370
H   2.1898882882 -0.7789816412  0.1851461368
7
Iter 196 Image 6  Energy = -4188.6731705985
C   0.8707871964  0.8958114881  0.0195388410
H   0.7607735012  1.3245481024 -0.9958924957
O   0.7292566238  1.5823480863  0.9924834806
C   1.2275711525 -0.5627202022  0.0576073156
H   0.7047136475 -1.0671945568  0.8666591981
H   1.0095200815 -1.0405070745 -0.8931953554
H   2.2986197784 -0.6419189799  0.2467368470
7
Iter 196 Image 7  Energy = -4188.6816702655
C   0.8161914655  0.8735308548 -0.0156998047
H   0.8752563677  1.3190572811 -1.0258803821
O   0.4171452932  1.5232535163  0.9218477916
C   1.2741910474 -0.5481005106  0.0871196035
H   0.8873904838 -1.0014001217  0.9937229682
H   0.9663474932 -1.1154894185 -0.7885660293
H   2.3647193488 -0.5604848579  0.1213946120
7
Iter 196 Image 8  Energy = -4188.6819968244
C   0.7840367852  0.8656586589 -0.0371164025
H   0.9809293880  1.3403901038 -1.0231241499
O   0.1875804579  1.4681235287  0.8223429327
C   1.3100769769 -0.5359012779  0.1153731248
H   1.0639489065 -0.9236344469  1.1059940899
H   0.8779311114 -1.1816924395 -0.6582837811
H   2.3967379442 -0.5425772870 -0.0312469938
7
Iter 197 Image 0  Energy = -4188.2527480593
C   0.8260657415  0.5508603911 -0.1261794589
H   0.4554445983  1.2417513435 -0.8784317668
O   0.5680753083  1.0246514429  1.1187434847
C   1.4411098584 -0.5873603774 -0.4363613732
H   0.9099091373  0.3932317500  1.7666320721
H   1.5916834696 -0.8592929697 -1.4741885892
H   1.8089534565 -1.2734747403  0.3237244514
7
Iter 197 Image 1  Energy = -4188.2343870571
C   0.8987249740  0.5826623870 -0.1477920743
H   0.5886012258  1.2788973502 -0.9104801006
O   0.7600550006  1.1183870545  1.0889197259
C   1.3548938177 -0.6348134861 -0.4139704502
H   0.9005174527  0.4117226436  1.7245791450
H   1.3195211410 -1.0203729277 -1.4182321663
H   1.7789298613 -1.2461167634  0.3709081323
7
Iter 197 Image 2  Energy = -4187.9980499318
C   0.9844155302  0.6685020875 -0.1610790299
H   0.8154459785  1.5011914487 -0.8269870141
O   0.9324328391  1.0396877470  1.1482958627
C   1.2351300590 -0.6079433269 -0.4367803364
H   0.8524413367  0.1811074939  1.5753611029
H   1.1052482031 -1.1088092435 -1.3700704851
H   1.6761302755 -1.1833691096  0.3651899141
7
Iter 197 Image 3  Energy = -4186.8640454879
C   1.0004283691  0.7530793335 -0.1926875546
H   0.9832781569  1.7020135075 -0.7309523768
O   1.0039183162  0.9136762508  1.1569948646
C   1.1378106108 -0.5626321949 -0.4141508217
H   0.8154931285 -0.0569281653  1.2812161448
H   0.8543055203 -1.2682650092 -1.1457644461
H   1.8060105201 -0.9905759583  0.3392732457
7
Iter 197 Image 4  Energy = -4187.1269658452
C   1.0308466492  0.8753588190 -0.0672984526
H   1.0004137963  1.6704895255 -0.8184247761
O   0.9808091669  1.2303037277  1.0908094621
C   1.0804216245 -0.6114040806 -0.1303769494
H   0.6883192770 -0.5033937955  0.9818491827
H   0.8203978044 -1.1848862678 -1.0373823938
H   2.0000362232 -0.9861002845  0.2747531619
7
Iter 197 Image 5  Energy = -4188.6636187902
C   0.9782318539  0.9233928361  0.0188793250
H   0.9885526315  1.4031333619 -0.9889171921
O   0.9077727598  1.5845585718  1.0131991854
C   1.1242419970 -0.5736387162  0.0465768980
H   0.6231282578 -1.0162880467  0.9035290939
H   0.7913714251 -1.0536478886 -0.8669944591
H   2.1879445100 -0.7771437266  0.1676593291
7
Iter 197 Image 6  Energy = -4188.6731846502
C   0.8723491246  0.8953343364  0.0184509685
H   0.7624177418  1.3239711553 -0.9960387813
O   0.7329310468  1.5846207603  0.9932189251
C   1.2262088508 -0.5628130715  0.0581428850
H   0.7031663016 -1.0678269642  0.8666146850
H   1.0070236440 -1.0392416397 -0.8929599149
H   2.2971452905 -0.6436777299  0.2465089776
7
Iter 197 Image 7  Energy = -4188.6835410318
C   0.8153540207  0.8750230847 -0.0132431716
H   0.8762865381  1.3195031624 -1.0256957080
O   0.4174258686  1.5215940950  0.9196689430
C   1.2741425750 -0.5482226635  0.0869936353
H   0.8876362266 -1.0012689594  0.9938264500
H   0.9657732046 -1.1154647557 -0.7883741212
H   2.3646230576 -0.5607972235  0.1207627243
7
Iter 197 Image 8  Energy = -4188.6819968244
C   0.7840367852  0.8656586589 -0.0371164025
H   0.9809293880  1.3403901038 -1.0231241499
O   0.1875804579  1.4681235287  0.8223429327
C   1.3100769769 -0.5359012779  0.1153731248
H   1.0639489065 -0.9236344469  1.1059940899
H   0.8779311114 -1.1816924395 -0.6582837811
H   2.3967379442 -0.5425772870 -0.0312469938
7
Iter 198 Image 0  Energy = -4188.2527480593
C   0.8260657415  0.5508603911 -0.1261794589
H   0.4554445983  1.2417513435 -0.8784317668
O   0.5680753083  1.0246514429  1.1187434847
C   1.4411098584 -0.5873603774 -0.4363613732
H   0.9099091373  0.3932317500  1.7666320721
H   1.5916834696 -0.8592929697 -1.4741885892
H   1.8089534565 -1.2734747403  0.3237244514
7
Iter 198 Image 1  Energy = -4188.2371006331
C   0.9019485357  0.5814214448 -0.1469411949
H   0.5980287463  1.2803025372 -0.9122229635
O   0.7657705419  1.1219208069  1.0891455037
C   1.3482970094 -0.6356791160 -0.4130492865
H   0.9071063072  0.4164354643  1.7263693342
H   1.3150957250 -1.0178646290 -1.4197816128
H   1.7649966848 -1.2561701727  0.3704121534
7
Iter 198 Image 2  Energy = -4188.0016200861
C   0.9880362495  0.6669378977 -0.1583770167
H   0.8454356225  1.5161416329 -0.8145580985
O   0.9523299727  1.0328843110  1.1528234250
C   1.2230306154 -0.6009685059 -0.4445761339
H   0.8667048553  0.1733005035  1.5768416634
H   1.0888559000 -1.1011634967 -1.3772970104
H   1.6368511410 -1.1967650409  0.3590727977
7
Iter 198 Image 3  Energy = -4186.8496238759
C   1.0088642099  0.7600607699 -0.1841026143
H   1.0131161851  1.7002267660 -0.7080937675
O   1.0320324019  0.9061388391  1.1664263153
C   1.1292180263 -0.5558396011 -0.4289966604
H   0.8212329489 -0.0611527216  1.2687694035
H   0.8181751245 -1.2637088282 -1.1506855677
H   1.7786058744 -0.9953571810  0.3306115362
7
Iter 198 Image 4  Energy = -4187.1379709190
C   1.0399803286  0.8787178849 -0.0567952125
H   1.0256433499  1.6771494107 -0.8014807502
O   1.0081760169  1.2301465466  1.1120891599
C   1.0670865880 -0.6058286905 -0.1453229029
H   0.6849278976 -0.5105010176  0.9697594520
H   0.7971654508 -1.1792804112 -1.0546868432
H   1.9782650458 -1.0000358997  0.2703659638
7
Iter 198 Image 5  Energy = -4188.6683158895
C   0.9866376055  0.9173710067  0.0201222284
H   1.0228039151  1.3933939525 -0.9792751550
O   0.8844084473  1.5932705588  1.0140597612
C   1.1199770696 -0.5757969251  0.0509584256
H   0.6290630222 -1.0196120334  0.9128926412
H   0.7722229561 -1.0435036252 -0.8651680185
H   2.1861304220 -0.7747564727  0.1403422440
7
Iter 198 Image 6  Energy = -4188.6729817411
C   0.8743511494  0.8958693332  0.0186954292
H   0.7649495269  1.3232536599 -0.9964957755
O   0.7388853913  1.5865184288  0.9928711995
C   1.2242676532 -0.5628543816  0.0586674296
H   0.7007292001 -1.0679059790  0.8664230731
H   1.0031804989 -1.0376396433 -0.8923611316
H   2.2948786078 -0.6468746020  0.2461373835
7
Iter 198 Image 7  Energy = -4188.6836370847
C   0.8154002937  0.8752628596 -0.0127348418
H   0.8780115077  1.3201738958 -1.0249833466
O   0.4167534549  1.5209940836  0.9191877480
C   1.2739666105 -0.5482128352  0.0869378372
H   0.8879814593 -1.0011655473  0.9939236828
H   0.9647431827 -1.1153312073 -0.7881201458
H   2.3643849704 -0.5613545134  0.1197278057
7
Iter 198 Image 8  Energy = -4188.6819968244
C   0.7840367852  0.8656586589 -0.0371164025
H   0.9809293880  1.3403901038 -1.0231241499
O   0.1875804579  1.4681235287  0.8223429327
C   1.3100769769 -0.5359012779  0.1153731248
H   1.0639489065 -0.9236344469  1.1059940899
H   0.8779311114 -1.1816924395 -0.6582837811
H   2.3967379442 -0.5425772870 -0.0312469938
7
Iter 199 Image 0  Energy = -4188.2527480593
C   0.8260657415  0.5508603911 -0.1261794589
H   0.4554445983  1.2417513435 -0.8784317668
O   0.5680753083  1.0246514429  1.1187434847
C   1.4411098584 -0.5873603774 -0.4363613732
H   0.9099091373  0.3932317500  1.7666320721
H   1.5916834696 -0.8592929697 -1.4741885892
H   1.8089534565 -1.2734747403  0.3237244514
7
Iter 199 Image 1  Energy = -4188.2403676233
C   0.9059879677  0.5818684367 -0.1454956578
H   0.6117974033  1.2819030332 -0.9143805954
O   0.7741633381  1.1267986780  1.0893483501
C   1.3394387765 -0.6388628289 -0.4120888123
H   0.9168674752  0.4235294056  1.7290875208
H   1.3088592773 -1.0142480196 -1.4216937542
H   1.7441294254 -1.2706222603  0.3691544740
7
Iter 199 Image 2  Energy = -4188.0051533750
C   0.9963473773  0.6713713023 -0.1535164519
H   0.8888150964  1.5364052398 -0.7958632716
O   0.9804636689  1.0232456655  1.1606003328
C   1.2051574121 -0.5974956441 -0.4569533548
H   0.8869873498  0.1624432712  1.5799492888
H   1.0630448220 -1.0903990888 -1.3900079676
H   1.5804288278 -1.2152031381  0.3497204902
7
Iter 199 Image 3  Energy = -4186.8196700758
C   1.0270619236  0.7661893399 -0.1701920321
H   1.0545328383  1.7050678947 -0.6785006006
O   1.0697686963  0.8957167797  1.1819448755
C   1.1135968105 -0.5474898595 -0.4487832266
H   0.8305852174 -0.0675716708  1.2530437701
H   0.7635952881 -1.2568226274 -1.1616987692
H   1.7421042186 -1.0047214126  0.3181140309
7
Iter 199 Image 4  Energy = -4187.1502189359
C   1.0569574124  0.8831685239 -0.0390140725
H   1.0628042444  1.6864279409 -0.7784686096
O   1.0490965872  1.2247415304  1.1388821615
C   1.0483233521 -0.5957566014 -0.1659199917
H   0.6777665697 -0.5200768604  0.9512769379
H   0.7607369532 -1.1705867906 -1.0739044624
H   1.9455597601 -1.0175496455  0.2610763542
7
Iter 199 Image 5  Energy = -4188.6653755775
C   0.9945466882  0.9122782437  0.0274570344
H   1.0740318544  1.3805715264 -0.9681762478
O   0.8514872528  1.6030463951  1.0124792828
C   1.1141666459 -0.5788711106  0.0561427044
H   0.6386248610 -1.0247339682  0.9265375466
H   0.7431657673 -1.0291195597 -0.8620201857
H   2.1852203707 -0.7728049563  0.1015119214
7
Iter 199 Image 6  Energy = -4188.6726042649
C   0.8773907628  0.8965525921  0.0187224792
H   0.7685952773  1.3223333243 -0.9970827972
O   0.7476638982  1.5895475694  0.9927374369
C   1.2214347421 -0.5629946367  0.0593416715
H   0.6969524303 -1.0677836013  0.8663062123
H   0.9975098391 -1.0355976433 -0.8917224638
H   2.2916951189 -0.6516908323  0.2456348693
7
Iter 199 Image 7  Energy = -4188.6835595688
C   0.8153962822  0.8757961449 -0.0116962209
H   0.8805152944  1.3211841685 -1.0240591077
O   0.4159180534  1.5199988384  0.9183664393
C   1.2736909407 -0.5482420138  0.0867871200
H   0.8883991993 -1.0010530547  0.9941058488
H   0.9632320844 -1.1151393528 -0.7878221909
H   2.3640896051 -0.5621779954  0.1182568386
7
Iter 199 Image 8  Energy = -4188.6819968244
C   0.7840367852  0.8656586589 -0.0371164025
H   0.9809293880  1.3403901038 -1.0231241499
O   0.1875804579  1.4681235287  0.8223429327
C   1.3100769769 -0.5359012779  0.1153731248
H   1.0639489065 -0.9236344469  1.1059940899
H   0.8779311114 -1.1816924395 -0.6582837811
H   2.3967379442 -0.5425772870 -0.0312469938
