7
Image 0  Energy = -4188.25274806
C   0.8260657415  0.5508603911 -0.1261794589
H   0.4554445983  1.2417513435 -0.8784317668
O   0.5680753083  1.0246514429  1.1187434847
C   1.4411098584 -0.5873603774 -0.4363613732
H   0.9099091373  0.3932317500  1.7666320721
H   1.5916834696 -0.8592929697 -1.4741885892
H   1.8089534565 -1.2734747403  0.3237244514
7
Image 1  Energy = -4188.24036762
C   0.9059879677  0.5818684367 -0.1454956578
H   0.6117974033  1.2819030332 -0.9143805954
O   0.7741633381  1.1267986780  1.0893483501
C   1.3394387765 -0.6388628289 -0.4120888123
H   0.9168674752  0.4235294056  1.7290875208
H   1.3088592773 -1.0142480196 -1.4216937542
H   1.7441294254 -1.2706222603  0.3691544740
7
Image 2  Energy = -4188.00515337
C   0.9963473773  0.6713713023 -0.1535164519
H   0.8888150964  1.5364052398 -0.7958632716
O   0.9804636689  1.0232456655  1.1606003328
C   1.2051574121 -0.5974956441 -0.4569533548
H   0.8869873498  0.1624432712  1.5799492888
H   1.0630448220 -1.0903990888 -1.3900079676
H   1.5804288278 -1.2152031381  0.3497204902
7
Image 3  Energy = -4186.81967008
C   1.0270619236  0.7661893399 -0.1701920321
H   1.0545328383  1.7050678947 -0.6785006006
O   1.0697686963  0.8957167797  1.1819448755
C   1.1135968105 -0.5474898595 -0.4487832266
H   0.8305852174 -0.0675716708  1.2530437701
H   0.7635952881 -1.2568226274 -1.1616987692
H   1.7421042186 -1.0047214126  0.3181140309
7
Image 4  Energy = -4187.15021894
C   1.0569574124  0.8831685239 -0.0390140725
H   1.0628042444  1.6864279409 -0.7784686096
O   1.0490965872  1.2247415304  1.1388821615
C   1.0483233521 -0.5957566014 -0.1659199917
H   0.6777665697 -0.5200768604  0.9512769379
H   0.7607369532 -1.1705867906 -1.0739044624
H   1.9455597601 -1.0175496455  0.2610763542
7
Image 5  Energy = -4188.66537558
C   0.9945466882  0.9122782437  0.0274570344
H   1.0740318544  1.3805715264 -0.9681762478
O   0.8514872528  1.6030463951  1.0124792828
C   1.1141666459 -0.5788711106  0.0561427044
H   0.6386248610 -1.0247339682  0.9265375466
H   0.7431657673 -1.0291195597 -0.8620201857
H   2.1852203707 -0.7728049563  0.1015119214
7
Image 6  Energy = -4188.67260426
C   0.8773907628  0.8965525921  0.0187224792
H   0.7685952773  1.3223333243 -0.9970827972
O   0.7476638982  1.5895475694  0.9927374369
C   1.2214347421 -0.5629946367  0.0593416715
H   0.6969524303 -1.0677836013  0.8663062123
H   0.9975098391 -1.0355976433 -0.8917224638
H   2.2916951189 -0.6516908323  0.2456348693
7
Image 7  Energy = -4188.68355957
C   0.8153962822  0.8757961449 -0.0116962209
H   0.8805152944  1.3211841685 -1.0240591077
O   0.4159180534  1.5199988384  0.9183664393
C   1.2736909407 -0.5482420138  0.0867871200
H   0.8883991993 -1.0010530547  0.9941058488
H   0.9632320844 -1.1151393528 -0.7878221909
H   2.3640896051 -0.5621779954  0.1182568386
7
Image 8  Energy = -4188.68199682
C   0.7840367852  0.8656586589 -0.0371164025
H   0.9809293880  1.3403901038 -1.0231241499
O   0.1875804579  1.4681235287  0.8223429327
C   1.3100769769 -0.5359012779  0.1153731248
H   1.0639489065 -0.9236344469  1.1059940899
H   0.8779311114 -1.1816924395 -0.6582837811
H   2.3967379442 -0.5425772870 -0.0312469938
