84
Frame 1: 1
C   47.0460   45.9990   44.1650
O   44.3270   43.8910   45.4550
C   47.8680   45.0690   43.5200
O   48.1690   42.8040   42.7530
C   45.8010   45.6890   44.7100
O   50.0810   52.2570   42.3260
C   47.3590   43.7510   43.4490
O   48.6990   47.7830   43.7040
C   45.4170   44.3330   44.7090
O   47.3760   35.0080   48.2000
C   46.0980   43.3060   43.9620
O   43.9980   38.3610   48.1930
C   45.5690   41.9960   43.8350
O   48.2650   40.8840   44.8070
C   44.1130   41.7570   43.7460
O   50.1910   39.7650   46.0630
C   43.5490   40.5600   43.8860
O   49.5760   38.5970   50.6030
C   44.3660   39.4220   44.1790
C   42.0740   40.4000   43.8690
C   47.4920   49.5970   44.1220
C   48.7120   49.1130   43.5960
C   49.6620   49.9580   43.1180
C   49.3230   51.3300   43.0680
C   48.1800   51.9050   43.5890
C   47.2980   50.9930   44.2140
C   46.6540   48.5290   44.4780
C   47.3820   47.3910   44.1200
C   45.8110   36.8220   48.2170
C   46.7180   36.0850   47.5380
C   47.0030   36.4030   46.1790
C   46.4810   37.6440   45.7190
C   45.4760   38.3760   46.2960
C   45.0190   37.7820   47.4940
C   45.0370   39.6730   45.7470
C   45.9920   40.8950   45.6540
C   47.4480   40.7380   45.7390
C   48.0770   40.3810   47.0540
C   47.3400   40.5210   48.2820
C   49.3630   39.8320   47.1770
C   47.8310   39.9520   49.4490
C   49.9210   39.3080   48.3880
C   49.0770   39.2960   49.4890
C   51.4330   38.8870   48.5200
C   52.3980   39.9870   48.6540
C   52.9370   40.4370   49.8420
C   53.8660   41.6840   49.7960
C   52.8080   39.8430   51.2180
H   48.7590   45.4160   43.0050
H   45.1200   46.4360   45.1070
H   44.0500   44.5720   46.0910
H   48.8560   42.5820   43.4050
H   46.3030   41.3940   43.2850
H   43.5530   42.5640   43.2770
H   43.7800   38.4940   44.2280
H   45.2200   39.3160   43.4980
H   41.7120   41.2750   44.4210
H   41.7200   39.4210   44.2140
H   41.7120   40.6420   42.8630
H   50.5400   49.5310   42.6430
H   48.0890   52.9780   43.7360
H   46.4120   51.4040   44.6880
H   45.6130   48.6130   44.7660
H   50.6780   51.7800   41.7240
H   45.8040   36.7790   49.3020
H   47.6380   35.7900   45.5450
H   46.9410   38.0510   44.8240
H   48.2220   34.8350   47.7530
H   43.7170   37.7920   48.9300
H   44.2830   39.9120   46.5090
H   45.6050   41.8510   46.0310
H   46.4470   41.1380   48.3280
H   47.2390   39.9900   50.3590
H   49.8720   40.4450   45.4450
H   49.1360   38.8950   51.4180
H   51.4910   38.0150   49.1810
H   51.6170   38.5480   47.4940
H   52.5660   40.5930   47.7660
H   54.0020   42.1210   50.7920
H   53.5360   42.5010   49.1440
H   54.8660   41.3680   49.4770
H   52.5120   38.7880   51.2360
H   52.0970   40.4310   51.8100
H   53.6720   39.9810   51.8790
84
Frame 2: 2
C   47.0450   46.0063   44.1637
O   44.3266   43.8915   45.4551
C   47.8638   45.0646   43.5209
O   48.1680   42.8053   42.7536
C   45.7985   45.6818   44.7111
O   50.0827   52.2555   42.3262
C   47.3629   43.7494   43.4454
O   48.7008   47.7753   43.7018
C   45.4161   44.3319   44.7091
O   47.3747   35.0106   48.1987
C   46.0998   43.3154   43.9639
O   43.9951   38.3631   48.1921
C   45.5682   41.9948   43.8323
O   48.2642   40.8858   44.8020
C   44.1201   41.7626   43.7412
O   50.1916   39.7655   46.0656
C   43.5455   40.5565   43.8864
O   49.5749   38.5983   50.6036
C   44.3710   39.4191   44.1870
C   42.0728   40.4048   43.8668
C   47.4884   49.6048   44.1244
C   48.7103   49.1209   43.5986
C   49.6639   49.9584   43.1149
C   49.3266   51.3341   43.0617
C   48.1766   51.8989   43.5974
C   47.2954   50.9963   44.2126
C   46.6561   48.5265   44.4750
C   47.3809   47.3884   44.1234
C   45.8062   36.8256   48.2171
C   46.7228   36.0797   47.5352
C   47.0016   36.4072   46.1802
C   46.4884   37.6384   45.7119
C   45.4794   38.3704   46.3002
C   45.0231   37.7833   47.5016
C   45.0343   39.6736   45.7442
C   45.9935   40.8944   45.6528
C   47.4508   40.7377   45.7435
C   48.0704   40.3808   47.0608
C   47.3421   40.5196   48.2811
C   49.3714   39.8295   47.1749
C   47.8299   39.9513   49.4516
C   49.9183   39.3107   48.3847
C   49.0811   39.2945   49.4897
C   51.4241   38.8844   48.5128
C   52.4016   39.9917   48.6619
C   52.9413   40.4413   49.8405
C   53.8649   41.6814   49.7963
C   52.8056   39.8429   51.2188
H   48.7620   45.4010   43.0109
H   45.1301   46.4358   45.1092
H   44.0476   44.5781   46.0900
H   48.8610   42.5668   43.3996
H   46.2868   41.3750   43.2903
H   43.5450   42.5766   43.3014
H   43.7894   38.4978   44.2282
H   45.2231   39.3150   43.5146
H   41.6852   41.2564   44.4390
H   41.7178   39.4318   44.2160
H   41.7032   40.6250   42.8573
H   50.5525   49.5401   42.6468
H   48.0888   52.9753   43.7155
H   46.4072   51.3974   44.6935
H   45.6197   48.6119   44.7728
H   50.6879   51.7811   41.7236
H   45.7915   36.7677   49.3026
H   47.6361   35.7911   45.5482
H   46.9379   38.0498   44.8113
H   48.2221   34.8277   47.7490
H   43.7119   37.7922   48.9345
H   44.2537   39.9312   46.4781
H   45.6051   41.8223   46.0650
H   46.4440   41.1296   48.3228
H   47.2344   39.9924   50.3597
H   49.8535   40.4328   45.4230
H   49.1251   38.8931   51.4167
H   51.4975   38.0347   49.1997
H   51.6187   38.5280   47.4912
H   52.5663   40.5897   47.7651
H   53.9941   42.1144   50.7936
H   53.5273   42.4874   49.1355
H   54.8655   41.3702   49.4703
H   52.5089   38.7898   51.2298
H   52.0795   40.4264   51.8007
H   53.6908   39.9728   51.8545
84
Frame 3: 3
C   47.0387   46.0156   44.1601
O   44.3242   43.8926   45.4563
C   47.8545   45.0563   43.5232
O   48.1662   42.8071   42.7529
C   45.7946   45.6689   44.7139
O   50.0892   52.2530   42.3251
C   47.3700   43.7454   43.4388
O   48.7056   47.7610   43.6951
C   45.4138   44.3285   44.7099
O   47.3722   35.0170   48.1949
C   46.1046   43.3301   43.9661
O   43.9863   38.3690   48.1900
C   45.5678   41.9955   43.8278
O   48.2610   40.8902   44.7909
C   44.1331   41.7704   43.7309
O   50.1934   39.7684   46.0699
C   43.5424   40.5539   43.8859
O   49.5721   38.6024   50.6057
C   44.3815   39.4155   44.2074
C   42.0678   40.4145   43.8621
C   47.4808   49.6180   44.1301
C   48.7083   49.1364   43.6049
C   49.6678   49.9623   43.1064
C   49.3321   51.3416   43.0482
C   48.1739   51.8873   43.6145
C   47.2840   51.0044   44.2125
C   46.6610   48.5233   44.4681
C   47.3802   47.3841   44.1312
C   45.7983   36.8280   48.2178
C   46.7289   36.0734   47.5312
C   47.0035   36.4132   46.1815
C   46.5017   37.6285   45.6952
C   45.4902   38.3585   46.3083
C   45.0347   37.7909   47.5200
C   45.0277   39.6708   45.7379
C   45.9983   40.8908   45.6504
C   47.4583   40.7377   45.7526
C   48.0620   40.3780   47.0725
C   47.3453   40.5145   48.2828
C   49.3855   39.8261   47.1705
C   47.8292   39.9486   49.4588
C   49.9145   39.3159   48.3768
C   49.0876   39.2934   49.4912
C   51.4063   38.8822   48.4978
C   52.4046   40.0003   48.6753
C   52.9508   40.4490   49.8403
C   53.8626   41.6757   49.7956
C   52.7998   39.8425   51.2173
H   48.7710   45.3680   43.0287
H   45.1441   46.4310   45.1233
H   44.0429   44.5870   46.0831
H   48.8530   42.5271   43.3909
H   46.2695   41.3427   43.3058
H   43.5306   42.6042   43.3669
H   43.8046   38.4940   44.2333
H   45.2395   39.3137   43.5455
H   41.6408   41.2276   44.4624
H   41.7178   39.4420   44.2168
H   41.6879   40.6007   42.8490
H   50.5761   49.5566   42.6620
H   48.0787   52.9678   43.6744
H   46.3948   51.3922   44.7026
H   45.6333   48.6052   44.7919
H   50.7113   51.7852   41.7320
H   45.7548   36.7303   49.3009
H   47.6368   35.7909   45.5540
H   46.9287   38.0360   44.7809
H   48.2113   34.8066   47.7373
H   43.7008   37.8026   48.9371
H   44.2067   39.9609   46.4175
H   45.6065   41.7745   46.1424
H   46.4345   41.1071   48.3149
H   47.2278   39.9956   50.3628
H   49.7941   40.3764   45.3860
H   49.0955   38.8819   51.4106
H   51.4905   38.0767   49.2364
H   51.6216   38.4869   47.4945
H   52.5731   40.5854   47.7689
H   53.9802   42.1089   50.7933
H   53.5084   42.4611   49.1196
H   54.8639   41.3765   49.4588
H   52.5015   38.7902   51.2124
H   52.0564   40.4143   51.7886
H   53.7137   39.9544   51.8141
84
Frame 4: 4
C   47.0194   46.0191   44.1517
O   44.3149   43.8908   45.4624
C   47.8371   45.0473   43.5262
O   48.1632   42.8155   42.7318
C   45.7886   45.6517   44.7268
O   50.1106   52.2526   42.3214
C   47.3766   43.7382   43.4292
O   48.7107   47.7485   43.6748
C   45.4097   44.3177   44.7166
O   47.3675   35.0299   48.1861
C   46.1157   43.3343   43.9752
O   43.9710   38.3946   48.1745
C   45.5754   41.9963   43.8269
O   48.2571   40.8921   44.7748
C   44.1540   41.7753   43.7176
O   50.1889   39.7821   46.0685
C   43.5484   40.5563   43.8849
O   49.5687   38.6188   50.6141
C   44.3963   39.4129   44.2491
C   42.0628   40.4307   43.8463
C   47.4708   49.6343   44.1430
C   48.7093   49.1586   43.6159
C   49.6688   49.9742   43.0887
C   49.3351   51.3520   43.0267
C   48.1765   51.8782   43.6366
C   47.2567   51.0201   44.2153
C   46.6706   48.5207   44.4626
C   47.3872   47.3791   44.1411
C   45.7799   36.8152   48.2211
C   46.7328   36.0767   47.5248
C   47.0262   36.4184   46.1813
C   46.5143   37.6060   45.6619
C   45.5227   38.3453   46.3210
C   45.0677   37.8243   47.5555
C   45.0277   39.6553   45.7373
C   46.0114   40.8799   45.6559
C   47.4701   40.7346   45.7689
C   48.0563   40.3679   47.0847
C   47.3436   40.4890   48.2960
C   49.3997   39.8271   47.1638
C   47.8312   39.9408   49.4775
C   49.9104   39.3273   48.3670
C   49.0956   39.3000   49.4959
C   51.3805   38.8889   48.4812
C   52.3943   40.0144   48.6877
C   52.9608   40.4540   49.8408
C   53.8604   41.6685   49.7882
C   52.7832   39.8335   51.2052
H   48.7857   45.3267   43.0735
H   45.1568   46.4080   45.1766
H   44.0287   44.5968   46.0743
H   48.6543   42.2592   43.4562
H   46.2667   41.3071   43.3386
H   43.5228   42.6306   43.4614
H   43.8216   38.4896   44.2626
H   45.2558   39.3044   43.5890
H   41.5969   41.2032   44.4733
H   41.7240   39.4474   44.1860
H   41.6840   40.6045   42.8309
H   50.6044   49.5774   42.6915
H   48.0576   52.9584   43.6309
H   46.3638   51.4058   44.7004
H   45.6583   48.5878   44.8349
H   50.7805   51.7857   41.7769
H   45.6461   36.5945   49.2875
H   47.6698   35.7897   45.5699
H   46.8876   37.9744   44.7049
H   48.1593   34.7370   47.6811
H   43.6833   37.8530   48.9387
H   44.1907   39.9549   46.3901
H   45.6198   41.7193   46.2208
H   46.4061   41.0396   48.3202
H   47.2326   39.9977   50.3828
H   49.6350   40.2419   45.3280
H   49.0220   38.8324   51.4001
H   51.4508   38.1416   49.2811
H   51.6240   38.4377   47.5098
H   52.5819   40.5881   47.7770
H   53.9678   42.1140   50.7812
H   53.4844   42.4301   49.0959
H   54.8637   41.3871   49.4412
H   52.4693   38.7849   51.1663
H   52.0344   40.3954   51.7794
H   53.7154   39.9062   51.7797
84
Frame 5: 5
C   47.0085   46.0148   44.1513
O   44.3035   43.8798   45.4756
C   47.8196   45.0399   43.5153
O   48.1414   42.8067   42.7123
C   45.7986   45.6336   44.7689
O   50.1521   52.2596   42.3412
C   47.3719   43.7281   43.4207
O   48.6911   47.7524   43.6280
C   45.4133   44.3014   44.7446
O   47.3559   35.0284   48.1789
C   46.1242   43.3240   43.9953
O   43.9932   38.4592   48.1501
C   45.5872   41.9906   43.8364
O   48.2366   40.8804   44.7645
C   44.1756   41.7738   43.7296
O   50.1861   39.8071   46.0646
C   43.5658   40.5536   43.8900
O   49.5873   38.6647   50.6377
C   44.4045   39.4051   44.2898
C   42.0755   40.4493   43.7856
C   47.4668   49.6448   44.1550
C   48.7004   49.1712   43.6032
C   49.6587   49.9821   43.0625
C   49.3422   51.3627   43.0146
C   48.1815   51.8842   43.6354
C   47.2452   51.0342   44.2084
C   46.6828   48.5194   44.4834
C   47.3894   47.3760   44.1394
C   45.7405   36.7823   48.2108
C   46.7326   36.0787   47.5210
C   47.0838   36.4355   46.1934
C   46.5391   37.5910   45.6443
C   45.5607   38.3342   46.3261
C   45.0981   37.8513   47.5701
C   45.0405   39.6381   45.7569
C   46.0175   40.8652   45.6874
C   47.4678   40.7281   45.7812
C   48.0472   40.3509   47.0935
C   47.3190   40.4290   48.3047
C   49.3959   39.8409   47.1634
C   47.8194   39.9145   49.4933
C   49.9014   39.3455   48.3674
C   49.0989   39.3146   49.5083
C   51.3603   38.9046   48.4707
C   52.3642   40.0390   48.6762
C   52.9523   40.4520   49.8262
C   53.8618   41.6548   49.7729
C   52.7468   39.8107   51.1760
H   48.7705   45.3203   43.0701
H   45.1888   46.3783   45.2685
H   44.0212   44.5840   46.0908
H   48.5430   42.2065   43.3723
H   46.2695   41.2726   43.3790
H   43.5397   42.6345   43.5252
H   43.8213   38.4861   44.3078
H   45.2605   39.2767   43.6264
H   41.5888   41.1638   44.4681
H   41.7140   39.4382   44.0219
H   41.7343   40.7196   42.7723
H   50.5957   49.5822   42.6742
H   48.0571   52.9623   43.6174
H   46.3466   51.4260   44.6794
H   45.6877   48.5754   44.9011
H   50.8695   51.7915   41.8608
H   45.5194   36.4778   49.2383
H   47.7768   35.8272   45.6136
H   46.8810   37.9382   44.6701
H   48.1095   34.6895   47.6514
H   43.7234   37.9878   48.9692
H   44.2091   39.9341   46.4191
H   45.6286   41.6917   46.2662
H   46.3456   40.9154   48.3178
H   47.2215   39.9654   50.3994
H   49.6417   40.2198   45.3255
H   48.9810   38.7983   51.3980
H   51.4302   38.1792   49.2865
H   51.6035   38.4331   47.5113
H   52.5417   40.6227   47.7702
H   54.0096   42.0752   50.7724
H   53.4593   42.4342   49.1144
H   54.8480   41.3814   49.3704
H   52.3853   38.7782   51.1061
H   52.0159   40.3867   51.7601
H   53.6803   39.8237   51.7533
84
Frame 6: 6
C   47.0028   46.0166   44.1498
O   44.3068   43.8722   45.4849
C   47.8043   45.0522   43.4887
O   48.1746   42.8281   42.7562
C   45.8082   45.6242   44.7912
O   50.1705   52.2634   42.3568
C   47.3942   43.7238   43.4278
O   48.6765   47.7553   43.6034
C   45.4237   44.2904   44.7601
O   47.3477   35.0231   48.1776
C   46.1405   43.3122   44.0113
O   44.0129   38.4879   48.1484
C   45.5870   41.9886   43.8439
O   48.2226   40.8352   44.7436
C   44.1736   41.7796   43.7435
O   50.1854   39.8252   46.0668
C   43.5683   40.5552   43.8894
O   49.5969   38.6929   50.6489
C   44.4046   39.4044   44.2971
C   42.0812   40.4487   43.7532
C   47.4658   49.6490   44.1561
C   48.6922   49.1744   43.5891
C   49.6520   49.9834   43.0475
C   49.3469   51.3665   43.0129
C   48.1845   51.8880   43.6321
C   47.2461   51.0395   44.2057
C   46.6866   48.5221   44.4963
C   47.3844   47.3784   44.1368
C   45.7241   36.7698   48.1982
C   46.7318   36.0769   47.5190
C   47.1099   36.4481   46.2031
C   46.5549   37.5931   45.6446
C   45.5716   38.3331   46.3244
C   45.1065   37.8570   47.5694
C   45.0451   39.6351   45.7585
C   46.0179   40.8675   45.6968
C   47.4571   40.7255   45.7889
C   48.0407   40.3508   47.0922
C   47.3061   40.4041   48.3034
C   49.3934   39.8514   47.1642
C   47.8112   39.9019   49.4938
C   49.8977   39.3553   48.3683
C   49.0992   39.3228   49.5125
C   51.3543   38.9121   48.4624
C   52.3529   40.0499   48.6657
C   52.9456   40.4510   49.8165
C   53.8642   41.6465   49.7673
C   52.7299   39.8024   51.1611
H   48.7438   45.3313   43.0167
H   45.2080   46.3614   45.3113
H   44.0312   44.5732   46.1065
H   47.9301   41.6942   43.3524
H   46.2250   41.2315   43.3813
H   43.5376   42.6411   43.5515
H   43.8179   38.4878   44.3176
H   45.2587   39.2693   43.6312
H   41.5745   41.1337   44.4477
H   41.7231   39.4321   43.9470
H   41.7583   40.7491   42.7474
H   50.5836   49.5793   42.6508
H   48.0611   52.9662   43.6150
H   46.3482   51.4337   44.6756
H   45.7010   48.5757   44.9344
H   50.9056   51.7968   41.9078
H   45.4640   36.4342   49.2007
H   47.8290   35.8572   45.6394
H   46.8956   37.9386   44.6696
H   48.0795   34.6603   47.6379
H   43.7296   38.0223   48.9613
H   44.2159   39.9221   46.4273
H   45.6241   41.6874   46.2824
H   46.3102   40.8398   48.3066
H   47.2095   39.9425   50.3981
H   49.6296   40.2111   45.3178
H   48.9697   38.7821   51.3937
H   51.4315   38.1872   49.2777
H   51.5915   38.4405   47.5019
H   52.5214   40.6414   47.7636
H   54.0352   42.0487   50.7698
H   53.4550   42.4404   49.1313
H   54.8384   41.3737   49.3394
H   52.3362   38.7839   51.0784
H   52.0185   40.3922   51.7554
H   53.6656   39.7804   51.7323
84
Frame 7: 7
C   47.0027   46.0165   44.1497
O   44.3070   43.8720   45.4851
C   47.8045   45.0495   43.4881
O   48.1737   42.8066   42.7606
C   45.8089   45.6237   44.7914
O   50.1709   52.2635   42.3571
C   47.3861   43.7303   43.4345
O   48.6762   47.7554   43.6028
C   45.4240   44.2904   44.7605
O   47.3475   35.0229   48.1776
C   46.1412   43.3132   44.0109
O   44.0134   38.4885   48.1484
C   45.5860   41.9884   43.8431
O   48.2199   40.8308   44.7551
C   44.1745   41.7800   43.7437
O   50.1861   39.8250   46.0679
C   43.5687   40.5554   43.8893
O   49.5971   38.6936   50.6492
C   44.4042   39.4041   44.2973
C   42.0814   40.4488   43.7525
C   47.4658   49.6491   44.1561
C   48.6920   49.1744   43.5888
C   49.6518   49.9834   43.0472
C   49.3470   51.3665   43.0128
C   48.1846   51.8880   43.6321
C   47.2461   51.0396   44.2056
C   46.6867   48.5222   44.4966
C   47.3843   47.3782   44.1367
C   45.7238   36.7695   48.1979
C   46.7318   36.0768   47.5190
C   47.1105   36.4483   46.2034
C   46.5552   37.5930   45.6446
C   45.5719   38.3330   46.3244
C   45.1067   37.8571   47.5695
C   45.0454   39.6352   45.7588
C   46.0155   40.8670   45.6982
C   47.4640   40.7249   45.7819
C   48.0411   40.3500   47.0953
C   47.3058   40.4035   48.3032
C   49.3933   39.8517   47.1639
C   47.8111   39.9016   49.4941
C   49.8976   39.3555   48.3685
C   49.0992   39.3230   49.5126
C   51.3542   38.9123   48.4622
C   52.3527   40.0501   48.6655
C   52.9455   40.4510   49.8163
C   53.8642   41.6463   49.7672
C   52.7295   39.8022   51.1608
H   48.7426   45.3258   43.0153
H   45.2090   46.3606   45.3120
H   44.0314   44.5728   46.1069
H   48.0034   42.0774   43.0663
H   46.2127   41.2271   43.3859
H   43.5373   42.6405   43.5521
H   43.8170   38.4879   44.3183
H   45.2571   39.2657   43.6309
H   41.5742   41.1325   44.4472
H   41.7237   39.4323   43.9446
H   41.7589   40.7502   42.7473
H   50.5833   49.5793   42.6503
H   48.0612   52.9663   43.6149
H   46.3482   51.4338   44.6755
H   45.7016   48.5757   44.9352
H   50.9064   51.7971   41.9096
H   45.4622   36.4330   49.1987
H   47.8302   35.8584   45.6404
H   46.8958   37.9381   44.6694
H   48.0782   34.6594   47.6377
H   43.7301   38.0234   48.9613
H   44.2159   39.9220   46.4271
H   45.6269   41.6881   46.2824
H   46.3102   40.8376   48.3064
H   47.2094   39.9420   50.3982
H   49.6232   40.2120   45.3184
H   48.9697   38.7804   51.3927
H   51.4316   38.1874   49.2774
H   51.5914   38.4406   47.5017
H   52.5208   40.6418   47.7634
H   54.0358   42.0479   50.7694
H   53.4550   42.4404   49.1320
H   54.8379   41.3737   49.3387
H   52.3351   38.7846   51.0778
H   52.0188   40.3921   51.7553
H   53.6649   39.7792   51.7317
84
Frame 8: 8
C   47.0028   46.0166   44.1496
O   44.3071   43.8719   45.4852
C   47.8044   45.0493   43.4881
O   48.1632   42.8117   42.7510
C   45.8091   45.6235   44.7916
O   50.1711   52.2635   42.3573
C   47.3860   43.7282   43.4338
O   48.6760   47.7555   43.6026
C   45.4240   44.2904   44.7609
O   47.3474   35.0229   48.1775
C   46.1404   43.3136   44.0115
O   44.0136   38.4888   48.1483
C   45.5859   41.9881   43.8439
O   48.2196   40.8310   44.7546
C   44.1745   41.7800   43.7438
O   50.1860   39.8252   46.0680
C   43.5687   40.5554   43.8893
O   49.5972   38.6940   50.6494
C   44.4042   39.4040   44.2974
C   42.0815   40.4488   43.7521
C   47.4658   49.6491   44.1561
C   48.6919   49.1745   43.5887
C   49.6518   49.9834   43.0470
C   49.3470   51.3666   43.0128
C   48.1846   51.8881   43.6320
C   47.2462   51.0397   44.2056
C   46.6868   48.5222   44.4967
C   47.3843   47.3782   44.1367
C   45.7236   36.7694   48.1977
C   46.7318   36.0768   47.5189
C   47.1108   36.4485   46.2036
C   46.5554   37.5931   45.6446
C   45.5721   38.3330   46.3244
C   45.1068   37.8572   47.5695
C   45.0456   39.6353   45.7587
C   46.0152   40.8671   45.6981
C   47.4638   40.7244   45.7823
C   48.0412   40.3499   47.0955
C   47.3056   40.4033   48.3032
C   49.3933   39.8518   47.1640
C   47.8110   39.9014   49.4941
C   49.8976   39.3556   48.3685
C   49.0992   39.3231   49.5126
C   51.3541   38.9123   48.4621
C   52.3526   40.0503   48.6654
C   52.9454   40.4510   49.8162
C   53.8643   41.6462   49.7671
C   52.7293   39.8021   51.1606
H   48.7419   45.3256   43.0143
H   45.2094   46.3604   45.3124
H   44.0313   44.5726   46.1071
H   48.1780   42.0101   43.2185
H   46.2204   41.2313   43.3842
H   43.5375   42.6406   43.5523
H   43.8166   38.4880   44.3188
H   45.2569   39.2653   43.6308
H   41.5739   41.1319   44.4470
H   41.7240   39.4322   43.9435
H   41.7593   40.7508   42.7471
H   50.5832   49.5792   42.6500
H   48.0612   52.9663   43.6149
H   46.3483   51.4339   44.6755
H   45.7018   48.5757   44.9355
H   50.9069   51.7971   41.9104
H   45.4613   36.4323   49.1979
H   47.8308   35.8588   45.6408
H   46.8958   37.9376   44.6693
H   48.0776   34.6589   47.6375
H   43.7303   38.0239   48.9614
H   44.2159   39.9219   46.4271
H   45.6268   41.6884   46.2832
H   46.3098   40.8367   48.3063
H   47.2093   39.9417   50.3982
H   49.6259   40.2101   45.3202
H   48.9694   38.7796   51.3925
H   51.4316   38.1875   49.2773
H   51.5913   38.4407   47.5017
H   52.5206   40.6420   47.7634
H   54.0361   42.0475   50.7694
H   53.4550   42.4405   49.1322
H   54.8378   41.3736   49.3383
H   52.3344   38.7848   51.0775
H   52.0189   40.3921   51.7553
H   53.6646   39.7787   51.7314
84
Frame 9: 9
C   47.0026   46.0163   44.1495
O   44.3075   43.8714   45.4861
C   47.8035   45.0488   43.4888
O   48.1394   42.8007   42.7293
C   45.8102   45.6233   44.7936
O   50.1726   52.2638   42.3587
C   47.3815   43.7264   43.4342
O   48.6748   47.7558   43.6003
C   45.4243   44.2908   44.7629
O   47.3467   35.0224   48.1775
C   46.1389   43.3145   44.0136
O   44.0155   38.4910   48.1483
C   45.5875   41.9873   43.8463
O   48.2212   40.8328   44.7519
C   44.1757   41.7791   43.7438
O   50.1867   39.8259   46.0691
C   43.5687   40.5553   43.8893
O   49.5982   38.6968   50.6505
C   44.4041   39.4042   44.2978
C   42.0823   40.4489   43.7493
C   47.4658   49.6494   44.1562
C   48.6911   49.1747   43.5873
C   49.6511   49.9836   43.0457
C   49.3474   51.3669   43.0127
C   48.1849   51.8884   43.6317
C   47.2463   51.0401   44.2054
C   46.6873   48.5224   44.4977
C   47.3840   47.3783   44.1363
C   45.7222   36.7683   48.1964
C   46.7317   36.0766   47.5188
C   47.1130   36.4495   46.2046
C   46.5566   37.5931   45.6448
C   45.5730   38.3330   46.3242
C   45.1075   37.8577   47.5693
C   45.0458   39.6351   45.7587
C   46.0152   40.8668   45.6986
C   47.4601   40.7226   45.7861
C   48.0407   40.3495   47.0950
C   47.3043   40.4010   48.3035
C   49.3931   39.8523   47.1653
C   47.8102   39.9003   49.4945
C   49.8974   39.3564   48.3690
C   49.0991   39.3238   49.5133
C   51.3537   38.9129   48.4614
C   52.3517   40.0512   48.6645
C   52.9449   40.4509   49.8154
C   53.8645   41.6455   49.7666
C   52.7279   39.8014   51.1593
H   48.7373   45.3378   43.0122
H   45.2119   46.3599   45.3161
H   44.0310   44.5711   46.1089
H   48.5469   42.1232   43.4940
H   46.2522   41.2542   43.3866
H   43.5396   42.6416   43.5549
H   43.8159   38.4883   44.3200
H   45.2565   39.2666   43.6309
H   41.5727   41.1282   44.4463
H   41.7253   39.4311   43.9348
H   41.7620   40.7557   42.7452
H   50.5820   49.5791   42.6477
H   48.0616   52.9667   43.6147
H   46.3485   51.4345   44.6752
H   45.7031   48.5759   44.9385
H   50.9111   51.7977   41.9160
H   45.4552   36.4275   49.1940
H   47.8359   35.8618   45.6435
H   46.8965   37.9365   44.6690
H   48.0741   34.6552   47.6358
H   43.7325   38.0278   48.9623
H   44.2159   39.9210   46.4271
H   45.6258   41.6878   46.2849
H   46.3068   40.8301   48.3054
H   47.2085   39.9400   50.3987
H   49.6301   40.2047   45.3197
H   48.9668   38.7745   51.3914
H   51.4320   38.1881   49.2766
H   51.5903   38.4414   47.5009
H   52.5189   40.6437   47.7628
H   54.0387   42.0448   50.7693
H   53.4545   42.4413   49.1341
H   54.8369   41.3732   49.3352
H   52.3296   38.7856   51.0752
H   52.0196   40.3929   51.7551
H   53.6634   39.7744   51.7295
84
Frame 10: 10
C   47.0029   46.0153   44.1511
O   44.3084   43.8708   45.4910
C   47.8025   45.0442   43.4910
O   48.1464   42.7983   42.7271
C   45.8135   45.6230   44.8007
O   50.1777   52.2649   42.3638
C   47.3752   43.7264   43.4320
O   48.6712   47.7561   43.5926
C   45.4246   44.2919   44.7688
O   47.3439   35.0199   48.1775
C   46.1359   43.3169   44.0147
O   44.0220   38.4981   48.1493
C   45.5901   41.9885   43.8454
O   48.2137   40.8308   44.7561
C   44.1789   41.7781   43.7447
O   50.1855   39.8312   46.0707
C   43.5708   40.5546   43.8882
O   49.6020   38.7054   50.6550
C   44.4046   39.4036   44.2983
C   42.0853   40.4488   43.7395
C   47.4656   49.6499   44.1558
C   48.6886   49.1751   43.5823
C   49.6491   49.9836   43.0409
C   49.3488   51.3676   43.0126
C   48.1858   51.8892   43.6308
C   47.2470   51.0410   44.2048
C   46.6888   48.5225   44.5007
C   47.3833   47.3779   44.1349
C   45.7175   36.7638   48.1928
C   46.7315   36.0753   47.5185
C   47.1204   36.4526   46.2080
C   46.5602   37.5928   45.6454
C   45.5747   38.3314   46.3235
C   45.1091   37.8581   47.5686
C   45.0457   39.6335   45.7596
C   46.0121   40.8636   45.7053
C   47.4607   40.7172   45.7851
C   48.0398   40.3465   47.0982
C   47.3006   40.3932   48.3043
C   49.3922   39.8543   47.1674
C   47.8080   39.8963   49.4963
C   49.8970   39.3585   48.3708
C   49.0993   39.3255   49.5156
C   51.3527   38.9148   48.4594
C   52.3493   40.0540   48.6614
C   52.9433   40.4507   49.8126
C   53.8656   41.6431   49.7652
C   52.7235   39.7996   51.1554
H   48.7344   45.3319   43.0118
H   45.2195   46.3597   45.3283
H   44.0316   44.5690   46.1154
H   48.4720   42.2053   43.3358
H   46.2636   41.2608   43.3923
H   43.5434   42.6415   43.5586
H   43.8159   38.4880   44.3206
H   45.2572   39.2655   43.6317
H   41.5709   41.1155   44.4453
H   41.7286   39.4274   43.9058
H   41.7700   40.7723   42.7389
H   50.5780   49.5780   42.6395
H   48.0629   52.9675   43.6143
H   46.3496   51.4360   44.6750
H   45.7071   48.5760   44.9472
H   50.9232   51.7998   41.9319
H   45.4406   36.4150   49.1851
H   47.8516   35.8706   45.6516
H   46.8987   37.9339   44.6685
H   48.0651   34.6454   47.6325
H   43.7415   38.0408   48.9674
H   44.2144   39.9170   46.4274
H   45.6255   41.6866   46.2901
H   46.2982   40.8112   48.3041
H   47.2060   39.9346   50.4003
H   49.6268   40.2122   45.3212
H   48.9612   38.7639   51.3898
H   51.4337   38.1896   49.2740
H   51.5874   38.4438   47.4982
H   52.5138   40.6487   47.7608
H   54.0485   42.0352   50.7691
H   53.4526   42.4443   49.1414
H   54.8338   41.3717   49.3237
H   52.3141   38.7885   51.0688
H   52.0229   40.3967   51.7548
H   53.6600   39.7610   51.7232
84
Frame 11: 11
C   47.0030   46.0152   44.1512
O   44.3084   43.8708   45.4915
C   47.8023   45.0447   43.4911
O   48.1492   42.8054   42.7265
C   45.8138   45.6230   44.8016
O   50.1782   52.2650   42.3643
C   47.3764   43.7249   43.4305
O   48.6708   47.7561   43.5917
C   45.4248   44.2917   44.7693
O   47.3436   35.0196   48.1775
C   46.1355   43.3166   44.0150
O   44.0227   38.4988   48.1494
C   45.5901   41.9890   43.8452
O   48.2138   40.8312   44.7549
C   44.1793   41.7780   43.7448
O   50.1855   39.8317   46.0709
C   43.5710   40.5546   43.8880
O   49.6024   38.7064   50.6555
C   44.4047   39.4035   44.2983
C   42.0857   40.4488   43.7384
C   47.4656   49.6500   44.1558
C   48.6884   49.1751   43.5818
C   49.6489   49.9836   43.0404
C   49.3489   51.3677   43.0126
C   48.1859   51.8893   43.6307
C   47.2471   51.0411   44.2047
C   46.6889   48.5225   44.5010
C   47.3832   47.3779   44.1348
C   45.7170   36.7633   48.1924
C   46.7315   36.0751   47.5185
C   47.1213   36.4529   46.2083
C   46.5606   37.5928   45.6455
C   45.5749   38.3312   46.3234
C   45.1093   37.8581   47.5686
C   45.0456   39.6333   45.7596
C   46.0124   40.8632   45.7060
C   47.4596   40.7168   45.7866
C   48.0396   40.3462   47.0982
C   47.3001   40.3923   48.3045
C   49.3922   39.8545   47.1676
C   47.8078   39.8958   49.4965
C   49.8970   39.3587   48.3710
C   49.0993   39.3257   49.5159
C   51.3526   38.9150   48.4592
C   52.3490   40.0543   48.6611
C   52.9432   40.4507   49.8123
C   53.8657   41.6428   49.7651
C   52.7230   39.7994   51.1549
H   48.7346   45.3307   43.0116
H   45.2203   46.3596   45.3297
H   44.0318   44.5689   46.1161
H   48.4077   42.1060   43.3484
H   46.2610   41.2590   43.3923
H   43.5436   42.6414   43.5590
H   43.8159   38.4880   44.3206
H   45.2573   39.2652   43.6318
H   41.5707   41.1140   44.4451
H   41.7291   39.4271   43.9025
H   41.7709   40.7741   42.7384
H   50.5776   49.5779   42.6386
H   48.0631   52.9676   43.6143
H   46.3497   51.4362   44.6750
H   45.7076   48.5760   44.9482
H   50.9245   51.8001   41.9337
H   45.4390   36.4136   49.1840
H   47.8533   35.8716   45.6525
H   46.8991   37.9341   44.6685
H   48.0641   34.6443   47.6322
H   43.7425   38.0422   48.9679
H   44.2142   39.9166   46.4274
H   45.6251   41.6864   46.2904
H   46.2973   40.8092   48.3039
H   47.2057   39.9340   50.4005
H   49.6273   40.2108   45.3218
H   48.9608   38.7627   51.3895
H   51.4339   38.1898   49.2738
H   51.5871   38.4441   47.4979
H   52.5132   40.6493   47.7606
H   54.0496   42.0341   50.7691
H   53.4524   42.4446   49.1422
H   54.8334   41.3716   49.3225
H   52.3126   38.7889   51.0682
H   52.0233   40.3971   51.7547
H   53.6596   39.7596   51.7225
84
Frame 12: 12
C   47.0033   46.0145   44.1524
O   44.3098   43.8697   45.4958
C   47.7998   45.0457   43.4888
O   48.1577   42.8171   42.7319
C   45.8165   45.6215   44.8080
O   50.1827   52.2661   42.3693
C   47.3815   43.7204   43.4305
O   48.6674   47.7562   43.5848
C   45.4272   44.2896   44.7738
O   47.3408   35.0171   48.1774
C   46.1370   43.3135   44.0186
O   44.0287   38.5049   48.1508
C   45.5875   41.9885   43.8500
O   48.2111   40.8306   44.7509
C   44.1784   41.7787   43.7474
O   50.1849   39.8358   46.0726
C   43.5719   40.5539   43.8861
O   49.6054   38.7140   50.6592
C   44.4043   39.4021   44.2984
C   42.0873   40.4479   43.7290
C   47.4655   49.6503   44.1551
C   48.6861   49.1753   43.5769
C   49.6470   49.9834   43.0358
C   49.3501   51.3683   43.0126
C   48.1867   51.8897   43.6301
C   47.2477   51.0417   44.2043
C   46.6901   48.5224   44.5035
C   47.3826   47.3779   44.1338
C   45.7131   36.7595   48.1893
C   46.7311   36.0738   47.5181
C   47.1274   36.4557   46.2111
C   46.5640   37.5932   45.6460
C   45.5761   38.3303   46.3223
C   45.1104   37.8582   47.5677
C   45.0457   39.6319   45.7588
C   46.0113   40.8631   45.7076
C   47.4570   40.7175   45.7878
C   48.0373   40.3451   47.0983
C   47.2966   40.3861   48.3048
C   49.3910   39.8565   47.1689
C   47.8057   39.8924   49.4972
C   49.8961   39.3607   48.3720
C   49.0993   39.3273   49.5176
C   51.3515   38.9167   48.4574
C   52.3471   40.0566   48.6585
C   52.9421   40.4504   49.8100
C   53.8670   41.6408   49.7638
C   52.7198   39.7982   51.1518
H   48.7312   45.3264   43.0051
H   45.2257   46.3574   45.3402
H   44.0340   44.5679   46.1205
H   48.2643   41.9777   43.2849
H   46.2448   41.2489   43.3922
H   43.5417   42.6413   43.5626
H   43.8135   38.4878   44.3225
H   45.2558   39.2593   43.6313
H   41.5680   41.1010   44.4440
H   41.7317   39.4231   43.8755
H   41.7764   40.7883   42.7328
H   50.5740   49.5768   42.6308
H   48.0643   52.9681   43.6143
H   46.3509   51.4371   44.6752
H   45.7109   48.5758   44.9553
H   50.9336   51.8020   41.9459
H   45.4283   36.4047   49.1771
H   47.8661   35.8791   45.6591
H   46.9031   37.9343   44.6690
H   48.0577   34.6373   47.6305
H   43.7500   38.0522   48.9720
H   44.2139   39.9143   46.4266
H   45.6225   41.6845   46.2936
H   46.2906   40.7956   48.3029
H   47.2032   39.9291   50.4011
H   49.6258   40.2105   45.3225
H   48.9579   38.7575   51.3890
H   51.4348   38.1914   49.2716
H   51.5844   38.4463   47.4955
H   52.5093   40.6534   47.7589
H   54.0590   42.0252   50.7689
H   53.4505   42.4475   49.1493
H   54.8305   41.3707   49.3115
H   52.3014   38.7912   51.0637
H   52.0263   40.4002   51.7544
H   53.6573   39.7496   51.7173
84
Frame 13: 13
C   47.0040   46.0137   44.1550
O   44.3143   43.8675   45.5060
C   47.7966   45.0457   43.4853
O   48.1593   42.8195   42.7332
C   45.8232   45.6186   44.8207
O   50.1918   52.2684   42.3803
C   47.3805   43.7200   43.4305
O   48.6608   47.7561   43.5703
C   45.4316   44.2873   44.7837
O   47.3346   35.0108   48.1766
C   46.1376   43.3121   44.0232
O   44.0408   38.5160   48.1552
C   45.5850   41.9900   43.8507
O   48.2052   40.8301   44.7510
C   44.1766   41.7798   43.7522
O   50.1834   39.8442   46.0760
C   43.5728   40.5523   43.8814
O   49.6108   38.7290   50.6661
C   44.4044   39.4003   44.2962
C   42.0901   40.4441   43.7093
C   47.4652   49.6505   44.1530
C   48.6816   49.1751   43.5662
C   49.6431   49.9828   43.0255
C   49.3525   51.3690   43.0126
C   48.1888   51.8902   43.6299
C   47.2494   51.0423   44.2039
C   46.6924   48.5224   44.5077
C   47.3815   47.3777   44.1317
C   45.7062   36.7521   48.1837
C   46.7300   36.0705   47.5172
C   47.1383   36.4600   46.2161
C   46.5701   37.5932   45.6471
C   45.5772   38.3270   46.3200
C   45.1120   37.8574   47.5661
C   45.0445   39.6283   45.7574
C   46.0080   40.8600   45.7129
C   47.4542   40.7162   45.7887
C   48.0336   40.3431   47.1003
C   47.2900   40.3759   48.3055
C   49.3884   39.8602   47.1714
C   47.8012   39.8860   49.4986
C   49.8943   39.3644   48.3740
C   49.0989   39.3306   49.5207
C   51.3494   38.9201   48.4545
C   52.3439   40.0607   48.6542
C   52.9414   40.4500   49.8059
C   53.8702   41.6371   49.7605
C   52.7160   39.7966   51.1465
H   48.7242   45.3251   42.9941
H   45.2380   46.3527   45.3615
H   44.0400   44.5648   46.1322
H   48.2459   41.9905   43.2584
H   46.2409   41.2481   43.3957
H   43.5385   42.6430   43.5752
H   43.8128   38.4865   44.3201
H   45.2564   39.2561   43.6296
H   41.5611   41.0697   44.4427
H   41.7385   39.4126   43.8179
H   41.7858   40.8171   42.7225
H   50.5664   49.5746   42.6138
H   48.0675   52.9688   43.6161
H   46.3537   51.4383   44.6766
H   45.7174   48.5754   44.9685
H   50.9486   51.8057   41.9660
H   45.4114   36.3896   49.1658
H   47.8889   35.8920   45.6712
H   46.9101   37.9338   44.6703
H   48.0484   34.6262   47.6290
H   43.7624   38.0675   48.9787
H   44.2113   39.9085   46.4241
H   45.6184   41.6811   46.2987
H   46.2795   40.7744   48.3021
H   47.1975   39.9189   50.4018
H   49.6230   40.2152   45.3252
H   48.9564   38.7566   51.3907
H   51.4362   38.1946   49.2681
H   51.5796   38.4504   47.4918
H   52.5025   40.6608   47.7562
H   54.0811   42.0068   50.7676
H   53.4457   42.4542   49.1650
H   54.8244   41.3707   49.2863
H   52.2857   38.7948   51.0566
H   52.0316   40.4051   51.7531
H   53.6546   39.7350   51.7090
84
Frame 14: 14
C   47.0045   46.0130   44.1603
O   44.3274   43.8618   45.5322
C   47.7894   45.0473   43.4787
O   48.1606   42.8241   42.7360
C   45.8363   45.6138   44.8465
O   50.2103   52.2730   42.4041
C   47.3784   43.7201   43.4320
O   48.6471   47.7556   43.5403
C   45.4412   44.2833   44.8052
O   47.3199   34.9949   48.1718
C   46.1389   43.3106   44.0336
O   44.0648   38.5357   48.1658
C   45.5816   41.9920   43.8564
O   48.1947   40.8285   44.7538
C   44.1740   41.7815   43.7608
O   50.1799   39.8631   46.0832
C   43.5759   40.5485   43.8680
O   49.6184   38.7575   50.6784
C   44.4064   39.3959   44.2871
C   42.0970   40.4334   43.6674
C   47.4649   49.6507   44.1471
C   48.6721   49.1742   43.5424
C   49.6346   49.9809   43.0021
C   49.3575   51.3700   43.0132
C   48.1951   51.8910   43.6333
C   47.2540   51.0431   44.2049
C   46.6965   48.5228   44.5136
C   47.3786   47.3777   44.1264
C   45.6968   36.7404   48.1750
C   46.7264   36.0621   47.5143
C   47.1525   36.4635   46.2224
C   46.5783   37.5912   45.6478
C   45.5772   38.3201   46.3143
C   45.1153   37.8557   47.5634
C   45.0408   39.6202   45.7512
C   46.0000   40.8548   45.7185
C   47.4459   40.7142   45.7927
C   48.0244   40.3412   47.1049
C   47.2769   40.3616   48.3083
C   49.3822   39.8688   47.1767
C   47.7915   39.8766   49.5018
C   49.8895   39.3727   48.3783
C   49.0964   39.3384   49.5267
C   51.3442   38.9276   48.4520
C   52.3386   40.0682   48.6486
C   52.9451   40.4490   49.7984
C   53.8795   41.6315   49.7510
C   52.7157   39.7953   51.1382
H   48.7091   45.3267   42.9732
H   45.2620   46.3444   45.4041
H   44.0548   44.5586   46.1598
H   48.2061   41.9725   43.2340
H   46.2337   41.2478   43.3998
H   43.5329   42.6457   43.6002
H   43.8145   38.4823   44.3081
H   45.2605   39.2512   43.6230
H   41.5481   41.0007   44.4358
H   41.7576   39.3904   43.7001
H   41.8036   40.8695   42.7021
H   50.5499   49.5701   42.5751
H   48.0782   52.9701   43.6273
H   46.3614   51.4398   44.6826
H   45.7292   48.5757   44.9908
H   50.9710   51.8118   41.9955
H   45.3904   36.3700   49.1506
H   47.9197   35.9077   45.6878
H   46.9213   37.9316   44.6720
H   48.0321   34.6060   47.6252
H   43.7803   38.0868   48.9870
H   44.2038   39.8957   46.4149
H   45.6067   41.6725   46.3065
H   46.2608   40.7458   48.3035
H   47.1854   39.9011   50.4037
H   49.6177   40.2292   45.3315
H   48.9582   38.7694   51.3981
H   51.4356   38.2021   49.2651
H   51.5701   38.4583   47.4882
H   52.4895   40.6737   47.7529
H   54.1356   41.9687   50.7601
H   53.4332   42.4699   49.2003
H   54.8106   41.3767   49.2243
H   52.2746   38.7986   51.0467
H   52.0388   40.4100   51.7470
H   53.6544   39.7216   51.6991
84
Frame 15: 15
C   47.0024   46.0122   44.1664
O   44.3581   43.8495   45.5900
C   47.7749   45.0495   43.4668
O   48.1504   42.8244   42.7354
C   45.8567   45.6071   44.8883
O   50.2420   52.2784   42.4449
C   47.3710   43.7205   43.4345
O   48.6199   47.7542   43.4841
C   45.4586   44.2768   44.8457
O   47.2848   34.9570   48.1537
C   46.1407   43.3094   44.0537
O   44.1091   38.5696   48.1863
C   45.5783   41.9948   43.8689
O   48.1795   40.8295   44.7654
C   44.1721   41.7822   43.7733
O   50.1787   39.9119   46.1034
C   43.5870   40.5391   43.8402
O   49.6365   38.8198   50.7050
C   44.4190   39.3871   44.2633
C   42.1160   40.4085   43.5918
C   47.4648   49.6510   44.1360
C   48.6538   49.1719   43.4976
C   49.6176   49.9768   42.9566
C   49.3676   51.3705   43.0159
C   48.2137   51.8923   43.6511
C   47.2678   51.0445   44.2154
C   46.7018   48.5244   44.5193
C   47.3705   47.3781   44.1125
C   45.6895   36.7279   48.1664
C   46.7117   36.0404   47.5039
C   47.1508   36.4491   46.2188
C   46.5797   37.5778   45.6423
C   45.5743   38.3060   46.3029
C   45.1236   37.8545   47.5611
C   45.0345   39.6038   45.7366
C   45.9857   40.8440   45.7269
C   47.4310   40.7101   45.8037
C   48.0074   40.3389   47.1165
C   47.2537   40.3384   48.3170
C   49.3732   39.8924   47.1915
C   47.7765   39.8669   49.5124
C   49.8839   39.3969   48.3915
C   49.0953   39.3625   49.5429
C   51.3359   38.9434   48.4527
C   52.3401   40.0775   48.6357
C   52.9641   40.4452   49.7802
C   53.9045   41.6216   49.7323
C   52.6960   39.7927   51.1151
H   48.6809   45.3325   42.9386
H   45.3002   46.3323   45.4713
H   44.0871   44.5481   46.2163
H   48.1994   41.9746   43.2320
H   46.2282   41.2511   43.4087
H   43.5244   42.6474   43.6440
H   43.8318   38.4704   44.2721
H   45.2811   39.2499   43.6075
H   41.5367   40.9191   44.3774
H   41.7967   39.3597   43.5551
H   41.8400   40.8945   42.6463
H   50.5163   49.5617   42.4986
H   48.1093   52.9728   43.6672
H   46.3831   51.4428   44.7068
H   45.7474   48.5779   45.0224
H   50.9990   51.8173   42.0292
H   45.3797   36.3580   49.1409
H   47.9236   35.8963   45.6897
H   46.9288   37.9199   44.6692
H   47.9894   34.5582   47.6044
H   43.8116   38.1170   49.0008
H   44.1878   39.8710   46.3910
H   45.5841   41.6550   46.3186
H   46.2264   40.6936   48.3091
H   47.1681   39.8791   50.4131
H   49.6135   40.2693   45.3497
H   48.9699   38.8098   51.4188
H   51.4315   38.2209   49.2678
H   51.5494   38.4684   47.4885
H   52.4845   40.6830   47.7393
H   54.2081   41.9234   50.7398
H   53.4379   42.4815   49.2329
H   54.8067   41.3819   49.1505
H   52.4007   38.7326   50.9972
H   51.8535   40.3183   51.6292
H   53.5847   39.8591   51.7751
84
Frame 16: 16
C   46.9977   46.0123   44.1667
O   44.3903   43.8404   45.6469
C   47.7601   45.0506   43.4548
O   48.1390   42.8219   42.7370
C   45.8714   45.6037   44.9170
O   50.2675   52.2768   42.4743
C   47.3626   43.7199   43.4371
O   48.5930   47.7532   43.4342
C   45.4731   44.2726   44.8800
O   47.2373   34.9116   48.1261
C   46.1404   43.3087   44.0720
O   44.1488   38.5983   48.2031
C   45.5739   41.9975   43.8814
O   48.1706   40.8279   44.7765
C   44.1690   41.7808   43.7851
O   50.1884   39.9823   46.1343
C   43.5992   40.5285   43.8135
O   49.6350   38.8588   50.7260
C   44.4356   39.3797   44.2404
C   42.1388   40.3778   43.5153
C   47.4665   49.6512   44.1297
C   48.6372   49.1700   43.4600
C   49.6017   49.9731   42.9174
C   49.3775   51.3685   43.0194
C   48.2362   51.8921   43.6757
C   47.2858   51.0453   44.2341
C   46.7062   48.5260   44.5230
C   47.3611   47.3787   44.0972
C   45.6803   36.7163   48.1584
C   46.6821   36.0093   47.4848
C   47.1163   36.4108   46.1962
C   46.5663   37.5558   45.6296
C   45.5693   38.2926   46.2926
C   45.1303   37.8537   47.5595
C   45.0297   39.5895   45.7232
C   45.9755   40.8328   45.7330
C   47.4202   40.7031   45.8127
C   47.9930   40.3368   47.1272
C   47.2329   40.3222   48.3238
C   49.3680   39.9216   47.2107
C   47.7605   39.8679   49.5237
C   49.8760   39.4212   48.4090
C   49.0873   39.3859   49.5601
C   51.3262   38.9625   48.4687
C   52.3361   40.0933   48.6400
C   52.9887   40.4545   49.7716
C   53.9462   41.6170   49.6922
C   52.7299   39.8096   51.1133
H   48.6541   45.3356   42.9080
H   45.3288   46.3261   45.5163
H   44.1161   44.5452   46.2653
H   48.1930   41.9741   43.2365
H   46.2225   41.2559   43.4159
H   43.5141   42.6446   43.6840
H   43.8570   38.4576   44.2334
H   45.3080   39.2549   43.5952
H   41.5262   40.8304   44.3113
H   41.8464   39.3256   43.4127
H   41.8777   40.9083   42.5902
H   50.4840   49.5557   42.4307
H   48.1464   52.9734   43.7151
H   46.4111   51.4451   44.7419
H   45.7635   48.5807   45.0473
H   51.0161   51.8145   42.0447
H   45.3736   36.3520   49.1359
H   47.8681   35.8388   45.6563
H   46.9232   37.9021   44.6610
H   47.9325   34.5030   47.5720
H   43.8607   38.1597   49.0284
H   44.1741   39.8509   46.3680
H   45.5688   41.6392   46.3275
H   46.1975   40.6525   48.3100
H   47.1514   39.8776   50.4240
H   49.6221   40.3295   45.3768
H   48.9741   38.8542   51.4450
H   51.4214   38.2441   49.2869
H   51.5340   38.4818   47.5060
H   52.4624   40.7015   47.7422
H   54.3381   41.8845   50.6818
H   53.4537   42.5006   49.2599
H   54.7949   41.3856   49.0275
H   52.4552   38.7535   51.0147
H   51.8957   40.3139   51.6176
H   53.6040   39.8860   51.7671
84
Frame 17: 17
C   46.9966   46.0124   44.1667
O   44.3964   43.8387   45.6563
C   47.7571   45.0509   43.4526
O   48.1368   42.8215   42.7374
C   45.8741   45.6032   44.9219
O   50.2724   52.2754   42.4796
C   47.3608   43.7201   43.4373
O   48.5870   47.7533   43.4249
C   45.4754   44.2721   44.8855
O   47.2275   34.9033   48.1194
C   46.1396   43.3091   44.0741
O   44.1581   38.6039   48.2056
C   45.5719   41.9993   43.8805
O   48.1683   40.8266   44.7767
C   44.1676   41.7810   43.7857
O   50.1847   39.9874   46.1394
C   43.6014   40.5274   43.8078
O   49.6288   38.8746   50.7276
C   44.4385   39.3791   44.2352
C   42.1439   40.3728   43.5012
C   47.4668   49.6513   44.1289
C   48.6335   49.1700   43.4531
C   49.5980   49.9728   42.9099
C   49.3794   51.3677   43.0201
C   48.2410   51.8915   43.6808
C   47.2897   51.0451   44.2382
C   46.7072   48.5262   44.5240
C   47.3590   47.3789   44.0944
C   45.6767   36.7124   48.1542
C   46.6766   36.0040   47.4799
C   47.1137   36.4075   46.1928
C   46.5645   37.5528   45.6266
C   45.5675   38.2897   46.2894
C   45.1309   37.8526   47.5574
C   45.0277   39.5866   45.7198
C   45.9722   40.8303   45.7328
C   47.4168   40.7019   45.8121
C   47.9868   40.3379   47.1268
C   47.2226   40.3222   48.3209
C   49.3624   39.9256   47.2127
C   47.7456   39.8708   49.5233
C   49.8644   39.4271   48.4124
C   49.0730   39.3933   49.5615
C   51.3168   38.9709   48.4933
C   52.3285   40.1017   48.6660
C   53.0091   40.4647   49.7844
C   53.9599   41.6311   49.6633
C   52.7880   39.7737   51.1182
H   48.6489   45.3361   42.9027
H   45.3347   46.3249   45.5245
H   44.1185   44.5452   46.2710
H   48.1912   41.9741   43.2375
H   46.2208   41.2577   43.4153
H   43.5108   42.6435   43.6887
H   43.8619   38.4560   44.2240
H   45.3133   39.2577   43.5927
H   41.5257   40.8038   44.3021
H   41.8614   39.3222   43.3776
H   41.8812   40.9185   42.5869
H   50.4764   49.5556   42.4170
H   48.1544   52.9726   43.7250
H   46.4173   51.4450   44.7495
H   45.7672   48.5810   45.0525
H   51.0190   51.8131   42.0470
H   45.3683   36.3469   49.1308
H   47.8700   35.8401   45.6554
H   46.9219   37.8992   44.6582
H   47.9203   34.4925   47.5641
H   43.8699   38.1651   49.0305
H   44.1704   39.8465   46.3626
H   45.5649   41.6361   46.3275
H   46.1859   40.6468   48.3025
H   47.1326   39.8793   50.4212
H   49.6191   40.3313   45.3796
H   48.9838   38.8889   51.4610
H   51.3984   38.2633   49.3211
H   51.5347   38.4815   47.5363
H   52.4398   40.7144   47.7688
H   54.3914   41.9211   50.6280
H   53.4538   42.5046   49.2319
H   54.7812   41.3939   48.9724
H   53.0351   38.5740   51.0352
H   51.6127   39.8930   51.4445
H   53.5100   40.2668   51.9273
84
Frame 18: 18
C   46.9952   46.0124   44.1663
O   44.4031   43.8361   45.6670
C   47.7539   45.0512   43.4498
O   48.1353   42.8207   42.7386
C   45.8767   45.6022   44.9273
O   50.2782   52.2740   42.4856
C   47.3594   43.7199   43.4378
O   48.5800   47.7531   43.4131
C   45.4784   44.2709   44.8920
O   47.2150   34.8919   48.1100
C   46.1399   43.3088   44.0775
O   44.1677   38.6101   48.2080
C   45.5718   41.9997   43.8822
O   48.1702   40.8240   44.7807
C   44.1677   41.7807   43.7868
O   50.1855   39.9928   46.1553
C   43.6050   40.5255   43.8003
O   49.5961   38.8696   50.7453
C   44.4427   39.3778   44.2289
C   42.1500   40.3662   43.4845
C   47.4674   49.6512   44.1284
C   48.6293   49.1694   43.4446
C   49.5937   49.9717   42.9004
C   49.3818   51.3667   43.0210
C   48.2472   51.8910   43.6880
C   47.2949   51.0451   44.2444
C   46.7083   48.5265   44.5255
C   47.3564   47.3790   44.0907
C   45.6739   36.7090   48.1499
C   46.6702   35.9973   47.4735
C   47.1097   36.4023   46.1877
C   46.5634   37.5496   45.6230
C   45.5670   38.2872   46.2857
C   45.1323   37.8521   47.5551
C   45.0276   39.5840   45.7155
C   45.9720   40.8275   45.7324
C   47.4169   40.6993   45.8146
C   47.9844   40.3379   47.1320
C   47.2144   40.3229   48.3218
C   49.3615   39.9311   47.2276
C   47.7340   39.8750   49.5265
C   49.8630   39.4379   48.4324
C   49.0614   39.3976   49.5740
C   51.3136   38.9801   48.5103
C   52.3286   40.1133   48.6566
C   53.0174   40.4739   49.7670
C   53.9783   41.6298   49.6464
C   52.8227   39.7811   51.1032
H   48.6430   45.3369   42.8961
H   45.3401   46.3233   45.5332
H   44.1225   44.5443   46.2786
H   48.1900   41.9737   43.2392
H   46.2206   41.2588   43.4158
H   43.5094   42.6427   43.6950
H   43.8677   38.4538   44.2145
H   45.3197   39.2587   43.5888
H   41.5255   40.7695   44.2951
H   41.8777   39.3164   43.3324
H   41.8853   40.9332   42.5838
H   50.4676   49.5539   42.4001
H   48.1647   52.9721   43.7383
H   46.4254   51.4454   44.7603
H   45.7713   48.5815   45.0594
H   51.0220   51.8113   42.0485
H   45.3656   36.3438   49.1266
H   47.8664   35.8351   45.6507
H   46.9225   37.8971   44.6556
H   47.9049   34.4782   47.5532
H   43.8807   38.1731   49.0341
H   44.1684   39.8431   46.3561
H   45.5635   41.6326   46.3273
H   46.1770   40.6448   48.2979
H   47.1199   39.8862   50.4231
H   49.6204   40.3328   45.3936
H   48.9077   38.8118   51.4422
H   51.4062   38.2879   49.3506
H   51.5225   38.4744   47.5598
H   52.4261   40.7206   47.7539
H   54.4353   41.8818   50.6089
H   53.4699   42.5226   49.2575
H   54.7775   41.3999   48.9289
H   53.0295   38.7663   51.0319
H   51.8486   39.8676   51.4114
H   53.4450   40.2103   51.8518
84
Frame 19: 19
C   46.9951   46.0124   44.1663
O   44.4034   43.8360   45.6676
C   47.7537   45.0512   43.4497
O   48.1352   42.8206   42.7386
C   45.8769   45.6022   44.9276
O   50.2785   52.2739   42.4859
C   47.3594   43.7199   43.4379
O   48.5796   47.7531   43.4125
C   45.4785   44.2708   44.8923
O   47.2144   34.8913   48.1095
C   46.1400   43.3088   44.0777
O   44.1682   38.6104   48.2081
C   45.5718   41.9997   43.8823
O   48.1703   40.8238   44.7810
C   44.1677   41.7807   43.7869
O   50.1855   39.9931   46.1560
C   43.6052   40.5255   43.7999
O   49.5925   38.8693   50.7468
C   44.4429   39.3777   44.2286
C   42.1504   40.3659   43.4837
C   47.4675   49.6512   44.1284
C   48.6290   49.1694   43.4441
C   49.5935   49.9717   42.9000
C   49.3819   51.3667   43.0211
C   48.2476   51.8910   43.6884
C   47.2952   51.0451   44.2447
C   46.7083   48.5265   44.5256
C   47.3562   47.3790   44.0906
C   45.6738   36.7088   48.1497
C   46.6698   35.9970   47.4732
C   47.1096   36.4021   46.1875
C   46.5633   37.5495   45.6228
C   45.5669   38.2870   46.2855
C   45.1324   37.8521   47.5550
C   45.0276   39.5838   45.7153
C   45.9720   40.8273   45.7324
C   47.4169   40.6992   45.8147
C   47.9842   40.3379   47.1322
C   47.2140   40.3230   48.3217
C   49.3613   39.9312   47.2281
C   47.7335   39.8752   49.5265
C   49.8625   39.4379   48.4329
C   49.0602   39.3976   49.5739
C   51.3143   38.9806   48.5112
C   52.3280   40.1139   48.6573
C   53.0124   40.4816   49.7692
C   53.9799   41.6303   49.6443
C   52.8276   39.7851   51.1000
H   48.6427   45.3369   42.8957
H   45.3404   46.3232   45.5336
H   44.1227   44.5443   46.2789
H   48.1899   41.9737   43.2393
H   46.2206   41.2589   43.4159
H   43.5093   42.6427   43.6953
H   43.8680   38.4537   44.2141
H   45.3200   39.2588   43.5886
H   41.5257   40.7676   44.2944
H   41.8787   39.3165   43.3302
H   41.8854   40.9338   42.5839
H   50.4671   49.5539   42.3992
H   48.1653   52.9721   43.7390
H   46.4259   51.4454   44.7608
H   45.7715   48.5815   45.0597
H   51.0221   51.8112   42.0486
H   45.3650   36.3433   49.1261
H   47.8663   35.8349   45.6505
H   46.9224   37.8969   44.6555
H   47.9041   34.4775   47.5526
H   43.8815   38.1736   49.0343
H   44.1683   39.8429   46.3558
H   45.5634   41.6325   46.3273
H   46.1766   40.6448   48.2976
H   47.1184   39.8859   50.4225
H   49.6206   40.3330   45.3942
H   48.9040   38.8061   51.4386
H   51.4095   38.2840   49.3475
H   51.5217   38.4769   47.5593
H   52.4270   40.7198   47.7542
H   54.4421   41.8813   50.6038
H   53.4756   42.5254   49.2559
H   54.7755   41.3983   48.9242
H   53.3361   38.7772   51.0709
H   51.7447   39.5853   51.3166
H   53.2983   40.3638   51.9250
84
Frame 20: 20
C   46.9928   46.0122   44.1651
O   44.4112   43.8322   45.6796
C   47.7499   45.0514   43.4461
O   48.1353   42.8192   42.7418
C   45.8796   45.6008   44.9333
O   50.2859   52.2717   42.4930
C   47.3588   43.7194   43.4391
O   48.5695   47.7526   43.3957
C   45.4821   44.2689   44.8997
O   47.1947   34.8726   48.0936
C   46.1412   43.3080   44.0819
O   44.1814   38.6180   48.2105
C   45.5727   42.0000   43.8838
O   48.1714   40.8228   44.7891
C   44.1691   41.7798   43.7867
O   50.1844   40.0038   46.1762
C   43.6111   40.5224   43.7892
O   49.5738   38.8772   50.7656
C   44.4498   39.3757   44.2196
C   42.1595   40.3569   43.4616
C   47.4691   49.6508   44.1289
C   48.6232   49.1685   43.4326
C   49.5874   49.9699   42.8867
C   49.3854   51.3650   43.0225
C   48.2574   51.8900   43.7001
C   47.3039   51.0447   44.2554
C   46.7103   48.5265   44.5286
C   47.3525   47.3789   44.0854
C   45.6677   36.7014   48.1414
C   46.6594   35.9858   47.4624
C   47.1039   36.3942   46.1794
C   46.5624   37.5452   45.6175
C   45.5665   38.2833   46.2802
C   45.1340   37.8504   47.5510
C   45.0271   39.5798   45.7094
C   45.9699   40.8240   45.7333
C   47.4146   40.6975   45.8201
C   47.9767   40.3382   47.1405
C   47.2013   40.3214   48.3266
C   49.3544   39.9376   47.2438
C   47.7167   39.8747   49.5337
C   49.8524   39.4461   48.4506
C   49.0451   39.4008   49.5881
C   51.3068   38.9983   48.5274
C   52.3101   40.1412   48.6617
C   53.0235   40.4980   49.7585
C   54.0017   41.6363   49.6151
C   52.8907   39.7749   51.0824
H   48.6357   45.3381   42.8875
H   45.3458   46.3210   45.5427
H   44.1273   44.5424   46.2874
H   48.1910   41.9734   43.2442
H   46.2223   41.2595   43.4177
H   43.5089   42.6410   43.7010
H   43.8774   38.4502   44.2002
H   45.3303   39.2604   43.5835
H   41.5273   40.7277   44.2818
H   41.8999   39.3089   43.2771
H   41.8923   40.9474   42.5769
H   50.4544   49.5514   42.3749
H   48.1812   52.9711   43.7598
H   46.4394   51.4456   44.7792
H   45.7780   48.5818   45.0706
H   51.0249   51.8085   42.0483
H   45.3556   36.3334   49.1159
H   47.8610   35.8274   45.6428
H   46.9245   37.8949   44.6520
H   47.8808   34.4554   47.5348
H   43.8993   38.1858   49.0407
H   44.1647   39.8367   46.3464
H   45.5586   41.6278   46.3281
H   46.1634   40.6407   48.2981
H   47.0957   39.8830   50.4257
H   49.6223   40.3403   45.4112
H   48.8737   38.7923   51.4438
H   51.4124   38.3038   49.3644
H   51.5124   38.4932   47.5759
H   52.3816   40.7579   47.7630
H   54.5012   41.8679   50.5614
H   53.4978   42.5431   49.2543
H   54.7689   41.3998   48.8652
H   53.3827   38.7953   51.0520
H   51.8399   39.6001   51.3299
H   53.3422   40.3474   51.8970
84
Frame 21: 21
C   46.9896   46.0115   44.1625
O   44.4176   43.8273   45.6889
C   47.7462   45.0512   43.4424
O   48.1394   42.8167   42.7492
C   45.8809   45.5988   44.9370
O   50.2950   52.2679   42.5003
C   47.3599   43.7180   43.4420
O   48.5556   47.7515   43.3724
C   45.4852   44.2662   44.9056
O   47.1645   34.8414   48.0656
C   46.1437   43.3060   44.0866
O   44.2009   38.6255   48.2147
C   45.5758   41.9985   43.8860
O   48.1717   40.8239   44.8049
C   44.1732   41.7769   43.7835
O   50.1817   40.0227   46.2074
C   43.6200   40.5174   43.7751
O   49.5636   38.9224   50.7983
C   44.4593   39.3720   44.2084
C   42.1724   40.3459   43.4329
C   47.4733   49.6496   44.1327
C   48.6159   49.1667   43.4176
C   49.5789   49.9671   42.8682
C   49.3907   51.3621   43.0248
C   48.2734   51.8877   43.7197
C   47.3191   51.0433   44.2751
C   46.7149   48.5259   44.5352
C   47.3478   47.3783   44.0786
C   45.6593   36.6876   48.1278
C   46.6445   35.9675   47.4442
C   47.0976   36.3837   46.1667
C   46.5630   37.5405   45.6102
C   45.5666   38.2775   46.2730
C   45.1368   37.8456   47.5450
C   45.0259   39.5735   45.7026
C   45.9650   40.8200   45.7365
C   47.4093   40.6968   45.8314
C   47.9638   40.3404   47.1558
C   47.1803   40.3172   48.3368
C   49.3436   39.9509   47.2686
C   47.6906   39.8767   49.5489
C   49.8369   39.4656   48.4793
C   49.0252   39.4216   49.6138
C   51.2899   39.0169   48.5615
C   52.2973   40.1597   48.6621
C   53.0638   40.4984   49.7304
C   54.0105   41.6610   49.5669
C   52.9622   39.7406   51.0398
H   48.6286   45.3391   42.8792
H   45.3484   46.3184   45.5484
H   44.1281   44.5401   46.2911
H   48.1961   41.9728   43.2545
H   46.2276   41.2583   43.4225
H   43.5111   42.6370   43.7008
H   43.8905   38.4446   44.1821
H   45.3448   39.2617   43.5781
H   41.5312   40.6944   44.2556
H   41.9237   39.2997   43.2262
H   41.9065   40.9508   42.5580
H   50.4357   49.5480   42.3398
H   48.2062   52.9686   43.7930
H   46.4627   51.4447   44.8117
H   45.7898   48.5815   45.0894
H   51.0261   51.8042   42.0432
H   45.3440   36.3161   49.0998
H   47.8567   35.8191   45.6306
H   46.9300   37.8949   44.6483
H   47.8454   34.4202   47.5035
H   43.9320   38.2031   49.0544
H   44.1587   39.8260   46.3348
H   45.5482   41.6219   46.3300
H   46.1396   40.6262   48.2998
H   47.0587   39.8727   50.4338
H   49.6232   40.3535   45.4377
H   48.8728   38.8650   51.4889
H   51.3971   38.3473   49.4185
H   51.4888   38.4860   47.6212
H   52.3323   40.7817   47.7646
H   54.5460   41.8879   50.4948
H   53.4703   42.5624   49.2454
H   54.7488   41.4566   48.7783
H   53.1256   38.5973   50.8570
H   51.8971   39.8742   51.4663
H   53.7420   40.1227   51.8067
84
Frame 22: 22
C   46.9871   46.0111   44.1607
O   44.4189   43.8254   45.6917
C   47.7439   45.0508   43.4408
O   48.1425   42.8150   42.7550
C   45.8801   45.5981   44.9376
O   50.3004   52.2648   42.5035
C   47.3608   43.7169   43.4446
O   48.5462   47.7509   43.3575
C   45.4856   44.2650   44.9078
O   47.1400   34.8167   48.0430
C   46.1451   43.3047   44.0899
O   44.2040   38.6207   48.2137
C   45.5783   41.9968   43.8895
O   48.1688   40.8262   44.8164
C   44.1763   41.7743   43.7816
O   50.1775   40.0349   46.2226
C   43.6259   40.5136   43.7675
O   49.5739   38.9682   50.8190
C   44.4655   39.3695   44.2036
C   42.1812   40.3387   43.4154
C   47.4775   49.6485   44.1372
C   48.6115   49.1655   43.4087
C   49.5732   49.9653   42.8561
C   49.3944   51.3597   43.0264
C   48.2856   51.8856   43.7343
C   47.3313   51.0418   44.2908
C   46.7192   48.5252   44.5413
C   47.3450   47.3778   44.0748
C   45.6409   36.6674   48.1106
C   46.6311   35.9521   47.4294
C   47.0984   36.3807   46.1610
C   46.5681   37.5416   45.6089
C   45.5680   38.2748   46.2704
C   45.1328   37.8370   47.5385
C   45.0251   39.5700   45.7007
C   45.9603   40.8190   45.7415
C   47.4041   40.6982   45.8412
C   47.9557   40.3428   47.1670
C   47.1713   40.3145   48.3474
C   49.3367   39.9603   47.2815
C   47.6870   39.8893   49.5631
C   49.8318   39.4792   48.4925
C   49.0259   39.4458   49.6313
C   51.2821   39.0257   48.5670
C   52.2924   40.1664   48.6532
C   53.0747   40.4918   49.7109
C   54.0269   41.6495   49.5474
C   52.9843   39.7392   51.0235
H   48.6248   45.3391   42.8753
H   45.3473   46.3178   45.5486
H   44.1254   44.5397   46.2902
H   48.1999   41.9725   43.2625
H   46.2318   41.2565   43.4287
H   43.5131   42.6337   43.6988
H   43.8989   38.4409   44.1733
H   45.3543   39.2620   43.5773
H   41.5339   40.6761   44.2377
H   41.9389   39.2933   43.1979
H   41.9171   40.9501   42.5447
H   50.4225   49.5460   42.3161
H   48.2247   52.9662   43.8167
H   46.4810   51.4435   44.8370
H   45.7996   48.5811   45.1045
H   51.0255   51.8009   42.0371
H   45.3095   36.2820   49.0721
H   47.8638   35.8217   45.6280
H   46.9414   37.9018   44.6516
H   47.8243   34.3988   47.4825
H   43.9274   38.1921   49.0477
H   44.1544   39.8185   46.3295
H   45.5395   41.6189   46.3345
H   46.1264   40.6091   48.3073
H   47.0552   39.8848   50.4478
H   49.6204   40.3631   45.4512
H   48.9010   38.9585   51.5298
H   51.3931   38.3610   49.4269
H   51.4752   38.4873   47.6309
H   52.3180   40.7908   47.7579
H   54.5917   41.8461   50.4644
H   53.4865   42.5639   49.2672
H   54.7380   41.4578   48.7323
H   53.1506   38.6861   50.8883
H   51.9938   39.8324   51.4480
H   53.6950   40.0957   51.7447
84
Frame 23: 23
C   46.9869   46.0111   44.1605
O   44.4189   43.8253   45.6919
C   47.7438   45.0507   43.4407
O   48.1426   42.8149   42.7553
C   45.8801   45.5980   44.9376
O   50.3007   52.2646   42.5037
C   47.3608   43.7168   43.4448
O   48.5457   47.7509   43.3567
C   45.4856   44.2649   44.9079
O   47.1386   34.8154   48.0416
C   46.1452   43.3046   44.0902
O   44.2042   38.6203   48.2137
C   45.5786   41.9964   43.8905
O   48.1687   40.8263   44.8170
C   44.1765   41.7741   43.7815
O   50.1773   40.0356   46.2234
C   43.6262   40.5134   43.7671
O   49.5736   38.9701   50.8209
C   44.4658   39.3693   44.2034
C   42.1817   40.3383   43.4144
C   47.4778   49.6484   44.1375
C   48.6112   49.1655   43.4083
C   49.5729   49.9653   42.8555
C   49.3946   51.3596   43.0265
C   48.2863   51.8854   43.7351
C   47.3320   51.0416   44.2916
C   46.7195   48.5252   44.5416
C   47.3448   47.3778   44.0746
C   45.6403   36.6668   48.1100
C   46.6303   35.9512   47.4285
C   47.0983   36.3804   46.1608
C   46.5684   37.5416   45.6090
C   45.5681   38.2747   46.2703
C   45.1327   37.8366   47.5382
C   45.0251   39.5699   45.7005
C   45.9601   40.8192   45.7413
C   47.4038   40.6984   45.8416
C   47.9553   40.3430   47.1676
C   47.1708   40.3146   48.3479
C   49.3365   39.9608   47.2824
C   47.6868   39.8898   49.5636
C   49.8318   39.4795   48.4934
C   49.0255   39.4465   49.6317
C   51.2824   39.0252   48.5653
C   52.2930   40.1649   48.6528
C   53.0702   40.4964   49.7124
C   54.0284   41.6480   49.5448
C   52.9857   39.7416   51.0234
H   48.6245   45.3391   42.8751
H   45.3472   46.3178   45.5485
H   44.1252   44.5397   46.2900
H   48.2003   41.9725   43.2629
H   46.2321   41.2564   43.4290
H   43.5134   42.6335   43.6983
H   43.8992   38.4407   44.1730
H   45.3546   39.2618   43.5773
H   41.5340   40.6750   44.2366
H   41.9398   39.2931   43.1963
H   41.9177   40.9501   42.5440
H   50.4216   49.5460   42.3148
H   48.2258   52.9659   43.8180
H   46.4821   51.4433   44.8383
H   45.8002   48.5810   45.1053
H   51.0254   51.8008   42.0368
H   45.3094   36.2819   49.0715
H   47.8641   35.8218   45.6280
H   46.9421   37.9021   44.6519
H   47.8229   34.3976   47.4812
H   43.9271   38.1914   49.0473
H   44.1544   39.8182   46.3293
H   45.5390   41.6187   46.3347
H   46.1260   40.6088   48.3079
H   47.0553   39.8858   50.4486
H   49.6203   40.3639   45.4521
H   48.8960   38.9500   51.5259
H   51.3966   38.3557   49.4210
H   51.4729   38.4903   47.6266
H   52.3209   40.7883   47.7568
H   54.5997   41.8410   50.4577
H   53.4919   42.5654   49.2688
H   54.7330   41.4545   48.7258
H   53.4470   38.7067   50.9299
H   51.9030   39.6059   51.3197
H   53.5259   40.3015   51.8411
84
Frame 24: 24
C   46.9858   46.0109   44.1597
O   44.4188   43.8246   45.6923
C   47.7429   45.0506   43.4401
O   48.1442   42.8143   42.7581
C   45.8793   45.5978   44.9373
O   50.3031   52.2631   42.5048
C   47.3613   43.7163   43.4459
O   48.5414   47.7506   43.3499
C   45.4854   44.2645   44.9083
O   47.1259   34.8022   48.0298
C   46.1456   43.3040   44.0912
O   44.2045   38.6166   48.2128
C   45.5795   41.9960   43.8908
O   48.1679   40.8270   44.8212
C   44.1778   41.7727   43.7806
O   50.1759   40.0399   46.2302
C   43.6290   40.5115   43.7641
O   49.5660   38.9763   50.8279
C   44.4689   39.3681   44.2017
C   42.1858   40.3346   43.4071
C   47.4802   49.6478   44.1402
C   48.6093   49.1649   43.4044
C   49.5702   49.9643   42.8499
C   49.3965   51.3584   43.0273
C   48.2923   51.8843   43.7424
C   47.3382   51.0409   44.2997
C   46.7219   48.5248   44.5452
C   47.3437   47.3776   44.0731
C   45.6350   36.6592   48.1039
C   46.6239   35.9433   47.4214
C   47.0979   36.3780   46.1577
C   46.5712   37.5420   45.6088
C   45.5694   38.2734   46.2696
C   45.1318   37.8328   47.5358
C   45.0254   39.5683   45.7000
C   45.9586   40.8186   45.7435
C   47.4022   40.6991   45.8453
C   47.9524   40.3445   47.1717
C   47.1665   40.3159   48.3510
C   49.3338   39.9637   47.2880
C   47.6827   39.8952   49.5677
C   49.8283   39.4827   48.4993
C   49.0213   39.4512   49.6373
C   51.2797   39.0288   48.5724
C   52.2882   40.1705   48.6562
C   53.0738   40.5041   49.7087
C   54.0399   41.6468   49.5254
C   53.0093   39.7572   51.0246
H   48.6231   45.3392   42.8738
H   45.3460   46.3176   45.5478
H   44.1234   44.5397   46.2889
H   48.2019   41.9723   43.2665
H   46.2339   41.2556   43.4311
H   43.5140   42.6317   43.6976
H   43.9034   38.4388   44.1698
H   45.3591   39.2618   43.5772
H   41.5354   40.6674   44.2288
H   41.9465   39.2896   43.1851
H   41.9228   40.9486   42.5379
H   50.4153   49.5450   42.3034
H   48.2350   52.9647   43.8296
H   46.4915   51.4426   44.8512
H   45.8054   48.5807   45.1133
H   51.0246   51.7992   42.0330
H   45.3012   36.2716   49.0634
H   47.8656   35.8212   45.6258
H   46.9482   37.9055   44.6541
H   47.8097   34.3843   47.4688
H   43.9258   38.1859   49.0449
H   44.1532   39.8150   46.3274
H   45.5357   41.6179   46.3358
H   46.1209   40.6073   48.3093
H   47.0516   39.8945   50.4528
H   49.6194   40.3673   45.4580
H   48.8842   38.9496   51.5285
H   51.3952   38.3594   49.4281
H   51.4697   38.4935   47.6338
H   52.3100   40.7934   47.7597
H   54.6403   41.8233   50.4233
H   53.5072   42.5740   49.2740
H   54.7181   41.4528   48.6838
H   53.4488   38.7595   50.9388
H   51.9731   39.6233   51.3434
H   53.5417   40.2883   51.8135
84
Frame 25: 25
C   46.9849   46.0108   44.1590
O   44.4185   43.8241   45.6921
C   47.7424   45.0505   43.4397
O   48.1456   42.8137   42.7603
C   45.8786   45.5976   44.9369
O   50.3047   52.2619   42.5053
C   47.3617   43.7159   43.4468
O   48.5382   47.7503   43.3449
C   45.4851   44.2641   44.9083
O   47.1158   34.7918   48.0204
C   46.1460   43.3036   44.0919
O   44.2046   38.6136   48.2120
C   45.5804   41.9954   43.8914
O   48.1679   40.8274   44.8250
C   44.1790   41.7715   43.7798
O   50.1748   40.0428   46.2368
C   43.6311   40.5098   43.7620
O   49.5646   38.9899   50.8361
C   44.4712   39.3670   44.2006
C   42.1888   40.3318   43.4020
C   47.4822   49.6474   44.1426
C   48.6080   49.1644   43.4017
C   49.5682   49.9637   42.8458
C   49.3979   51.3575   43.0279
C   48.2971   51.8835   43.7481
C   47.3432   51.0402   44.3061
C   46.7240   48.5245   44.5481
C   47.3429   47.3774   44.0721
C   45.6310   36.6535   48.0993
C   46.6191   35.9372   47.4159
C   47.0978   36.3762   46.1555
C   46.5737   37.5424   45.6088
C   45.5707   38.2725   46.2692
C   45.1313   37.8298   47.5339
C   45.0259   39.5672   45.6998
C   45.9577   40.8182   45.7449
C   47.4012   40.6998   45.8484
C   47.9500   40.3464   47.1757
C   47.1624   40.3169   48.3538
C   49.3320   39.9678   47.2941
C   47.6778   39.8999   49.5723
C   49.8256   39.4898   48.5071
C   49.0173   39.4593   49.6442
C   51.2752   39.0323   48.5823
C   52.2890   40.1703   48.6566
C   53.0908   40.5006   49.6987
C   54.0444   41.6523   49.5075
C   53.0180   39.7558   51.0155
H   48.6222   45.3391   42.8731
H   45.3448   46.3175   45.5468
H   44.1219   44.5396   46.2876
H   48.2033   41.9722   43.2694
H   46.2355   41.2550   43.4328
H   43.5147   42.6301   43.6966
H   43.9064   38.4374   44.1679
H   45.3623   39.2614   43.5773
H   41.5365   40.6625   44.2230
H   41.9513   39.2868   43.1780
H   41.9267   40.9468   42.5333
H   50.4105   49.5443   42.2950
H   48.2420   52.9637   43.8386
H   46.4990   51.4420   44.8614
H   45.8096   48.5805   45.1197
H   51.0238   51.7980   42.0299
H   45.2956   36.2642   49.0576
H   47.8670   35.8209   45.6242
H   46.9533   37.9082   44.6562
H   47.7990   34.3736   47.4589
H   43.9249   38.1816   49.0431
H   44.1527   39.8127   46.3262
H   45.5333   41.6172   46.3366
H   46.1160   40.6050   48.3099
H   47.0451   39.8994   50.4563
H   49.6187   40.3687   45.4637
H   48.8858   38.9695   51.5398
H   51.3847   38.3687   49.4430
H   51.4632   38.4893   47.6474
H   52.3043   40.7918   47.7589
H   54.6626   41.8235   50.3941
H   53.4997   42.5782   49.2786
H   54.7044   41.4734   48.6485
H   53.2122   38.6490   50.8655
H   51.9817   39.8500   51.4513
H   53.7669   40.1583   51.7505
84
Frame 26: 26
C   46.9838   46.0105   44.1581
O   44.4175   43.8236   45.6912
C   47.7417   45.0501   43.4394
O   48.1473   42.8129   42.7632
C   45.8775   45.5973   44.9360
O   50.3066   52.2604   42.5057
C   47.3621   43.7154   43.4479
O   48.5344   47.7499   43.3389
C   45.4844   44.2637   44.9079
O   47.1024   34.7778   48.0077
C   46.1463   43.3029   44.0926
O   44.2047   38.6094   48.2111
C   45.5814   41.9944   43.8923
O   48.1670   40.8281   44.8298
C   44.1803   41.7698   43.7787
O   50.1724   40.0459   46.2438
C   43.6337   40.5076   43.7597
O   49.5640   39.0091   50.8454
C   44.4740   39.3654   44.1996
C   42.1924   40.3281   43.3962
C   47.4851   49.6466   44.1461
C   48.6067   49.1637   43.3987
C   49.5659   49.9627   42.8407
C   49.3997   51.3563   43.0286
C   48.3033   51.8823   43.7556
C   47.3499   51.0392   44.3148
C   46.7269   48.5240   44.5523
C   47.3422   47.3770   44.0711
C   45.6259   36.6458   48.0933
C   46.6126   35.9290   47.4085
C   47.0978   36.3738   46.1526
C   46.5771   37.5431   45.6091
C   45.5724   38.2715   46.2689
C   45.1306   37.8258   47.5317
C   45.0264   39.5658   45.6997
C   45.9559   40.8181   45.7468
C   47.3992   40.7011   45.8524
C   47.9464   40.3490   47.1806
C   47.1576   40.3188   48.3580
C   49.3285   39.9724   47.3004
C   47.6740   39.9080   49.5784
C   49.8219   39.4975   48.5143
C   49.0146   39.4713   49.6521
C   51.2704   39.0376   48.5895
C   52.2870   40.1730   48.6516
C   53.0976   40.4987   49.6876
C   54.0547   41.6469   49.4927
C   53.0330   39.7590   51.0081
H   48.6213   45.3389   42.8724
H   45.3428   46.3174   45.5450
H   44.1195   44.5396   46.2855
H   48.2051   41.9719   43.2732
H   46.2374   41.2540   43.4350
H   43.5155   42.6279   43.6949
H   43.9102   38.4353   44.1657
H   45.3662   39.2609   43.5777
H   41.5378   40.6572   44.2160
H   41.9567   39.2830   43.1707
H   41.9315   40.9435   42.5274
H   50.4045   49.5434   42.2843
H   48.2512   52.9623   43.8502
H   46.5090   51.4410   44.8751
H   45.8154   48.5800   45.1285
H   51.0224   51.7965   42.0254
H   45.2881   36.2541   49.0498
H   47.8688   35.8204   45.6221
H   46.9604   37.9122   44.6592
H   47.7846   34.3593   47.4453
H   43.9233   38.1754   49.0406
H   44.1517   39.8094   46.3250
H   45.5296   41.6166   46.3377
H   46.1100   40.6023   48.3123
H   47.0412   39.9090   50.4623
H   49.6171   40.3703   45.4697
H   48.8876   38.9953   51.5512
H   51.3815   38.3832   49.4572
H   51.4553   38.4845   47.6601
H   52.2986   40.7930   47.7531
H   54.6932   41.7986   50.3684
H   53.5123   42.5807   49.2912
H   54.6942   41.4758   48.6171
H   53.2515   38.6935   50.8798
H   52.0266   39.8232   51.4349
H   53.7428   40.1625   51.7314
84
Frame 27: 27
C   46.9834   46.0104   44.1578
O   44.4171   43.8234   45.6908
C   47.7415   45.0500   43.4393
O   48.1480   42.8126   42.7642
C   45.8771   45.5972   44.9356
O   50.3072   52.2599   42.5057
C   47.3623   43.7152   43.4482
O   48.5330   47.7498   43.3368
C   45.4842   44.2635   44.9076
O   47.0974   34.7727   48.0030
C   46.1464   43.3027   44.0926
O   44.2047   38.6078   48.2106
C   45.5817   41.9942   43.8920
O   48.1675   40.8283   44.8313
C   44.1808   41.7692   43.7782
O   50.1721   40.0466   46.2478
C   43.6345   40.5068   43.7589
O   49.5554   39.0127   50.8514
C   44.4750   39.3649   44.1992
C   42.1936   40.3268   43.3943
C   47.4863   49.6464   44.1475
C   48.6062   49.1634   43.3976
C   49.5650   49.9624   42.8389
C   49.4004   51.3559   43.0289
C   48.3056   51.8818   43.7583
C   47.3524   51.0389   44.3180
C   46.7281   48.5238   44.5539
C   47.3419   47.3769   44.0708
C   45.6238   36.6428   48.0908
C   46.6102   35.9259   47.4057
C   47.0977   36.3729   46.1515
C   46.5784   37.5433   45.6091
C   45.5731   38.2711   46.2687
C   45.1302   37.8242   47.5307
C   45.0267   39.5653   45.6996
C   45.9558   40.8179   45.7470
C   47.3991   40.7014   45.8535
C   47.9453   40.3500   47.1821
C   47.1545   40.3204   48.3580
C   49.3275   39.9737   47.3041
C   47.6691   39.9107   49.5791
C   49.8199   39.4996   48.5191
C   49.0091   39.4735   49.6548
C   51.2690   39.0394   48.5940
C   52.2857   40.1751   48.6530
C   53.0951   40.5078   49.6877
C   54.0602   41.6472   49.4820
C   53.0542   39.7585   51.0032
H   48.6211   45.3388   42.8722
H   45.3421   46.3174   45.5443
H   44.1186   44.5395   46.2846
H   48.2057   41.9718   43.2745
H   46.2381   41.2538   43.4352
H   43.5157   42.6271   43.6943
H   43.9115   38.4346   44.1650
H   45.3675   39.2606   43.5776
H   41.5383   40.6554   44.2137
H   41.9585   39.2817   43.1684
H   41.9331   40.9423   42.5254
H   50.4023   49.5431   42.2805
H   48.2546   52.9617   43.8543
H   46.5127   51.4406   44.8801
H   45.8176   48.5798   45.1317
H   51.0219   51.7960   42.0237
H   45.2845   36.2499   49.0463
H   47.8696   35.8202   45.6214
H   46.9630   37.9135   44.6602
H   47.7794   34.3542   47.4403
H   43.9229   38.1733   49.0397
H   44.1518   39.8085   46.3245
H   45.5288   41.6164   46.3373
H   46.1068   40.6031   48.3103
H   47.0356   39.9133   50.4624
H   49.6172   40.3706   45.4732
H   48.8712   38.9859   51.5505
H   51.3838   38.3854   49.4616
H   51.4514   38.4862   47.6641
H   52.2963   40.7924   47.7525
H   54.7072   41.7957   50.3515
H   53.5243   42.5851   49.2828
H   54.6908   41.4700   48.6015
H   53.5555   38.7426   50.9075
H   51.9822   39.5820   51.3160
H   53.5863   40.3373   51.8082
84
Frame 28: 28
C   46.9824   46.0100   44.1570
O   44.4156   43.8229   45.6892
C   47.7409   45.0496   43.4391
O   48.1498   42.8117   42.7670
C   45.8757   45.5968   44.9343
O   50.3089   52.2582   42.5056
C   47.3628   43.7144   43.4493
O   48.5295   47.7492   43.3311
C   45.4833   44.2630   44.9069
O   47.0826   34.7574   47.9889
C   46.1467   43.3018   44.0933
O   44.2047   38.6030   48.2095
C   45.5829   41.9928   43.8934
O   48.1669   40.8293   44.8362
C   44.1823   41.7672   43.7773
O   50.1700   40.0488   46.2536
C   43.6370   40.5044   43.7569
O   49.5573   39.0227   50.8579
C   44.4778   39.3632   44.1984
C   42.1970   40.3231   43.3893
C   47.4898   49.6454   44.1519
C   48.6051   49.1626   43.3951
C   49.5628   49.9613   42.8340
C   49.4023   51.3545   43.0299
C   48.3123   51.8803   43.7664
C   47.3599   51.0376   44.3277
C   46.7317   48.5230   44.5590
C   47.3415   47.3763   44.0703
C   45.6178   36.6340   48.0839
C   46.6029   35.9168   47.3974
C   47.0972   36.3700   46.1481
C   46.5819   37.5438   45.6093
C   45.5750   38.2699   46.2684
C   45.1294   37.8197   47.5282
C   45.0274   39.5637   45.6997
C   45.9544   40.8177   45.7491
C   47.3975   40.7023   45.8577
C   47.9425   40.3511   47.1869
C   47.1518   40.3204   48.3630
C   49.3248   39.9761   47.3093
C   47.6682   39.9145   49.5848
C   49.8180   39.5035   48.5243
C   49.0096   39.4797   49.6614
C   51.2678   39.0458   48.5978
C   52.2807   40.1847   48.6513
C   53.0976   40.5151   49.6800
C   54.0724   41.6450   49.4654
C   53.0580   39.7797   51.0032
H   48.6204   45.3384   42.8718
H   45.3396   46.3173   45.5418
H   44.1161   44.5393   46.2821
H   48.2077   41.9715   43.2783
H   46.2402   41.2524   43.4378
H   43.5168   42.6247   43.6924
H   43.9150   38.4324   44.1634
H   45.3712   39.2596   43.5781
H   41.5397   40.6512   44.2073
H   41.9633   39.2778   43.1628
H   41.9378   40.9384   42.5199
H   50.3962   49.5421   42.2698
H   48.2643   52.9600   43.8666
H   46.5238   51.4394   44.8951
H   45.8243   48.5790   45.1416
H   51.0201   51.7944   42.0184
H   45.2754   36.2381   49.0371
H   47.8709   35.8191   45.6186
H   46.9704   37.9175   44.6633
H   47.7637   34.3386   47.4252
H   43.9209   38.1664   49.0368
H   44.1513   39.8052   46.3236
H   45.5255   41.6155   46.3389
H   46.1031   40.5997   48.3149
H   47.0356   39.9189   50.4688
H   49.6158   40.3722   45.4784
H   48.8757   39.0003   51.5587
H   51.3877   38.3928   49.4656
H   51.4496   38.4911   47.6689
H   52.2850   40.8025   47.7512
H   54.7505   41.7661   50.3161
H   53.5440   42.5953   49.3042
H   54.6709   41.4762   48.5605
H   53.5290   38.7961   50.9230
H   52.0272   39.6156   51.3271
H   53.5790   40.3336   51.7850
84
Frame 29: 29
C   46.9820   46.0098   44.1567
O   44.4150   43.8227   45.6886
C   47.7407   45.0493   43.4390
O   48.1505   42.8113   42.7682
C   45.8751   45.5967   44.9338
O   50.3095   52.2576   42.5055
C   47.3631   43.7141   43.4498
O   48.5280   47.7490   43.3289
C   45.4830   44.2627   44.9066
O   47.0767   34.7512   47.9831
C   46.1469   43.3014   44.0937
O   44.2048   38.6011   48.2092
C   45.5835   41.9922   43.8941
O   48.1670   40.8296   44.8385
C   44.1830   41.7663   43.7770
O   50.1697   40.0496   46.2568
C   43.6381   40.5034   43.7563
O   49.5589   39.0311   50.8618
C   44.4789   39.3625   44.1983
C   42.1984   40.3217   43.3874
C   47.4913   49.6450   44.1537
C   48.6047   49.1622   43.3941
C   49.5619   49.9609   42.8321
C   49.4031   51.3539   43.0302
C   48.3151   51.8797   43.7697
C   47.3629   51.0370   44.3317
C   46.7332   48.5226   44.5610
C   47.3413   47.3761   44.0701
C   45.6155   36.6305   48.0812
C   46.6001   35.9132   47.3941
C   47.0971   36.3688   46.1468
C   46.5834   37.5440   45.6094
C   45.5759   38.2694   46.2684
C   45.1291   37.8179   47.5273
C   45.0279   39.5631   45.6999
C   45.9543   40.8175   45.7500
C   47.3973   40.7026   45.8597
C   47.9418   40.3518   47.1893
C   47.1503   40.3203   48.3648
C   49.3246   39.9783   47.3126
C   47.6666   39.9161   49.5875
C   49.8177   39.5085   48.5287
C   49.0086   39.4845   49.6653
C   51.2666   39.0489   48.6045
C   52.2843   40.1845   48.6502
C   53.1112   40.5130   49.6726
C   54.0761   41.6504   49.4546
C   53.0480   39.7802   50.9970
H   48.6201   45.3382   42.8717
H   45.3385   46.3172   45.5407
H   44.1152   44.5392   46.2813
H   48.2085   41.9713   43.2799
H   46.2412   41.2518   43.4390
H   43.5174   42.6237   43.6917
H   43.9164   38.4315   44.1630
H   45.3727   39.2592   43.5784
H   41.5403   40.6496   44.2048
H   41.9653   39.2763   43.1608
H   41.9398   40.9368   42.5177
H   50.3937   49.5417   42.2656
H   48.2682   52.9593   43.8714
H   46.5283   51.4388   44.9012
H   45.8271   48.5786   45.1457
H   51.0193   51.7938   42.0163
H   45.2717   36.2333   49.0333
H   47.8715   35.8187   45.6176
H   46.9735   37.9191   44.6646
H   47.7574   34.3324   47.4190
H   43.9203   38.1635   49.0357
H   44.1513   39.8040   46.3234
H   45.5246   41.6151   46.3396
H   46.1013   40.5977   48.3157
H   47.0330   39.9199   50.4708
H   49.6153   40.3720   45.4812
H   48.8808   39.0132   51.5661
H   51.3818   38.4011   49.4764
H   51.4471   38.4876   47.6788
H   52.2856   40.7995   47.7481
H   54.7626   41.7729   50.2978
H   53.5401   42.5974   49.3042
H   54.6651   41.4909   48.5425
H   53.2554   38.6686   50.8592
H   52.0054   39.8634   51.4280
H   53.7893   40.2026   51.7294
84
Frame 30: 30
C   46.9814   46.0093   44.1562
O   44.4135   43.8223   45.6869
C   47.7405   45.0488   43.4390
O   48.1520   42.8103   42.7705
C   45.8740   45.5963   44.9327
O   50.3107   52.2561   42.5052
C   47.3635   43.7134   43.4506
O   48.5253   47.7484   43.3245
C   45.4820   44.2622   44.9057
O   47.0641   34.7382   47.9706
C   46.1469   43.3007   44.0938
O   44.2047   38.5968   48.2083
C   45.5841   41.9913   43.8942
O   48.1665   40.8300   44.8420
C   44.1838   41.7647   43.7760
O   50.1675   40.0516   46.2629
C   43.6398   40.5014   43.7549
O   49.5548   39.0505   50.8715
C   44.4810   39.3610   44.1978
C   42.2009   40.3186   43.3840
C   47.4948   49.6439   44.1580
C   48.6042   49.1613   43.3924
C   49.5602   49.9599   42.8282
C   49.4049   51.3526   43.0311
C   48.3210   51.8782   43.7767
C   47.3697   51.0357   44.3403
C   46.7367   48.5218   44.5659
C   47.3413   47.3754   44.0700
C   45.6105   36.6230   48.0752
C   46.5942   35.9056   47.3869
C   47.0971   36.3666   46.1440
C   46.5867   37.5447   45.6098
C   45.5777   38.2684   46.2683
C   45.1284   37.8140   47.5251
C   45.0284   39.5618   45.7000
C   45.9529   40.8173   45.7512
C   47.3957   40.7038   45.8625
C   47.9384   40.3548   47.1930
C   47.1452   40.3231   48.3674
C   49.3214   39.9830   47.3182
C   47.6613   39.9244   49.5920
C   49.8139   39.5172   48.5359
C   49.0045   39.4971   49.6724
C   51.2611   39.0542   48.6124
C   52.2832   40.1856   48.6456
C   53.1193   40.5096   49.6614
C   54.0863   41.6447   49.4400
C   53.0671   39.7842   50.9908
H   48.6198   45.3377   42.8717
H   45.3365   46.3170   45.5385
H   44.1128   44.5391   46.2788
H   48.2099   41.9709   43.2830
H   46.2425   41.2508   43.4403
H   43.5178   42.6216   43.6900
H   43.9192   38.4297   44.1618
H   45.3755   39.2584   43.5789
H   41.5414   40.6465   44.2003
H   41.9686   39.2729   43.1576
H   41.9431   40.9331   42.5136
H   50.3887   49.5408   42.2568
H   48.2766   52.9576   43.8819
H   46.5381   51.4374   44.9145
H   45.8333   48.5777   45.1547
H   51.0175   51.7924   42.0114
H   45.2635   36.2228   49.0249
H   47.8732   35.8183   45.6155
H   46.9801   37.9228   44.6675
H   47.7441   34.3194   47.4058
H   43.9186   38.1573   49.0333
H   44.1509   39.8012   46.3228
H   45.5216   41.6147   46.3398
H   46.0951   40.5961   48.3159
H   47.0274   39.9301   50.4750
H   49.6139   40.3722   45.4862
H   48.8762   39.0385   51.5756
H   51.3753   38.4162   49.4918
H   51.4386   38.4820   47.6930
H   52.2819   40.7982   47.7421
H   54.7852   41.7532   50.2747
H   53.5531   42.5964   49.3091
H   54.6610   41.4915   48.5178
H   53.3017   38.7223   50.8762
H   52.0601   39.8385   51.4155
H   53.7696   40.2058   51.7098
84
Frame 31: 31
C   46.9811   46.0091   44.1559
O   44.4128   43.8219   45.6860
C   47.7404   45.0485   43.4390
O   48.1528   42.8099   42.7716
C   45.8735   45.5960   44.9321
O   50.3112   52.2554   42.5050
C   47.3638   43.7130   43.4510
O   48.5240   47.7481   43.3225
C   45.4817   44.2619   44.9052
O   47.0580   34.7320   47.9646
C   46.1471   43.3003   44.0938
O   44.2047   38.5948   48.2077
C   45.5846   41.9907   43.8941
O   48.1677   40.8302   44.8440
C   44.1845   41.7638   43.7755
O   50.1675   40.0519   46.2677
C   43.6408   40.5004   43.7543
O   49.5454   39.0506   50.8776
C   44.4820   39.3603   44.1976
C   42.2021   40.3172   43.3825
C   47.4965   49.6434   44.1601
C   48.6040   49.1609   43.3917
C   49.5594   49.9594   42.8264
C   49.4057   51.3520   43.0315
C   48.3239   51.8775   43.7802
C   47.3730   51.0350   44.3446
C   46.7385   48.5213   44.5683
C   47.3414   47.3751   44.0701
C   45.6080   36.6193   48.0722
C   46.5914   35.9020   47.3834
C   47.0971   36.3654   46.1426
C   46.5883   37.5448   45.6098
C   45.5787   38.2679   46.2681
C   45.1281   37.8120   47.5239
C   45.0292   39.5613   45.7000
C   45.9532   40.8170   45.7514
C   47.3961   40.7039   45.8639
C   47.9379   40.3552   47.1950
C   47.1428   40.3242   48.3679
C   49.3207   39.9836   47.3225
C   47.6573   39.9260   49.5929
C   49.8125   39.5182   48.5412
C   49.0002   39.4976   49.6758
C   51.2614   39.0573   48.6167
C   52.2799   40.1920   48.6459
C   53.1134   40.5243   49.6608
C   54.0933   41.6456   49.4265
C   53.0815   39.7913   50.9853
H   48.6198   45.3374   42.8717
H   45.3355   46.3168   45.5374
H   44.1118   44.5388   46.2777
H   48.2107   41.9706   43.2844
H   46.2435   41.2503   43.4407
H   43.5183   42.6206   43.6892
H   43.9204   38.4288   44.1616
H   45.3767   39.2577   43.5789
H   41.5420   40.6452   44.1983
H   41.9702   39.2714   43.1562
H   41.9448   40.9314   42.5118
H   50.3862   49.5404   42.2525
H   48.2807   52.9567   43.8870
H   46.5430   51.4366   44.9211
H   45.8364   48.5771   45.1593
H   51.0165   51.7918   42.0091
H   45.2594   36.2176   49.0207
H   47.8740   35.8178   45.6145
H   46.9833   37.9243   44.6688
H   47.7379   34.3133   47.3995
H   43.9181   38.1547   49.0322
H   44.1514   39.8003   46.3226
H   45.5213   41.6144   46.3395
H   46.0927   40.5968   48.3147
H   47.0226   39.9331   50.4753
H   49.6144   40.3722   45.4905
H   48.8598   39.0264   51.5752
H   51.3849   38.4200   49.4960
H   51.4365   38.4854   47.6967
H   52.2760   40.8017   47.7405
H   54.8026   41.7474   50.2532
H   53.5719   42.6042   49.2980
H   54.6568   41.4832   48.4992
H   53.5937   38.7822   50.8975
H   52.0119   39.6013   51.3002
H   53.6033   40.3867   51.7849
84
Frame 32: 32
C   46.9806   46.0082   44.1557
O   44.4109   43.8215   45.6841
C   47.7400   45.0475   43.4391
O   48.1539   42.8086   42.7738
C   45.8723   45.5954   44.9311
O   50.3125   52.2534   42.5043
C   47.3640   43.7119   43.4520
O   48.5212   47.7471   43.3179
C   45.4806   44.2612   44.9044
O   47.0443   34.7175   47.9499
C   46.1470   43.2992   44.0943
O   44.2044   38.5894   48.2066
C   45.5853   41.9891   43.8955
O   48.1657   40.8309   44.8478
C   44.1854   41.7618   43.7748
O   50.1649   40.0538   46.2703
C   43.6424   40.4981   43.7530
O   49.5527   39.0625   50.8812
C   44.4839   39.3585   44.1972
C   42.2044   40.3140   43.3791
C   47.5013   49.6418   44.1660
C   48.6037   49.1595   43.3903
C   49.5576   49.9580   42.8222
C   49.4079   51.3502   43.0328
C   48.3313   51.8755   43.7891
C   47.3816   51.0331   44.3558
C   46.7433   48.5199   44.5750
C   47.3418   47.3740   44.0707
C   45.6027   36.6108   48.0653
C   46.5849   35.8934   47.3749
C   47.0966   36.3626   46.1386
C   46.5912   37.5452   45.6095
C   45.5802   38.2664   46.2677
C   45.1271   37.8072   47.5213
C   45.0293   39.5595   45.7002
C   45.9512   40.8166   45.7535
C   47.3937   40.7046   45.8675
C   47.9350   40.3558   47.1986
C   47.1408   40.3229   48.3724
C   49.3180   39.9855   47.3250
C   47.6578   39.9274   49.5976
C   49.8113   39.5216   48.5431
C   49.0022   39.5031   49.6798
C   51.2608   39.0635   48.6166
C   52.2758   40.2008   48.6445
C   53.1134   40.5326   49.6555
C   54.1026   41.6441   49.4140
C   53.0806   39.8206   50.9917
H   48.6194   45.3364   42.8718
H   45.3332   46.3165   45.5351
H   44.1094   44.5384   46.2754
H   48.2121   41.9699   43.2874
H   46.2448   41.2487   43.4432
H   43.5189   42.6183   43.6875
H   43.9229   38.4267   44.1602
H   45.3794   39.2568   43.5795
H   41.5428   40.6422   44.1935
H   41.9734   39.2680   43.1530
H   41.9482   40.9276   42.5076
H   50.3804   49.5391   42.2424
H   48.2910   52.9544   43.8999
H   46.5556   51.4345   44.9380
H   45.8447   48.5757   45.1711
H   51.0140   51.7900   42.0029
H   45.2509   36.2058   49.0113
H   47.8750   35.8168   45.6110
H   46.9897   37.9280   44.6713
H   47.7234   34.2989   47.3838
H   43.9156   38.1468   49.0290
H   44.1505   39.7967   46.3221
H   45.5175   41.6132   46.3415
H   46.0898   40.5922   48.3197
H   47.0247   39.9354   50.4812
H   49.6119   40.3736   45.4929
H   48.8711   39.0440   51.5823
H   51.3851   38.4235   49.4934
H   51.4366   38.4935   47.6958
H   52.2684   40.8113   47.7395
H   54.8297   41.7241   50.2278
H   53.5911   42.6114   49.3113
H   54.6443   41.4868   48.4728
H   53.5658   38.8421   50.9280
H   52.0514   39.6496   51.3188
H   53.5950   40.3941   51.7637
84
Frame 33: 33
C   46.9804   46.0079   44.1556
O   44.4104   43.8213   45.6836
C   47.7399   45.0472   43.4391
O   48.1544   42.8082   42.7746
C   45.8719   45.5951   44.9308
O   50.3128   52.2528   42.5040
C   47.3641   43.7115   43.4524
O   48.5203   47.7467   43.3165
C   45.4804   44.2609   44.9042
O   47.0402   34.7131   47.9453
C   46.1472   43.2987   44.0946
O   44.2044   38.5877   48.2063
C   45.5857   41.9886   43.8960
O   48.1662   40.8307   44.8493
C   44.1858   41.7611   43.7748
O   50.1650   40.0539   46.2728
C   43.6430   40.4973   43.7528
O   49.5530   39.0697   50.8845
C   44.4845   39.3580   44.1972
C   42.2052   40.3130   43.3781
C   47.5028   49.6413   44.1679
C   48.6037   49.1591   43.3899
C   49.5570   49.9575   42.8210
C   49.4086   51.3496   43.0332
C   48.3337   51.8748   43.7920
C   47.3844   51.0325   44.3593
C   46.7449   48.5194   44.5771
C   47.3419   47.3736   44.0709
C   45.6012   36.6082   48.0632
C   46.5831   35.8908   47.3723
C   47.0965   36.3617   46.1374
C   46.5922   37.5452   45.6095
C   45.5808   38.2660   46.2676
C   45.1269   37.8057   47.5206
C   45.0297   39.5590   45.7004
C   45.9513   40.8163   45.7541
C   47.3939   40.7045   45.8688
C   47.9348   40.3560   47.2002
C   47.1398   40.3226   48.3733
C   49.3184   39.9870   47.3278
C   47.6561   39.9284   49.5993
C   49.8114   39.5264   48.5473
C   49.0012   39.5074   49.6830
C   51.2605   39.0672   48.6254
C   52.2797   40.2018   48.6430
C   53.1264   40.5317   49.6483
C   54.1061   41.6505   49.4035
C   53.0676   39.8192   50.9843
H   48.6193   45.3361   42.8718
H   45.3325   46.3163   45.5343
H   44.1088   44.5382   46.2749
H   48.2126   41.9696   43.2885
H   46.2454   41.2481   43.4441
H   43.5193   42.6175   43.6872
H   43.9237   38.4261   44.1602
H   45.3801   39.2563   43.5796
H   41.5432   40.6414   44.1922
H   41.9744   39.2669   43.1521
H   41.9494   40.9264   42.5064
H   50.3785   49.5387   42.2393
H   48.2943   52.9536   43.9039
H   46.5596   51.4338   44.9433
H   45.8474   48.5751   45.1749
H   51.0132   51.7895   42.0010
H   45.2483   36.2020   49.0083
H   47.8754   35.8163   45.6100
H   46.9916   37.9290   44.6721
H   47.7190   34.2945   47.3789
H   43.9153   38.1446   49.0283
H   44.1507   39.7959   46.3220
H   45.5172   41.6128   46.3419
H   46.0884   40.5903   48.3195
H   47.0217   39.9351   50.4820
H   49.6116   40.3724   45.4950
H   48.8742   39.0543   51.5880
H   51.3818   38.4382   49.5104
H   51.4358   38.4864   47.7106
H   52.2702   40.8082   47.7353
H   54.8387   41.7370   50.2118
H   53.5872   42.6138   49.3037
H   54.6424   41.4975   48.4587
H   53.2876   38.7074   50.8645
H   52.0227   39.8963   51.4094
H   53.8018   40.2595   51.7126
84
Frame 34: 34
C   46.9803   46.0069   44.1557
O   44.4087   43.8207   45.6817
C   47.7400   45.0461   43.4393
O   48.1554   42.8069   42.7764
C   45.8712   45.5943   44.9300
O   50.3138   52.2510   42.5034
C   47.3644   43.7105   43.4529
O   48.5183   47.7457   43.3131
C   45.4795   44.2601   44.9032
O   47.0307   34.7027   47.9339
C   46.1469   43.2978   44.0942
O   44.2041   38.5834   48.2051
C   45.5857   41.9876   43.8952
O   48.1656   40.8302   44.8518
C   44.1860   41.7596   43.7735
O   50.1627   40.0557   46.2788
C   43.6438   40.4956   43.7516
O   49.5471   39.0901   50.8941
C   44.4855   39.3566   44.1966
C   42.2064   40.3105   43.3759
C   47.5072   49.6396   44.1735
C   48.6039   49.1577   43.3892
C   49.5557   49.9561   42.8178
C   49.4106   51.3479   43.0344
C   48.3402   51.8728   43.7997
C   47.3921   51.0305   44.3691
C   46.7495   48.5179   44.5833
C   47.3428   47.3725   44.0718
C   45.5977   36.6019   48.0578
C   46.5790   35.8849   47.3658
C   47.0969   36.3602   46.1344
C   46.5949   37.5459   45.6092
C   45.5822   38.2650   46.2671
C   45.1264   37.8021   47.5183
C   45.0298   39.5578   45.7002
C   45.9498   40.8159   45.7544
C   47.3921   40.7053   45.8705
C   47.9312   40.3591   47.2031
C   47.1340   40.3260   48.3748
C   49.3148   39.9920   47.3330
C   47.6496   39.9373   49.6028
C   49.8068   39.5355   48.5544
C   48.9956   39.5205   49.6896
C   51.2535   39.0716   48.6331
C   52.2785   40.2005   48.6396
C   53.1343   40.5276   49.6375
C   54.1148   41.6447   49.3863
C   53.0891   39.8245   50.9790
H   48.6194   45.3350   42.8722
H   45.3311   46.3156   45.5328
H   44.1066   44.5378   46.2725
H   48.2134   41.9686   43.2908
H   46.2460   41.2471   43.4443
H   43.5193   42.6157   43.6854
H   43.9252   38.4244   44.1592
H   45.3816   39.2554   43.5797
H   41.5436   40.6393   44.1892
H   41.9760   39.2642   43.1504
H   41.9511   40.9233   42.5035
H   50.3737   49.5376   42.2311
H   48.3032   52.9514   43.9149
H   46.5706   51.4316   44.9580
H   45.8550   48.5735   45.1856
H   51.0110   51.7879   41.9957
H   45.2423   36.1930   49.0008
H   47.8771   35.8164   45.6074
H   46.9970   37.9322   44.6739
H   47.7090   34.2844   47.3667
H   43.9136   38.1384   49.0256
H   44.1502   39.7934   46.3215
H   45.5144   41.6124   46.3412
H   46.0817   40.5896   48.3182
H   47.0145   39.9462   50.4850
H   49.6103   40.3721   45.4996
H   48.8669   39.0798   51.5968
H   51.3709   38.4490   49.5230
H   51.4256   38.4820   47.7236
H   52.2667   40.8038   47.7300
H   54.8510   41.7285   50.1911
H   53.5972   42.6090   49.2905
H   54.6458   41.4907   48.4388
H   53.3357   38.7635   50.8825
H   52.0807   39.8747   51.4015
H   53.7860   40.2653   51.6918
84
Frame 35: 35
C   46.9809   46.0054   44.1562
O   44.4078   43.8195   45.6801
C   47.7406   45.0446   43.4399
O   48.1571   42.8049   42.7786
C   45.8712   45.5929   44.9297
O   50.3150   52.2488   42.5027
C   47.3654   43.7088   43.4540
O   48.5164   47.7442   43.3094
C   45.4794   44.2587   44.9027
O   47.0209   34.6907   47.9210
C   46.1477   43.2962   44.0948
O   44.2041   38.5778   48.2035
C   45.5870   41.9857   43.8962
O   48.1672   40.8301   44.8563
C   44.1875   41.7575   43.7731
O   50.1627   40.0564   46.2862
C   43.6454   40.4934   43.7509
O   49.5385   39.0852   50.9009
C   44.4872   39.3548   44.1964
C   42.2084   40.3081   43.3739
C   47.5132   49.6373   44.1807
C   48.6046   49.1558   43.3889
C   49.5545   49.9543   42.8143
C   49.4133   51.3456   43.0362
C   48.3484   51.8700   43.8095
C   47.4019   51.0277   44.3816
C   46.7558   48.5156   44.5914
C   47.3444   47.3707   44.0735
C   45.5936   36.5938   48.0510
C   46.5747   35.8774   47.3580
C   47.0974   36.3576   46.1306
C   46.5980   37.5457   45.6084
C   45.5841   38.2631   46.2663
C   45.1259   37.7971   47.5154
C   45.0311   39.5560   45.7003
C   45.9502   40.8146   45.7557
C   47.3925   40.7047   45.8740
C   47.9302   40.3582   47.2073
C   47.1313   40.3245   48.3777
C   49.3137   39.9917   47.3396
C   47.6456   39.9354   49.6059
C   49.8055   39.5354   48.5616
C   48.9917   39.5179   49.6949
C   51.2548   39.0765   48.6383
C   52.2733   40.2110   48.6338
C   53.1235   40.5577   49.6296
C   54.1226   41.6525   49.3528
C   53.0837   39.8755   50.9807
H   48.6200   45.3334   42.8727
H   45.3300   46.3145   45.5313
H   44.1054   44.5365   46.2709
H   48.2152   41.9672   43.2937
H   46.2479   41.2451   43.4462
H   43.5207   42.6135   43.6843
H   43.9270   38.4225   44.1588
H   45.3835   39.2537   43.5797
H   41.5448   40.6374   44.1863
H   41.9783   39.2616   43.1490
H   41.9540   40.9202   42.5009
H   50.3683   49.5361   42.2214
H   48.3142   52.9483   43.9285
H   46.5846   51.4285   44.9764
H   45.8650   48.5709   45.1991
H   51.0083   51.7860   41.9894
H   45.2349   36.1813   48.9913
H   47.8791   35.8153   45.6040
H   47.0028   37.9349   44.6755
H   47.6992   34.2730   47.3532
H   43.9127   38.1313   49.0229
H   44.1510   39.7906   46.3213
H   45.5135   41.6108   46.3419
H   46.0789   40.5873   48.3196
H   47.0097   39.9447   50.4874
H   49.6107   40.3720   45.5064
H   48.8532   39.0630   51.5984
H   51.3848   38.4558   49.5285
H   51.4240   38.4855   47.7292
H   52.2594   40.8032   47.7170
H   54.8681   41.7346   50.1493
H   53.6225   42.6253   49.2475
H   54.6420   41.4750   48.4028
H   53.5450   38.8553   50.9267
H   52.0260   39.7421   51.3155
H   53.6335   40.4678   51.7497
84
Frame 36: 36
C   46.9817   46.0034   44.1573
O   44.4063   43.8185   45.6790
C   47.7409   45.0425   43.4407
O   48.1576   42.8027   42.7801
C   45.8713   45.5913   44.9301
O   50.3165   52.2460   42.5022
C   47.3656   43.7068   43.4550
O   48.5149   47.7422   43.3063
C   45.4789   44.2573   44.9026
O   47.0133   34.6801   47.9081
C   46.1475   43.2945   44.0953
O   44.2031   38.5712   48.2017
C   45.5868   41.9840   43.8968
O   48.1648   40.8284   44.8582
C   44.1874   41.7558   43.7726
O   50.1598   40.0569   46.2882
C   43.6455   40.4916   43.7500
O   49.5419   39.0997   50.9052
C   44.4873   39.3531   44.1956
C   42.2088   40.3060   43.3720
C   47.5200   49.6344   44.1889
C   48.6058   49.1534   43.3892
C   49.5537   49.9520   42.8112
C   49.4164   51.3428   43.0384
C   48.3573   51.8667   43.8201
C   47.4127   51.0244   44.3951
C   46.7630   48.5128   44.6006
C   47.3466   47.3684   44.0759
C   45.5903   36.5859   48.0444
C   46.5712   35.8706   47.3500
C   47.0974   36.3551   46.1257
C   46.5997   37.5453   45.6066
C   45.5846   38.2608   46.2648
C   45.1250   37.7917   47.5122
C   45.0303   39.5536   45.6999
C   45.9478   40.8133   45.7567
C   47.3899   40.7039   45.8760
C   47.9269   40.3579   47.2094
C   47.1280   40.3229   48.3798
C   49.3108   39.9932   47.3415
C   47.6435   39.9373   49.6088
C   49.8034   39.5402   48.5640
C   48.9911   39.5248   49.6983
C   51.2530   39.0836   48.6423
C   52.2703   40.2188   48.6304
C   53.1233   40.5698   49.6217
C   54.1269   41.6577   49.3363
C   53.0833   39.9094   50.9838
H   48.6203   45.3312   42.8735
H   45.3296   46.3131   45.5309
H   44.1040   44.5355   46.2698
H   48.2156   41.9652   43.2957
H   46.2480   41.2431   43.4474
H   43.5207   42.6118   43.6833
H   43.9275   38.4206   44.1572
H   45.3841   39.2526   43.5795
H   41.5446   40.6358   44.1836
H   41.9789   39.2595   43.1473
H   41.9551   40.9178   42.4984
H   50.3630   49.5341   42.2120
H   48.3261   52.9447   43.9428
H   46.5998   51.4248   44.9962
H   45.8761   48.5679   45.2141
H   51.0056   51.7836   41.9829
H   45.2294   36.1703   48.9824
H   47.8802   35.8145   45.5992
H   47.0065   37.9372   44.6757
H   47.6914   34.2632   47.3396
H   43.9104   38.1225   49.0193
H   44.1496   39.7866   46.3207
H   45.5100   41.6089   46.3428
H   46.0746   40.5819   48.3212
H   47.0081   39.9468   50.4907
H   49.6077   40.3707   45.5078
H   48.8589   39.0823   51.6049
H   51.3810   38.4681   49.5359
H   51.4232   38.4872   47.7370
H   52.2547   40.8063   47.7107
H   54.8820   41.7291   50.1245
H   53.6327   42.6346   49.2434
H   54.6328   41.4809   48.3793
H   53.5275   38.9064   50.9505
H   52.0496   39.7911   51.3304
H   53.6327   40.4911   51.7282
84
Frame 37: 37
C   46.9841   45.9993   44.1601
O   44.4046   43.8163   45.6775
C   47.7422   45.0382   43.4426
O   48.1583   42.7980   42.7827
C   45.8726   45.5877   44.9316
O   50.3196   52.2407   42.5022
C   47.3662   43.7027   43.4566
O   48.5142   47.7379   43.3033
C   45.4787   44.2542   44.9028
O   47.0064   34.6670   47.8910
C   46.1472   43.2911   44.0958
O   44.2011   38.5606   48.1983
C   45.5861   41.9810   43.8966
O   48.1627   40.8232   44.8610
C   44.1868   41.7531   43.7718
O   50.1559   40.0549   46.2953
C   43.6447   40.4890   43.7493
O   49.5376   39.1300   50.9184
C   44.4865   39.3504   44.1948
C   42.2082   40.3036   43.3707
C   47.5319   49.6288   44.2029
C   48.6092   49.1486   43.3912
C   49.5537   49.9472   42.8080
C   49.4224   51.3374   43.0429
C   48.3722   51.8605   43.8371
C   47.4305   51.0181   44.4168
C   46.7754   48.5073   44.6160
C   47.3514   47.3638   44.0811
C   45.5868   36.5748   48.0347
C   46.5684   35.8619   47.3388
C   47.0986   36.3523   46.1187
C   46.6026   37.5450   45.6037
C   45.5856   38.2574   46.2625
C   45.1239   37.7836   47.5072
C   45.0293   39.5502   45.6994
C   45.9452   40.8106   45.7574
C   47.3869   40.7018   45.8784
C   47.9221   40.3585   47.2132
C   47.1208   40.3246   48.3821
C   49.3063   39.9964   47.3486
C   47.6363   39.9486   49.6142
C   49.7986   39.5515   48.5744
C   48.9854   39.5425   49.7080
C   51.2465   39.0905   48.6563
C   52.2702   40.2198   48.6185
C   53.1295   40.5872   49.5991
C   54.1348   41.6662   49.2865
C   53.0732   39.9637   50.9785
H   48.6219   45.3265   42.8755
H   45.3306   46.3099   45.5317
H   44.1023   44.5333   46.2683
H   48.2157   41.9606   43.2986
H   46.2474   41.2397   43.4481
H   43.5203   42.6092   43.6820
H   43.9267   38.4178   44.1559
H   45.3833   39.2502   43.5788
H   41.5436   40.6342   44.1817
H   41.9780   39.2570   43.1467
H   41.9551   40.9147   42.4965
H   50.3563   49.5301   42.1993
H   48.3451   52.9379   43.9655
H   46.6243   51.4178   45.0274
H   45.8947   48.5620   45.2384
H   51.0024   51.7789   41.9740
H   45.2226   36.1541   48.9692
H   47.8831   35.8142   45.5919
H   47.0118   37.9409   44.6756
H   47.6851   34.2521   47.3217
H   43.9061   38.1081   49.0131
H   44.1482   39.7812   46.3203
H   45.5060   41.6060   46.3428
H   46.0660   40.5768   48.3199
H   47.0003   39.9620   50.4956
H   49.6038   40.3643   45.5131
H   48.8560   39.1193   51.6195
H   51.3722   38.4900   49.5603
H   51.4115   38.4764   47.7613
H   52.2545   40.7879   47.6865
H   54.8988   41.7480   50.0654
H   53.6439   42.6437   49.1828
H   54.6296   41.4714   48.3271
H   53.3947   38.9044   50.9535
H   52.0382   39.9716   51.3689
H   53.7196   40.5008   51.6879
84
Frame 38: 38
C   46.9858   45.9964   44.1620
O   44.4034   43.8149   45.6767
C   47.7432   45.0352   43.4439
O   48.1584   42.7948   42.7841
C   45.8736   45.5854   44.9328
O   50.3219   52.2372   42.5026
C   47.3663   43.6999   43.4576
O   48.5142   47.7349   43.3022
C   45.4785   44.2522   44.9030
O   47.0027   34.6595   47.8806
C   46.1468   43.2889   44.0961
O   44.1993   38.5538   48.1960
C   45.5852   41.9792   43.8964
O   48.1604   40.8188   44.8617
C   44.1859   41.7517   43.7713
O   50.1525   40.0521   46.2980
C   43.6435   40.4876   43.7490
O   49.5360   39.1511   50.9260
C   44.4851   39.3488   44.1942
C   42.2069   40.3025   43.3704
C   47.5392   49.6250   44.2112
C   48.6117   49.1453   43.3930
C   49.5543   49.9441   42.8069
C   49.4262   51.3338   43.0460
C   48.3811   51.8564   43.8471
C   47.4412   51.0138   44.4294
C   46.7830   48.5036   44.6251
C   47.3546   47.3606   44.0846
C   45.5838   36.5675   48.0281
C   46.5663   35.8564   47.3317
C   47.0987   36.3505   46.1140
C   46.6037   37.5446   45.6017
C   45.5858   38.2553   46.2609
C   45.1225   37.7784   47.5039
C   45.0281   39.5480   45.6989
C   45.9429   40.8089   45.7575
C   47.3844   40.7002   45.8793
C   47.9187   40.3589   47.2148
C   47.1166   40.3265   48.3833
C   49.3031   39.9980   47.3516
C   47.6330   39.9582   49.6173
C   49.7958   39.5590   48.5793
C   48.9829   39.5554   49.7132
C   51.2435   39.0979   48.6625
C   52.2677   40.2257   48.6124
C   53.1296   40.5991   49.5881
C   54.1377   41.6720   49.2648
C   53.0775   39.9875   50.9723
H   48.6231   45.3231   42.8770
H   45.3317   46.3078   45.5326
H   44.1013   44.5320   46.2675
H   48.2151   41.9574   43.3000
H   46.2463   41.2375   43.4483
H   43.5196   42.6079   43.6814
H   43.9254   38.4162   44.1551
H   45.3820   39.2488   43.5782
H   41.5424   40.6337   44.1812
H   41.9764   39.2558   43.1468
H   41.9541   40.9133   42.4959
H   50.3530   49.5273   42.1929
H   48.3565   52.9335   43.9785
H   46.6389   51.4132   45.0452
H   45.9058   48.5580   45.2524
H   51.0010   51.7757   41.9696
H   45.2167   36.1430   48.9600
H   47.8840   35.8138   45.5869
H   47.0144   37.9431   44.6753
H   47.6822   34.2461   47.3112
H   43.9031   38.0991   49.0091
H   44.1469   39.7778   46.3201
H   45.5031   41.6041   46.3427
H   46.0608   40.5740   48.3193
H   46.9975   39.9757   50.4990
H   49.6004   40.3588   45.5148
H   48.8543   39.1442   51.6271
H   51.3715   38.5070   49.5725
H   51.4064   38.4749   47.7736
H   52.2507   40.7862   47.6762
H   54.9020   41.7588   50.0427
H   53.6495   42.6498   49.1520
H   54.6318   41.4667   48.3074
H   53.4179   38.9425   50.9605
H   52.0482   39.9796   51.3549
H   53.7064   40.5366   51.6795
84
Frame 39: 39
C   46.9896   45.9902   44.1664
O   44.4019   43.8121   45.6769
C   47.7452   45.0285   43.4470
O   48.1576   42.7877   42.7865
C   45.8764   45.5803   44.9363
O   50.3277   52.2293   42.5049
C   47.3664   43.6937   43.4598
O   48.5161   47.7282   43.3020
C   45.4786   44.2480   44.9046
O   46.9940   34.6435   47.8586
C   46.1458   43.2843   44.0973
O   44.1973   38.5409   48.1927
C   45.5825   41.9754   43.8965
O   48.1552   40.8083   44.8611
C   44.1830   41.7493   43.7718
O   50.1469   40.0464   46.3004
C   43.6395   40.4857   43.7498
O   49.5360   39.1861   50.9370
C   44.4806   39.3461   44.1938
C   42.2025   40.3019   43.3720
C   47.5530   49.6171   44.2262
C   48.6177   49.1380   43.3974
C   49.5573   49.9369   42.8067
C   49.4347   51.3259   43.0524
C   48.3977   51.8478   43.8646
C   47.4604   51.0053   44.4511
C   46.7970   48.4960   44.6413
C   47.3614   47.3538   44.0915
C   45.5771   36.5522   48.0145
C   46.5605   35.8444   47.3160
C   47.0964   36.3452   46.1026
C   46.6036   37.5428   45.5961
C   45.5849   38.2504   46.2575
C   45.1197   37.7677   47.4973
C   45.0250   39.5436   45.6984
C   45.9386   40.8050   45.7579
C   47.3797   40.6955   45.8800
C   47.9135   40.3583   47.2166
C   47.1106   40.3284   48.3846
C   49.2984   40.0002   47.3553
C   47.6293   39.9737   49.6217
C   49.7930   39.5727   48.5863
C   48.9808   39.5771   49.7206
C   51.2414   39.1138   48.6719
C   52.2645   40.2414   48.6037
C   53.1283   40.6307   49.5714
C   54.1436   41.6899   49.2250
C   53.0768   40.0506   50.9692
H   48.6255   45.3155   42.8802
H   45.3350   46.3032   45.5360
H   44.1008   44.5292   46.2682
H   48.2129   41.9499   43.3021
H   46.2428   41.2330   43.4484
H   43.5176   42.6063   43.6820
H   43.9204   38.4139   44.1543
H   45.3770   39.2462   43.5772
H   41.5388   40.6344   44.1829
H   41.9708   39.2554   43.1492
H   41.9499   40.9125   42.4973
H   50.3499   49.5206   42.1844
H   48.3771   52.9244   44.0008
H   46.6643   51.4041   45.0754
H   45.9254   48.5500   45.2764
H   51.0011   51.7684   41.9641
H   45.2051   36.1206   48.9413
H   47.8826   35.8110   45.5744
H   47.0167   37.9460   44.6728
H   47.6745   34.2329   47.2885
H   43.9002   38.0827   49.0037
H   44.1441   39.7713   46.3207
H   45.4983   41.5999   46.3431
H   46.0530   40.5672   48.3180
H   46.9947   39.9968   50.5040
H   49.5942   40.3478   45.5155
H   48.8549   39.1842   51.6387
H   51.3717   38.5334   49.5882
H   51.4023   38.4801   47.7901
H   52.2459   40.7875   47.6589
H   54.9165   41.7776   49.9943
H   53.6638   42.6712   49.1072
H   54.6256   41.4690   48.2650
H   53.4558   39.0181   50.9884
H   52.0431   40.0168   51.3391
H   53.6772   40.6393   51.6710
84
Frame 40: 40
C   46.9985   45.9788   44.1760
O   44.4043   43.8074   45.6850
C   47.7509   45.0154   43.4554
O   48.1579   42.7734   42.7953
C   45.8844   45.5714   44.9460
O   50.3390   52.2153   42.5088
C   47.3685   43.6816   43.4679
O   48.5230   47.7157   43.3055
C   45.4824   44.2405   44.9130
O   46.9575   34.5938   47.7921
C   46.1462   43.2756   44.1042
O   44.1996   38.5131   48.1895
C   45.5779   41.9694   43.9010
O   48.1456   40.7824   44.8598
C   44.1775   41.7483   43.7784
O   50.1373   40.0291   46.3037
C   43.6295   40.4866   43.7570
O   49.5473   39.2782   50.9629
C   44.4686   39.3437   44.1958
C   42.1909   40.3081   43.3829
C   47.5726   49.6038   44.2446
C   48.6289   49.1250   43.4049
C   49.5655   49.9236   42.8090
C   49.4486   51.3121   43.0610
C   48.4205   51.8336   43.8845
C   47.4859   50.9913   44.4759
C   46.8171   48.4832   44.6616
C   47.3736   47.3415   44.1028
C   45.5537   36.5098   47.9752
C   46.5350   35.8071   47.2682
C   47.0806   36.3254   46.0661
C   46.5988   37.5356   45.5786
C   45.5828   38.2392   46.2489
C   45.1128   37.7412   47.4806
C   45.0192   39.5350   45.6994
C   45.9318   40.7958   45.7610
C   47.3722   40.6829   45.8819
C   47.9061   40.3549   47.2206
C   47.1033   40.3330   48.3890
C   49.2926   40.0043   47.3626
C   47.6299   40.0176   49.6342
C   49.7935   39.6075   48.6017
C   48.9855   39.6358   49.7389
C   51.2428   39.1528   48.6920
C   52.2645   40.2796   48.5954
C   53.1335   40.6880   49.5506
C   54.1507   41.7359   49.1770
C   53.0866   40.1403   50.9616
H   48.6319   45.3001   42.8886
H   45.3451   46.2955   45.5460
H   44.1066   44.5245   46.2780
H   48.2087   41.9343   43.3094
H   46.2350   41.2251   43.4514
H   43.5149   42.6075   43.6902
H   43.9057   38.4130   44.1555
H   45.3628   39.2431   43.5761
H   41.5304   40.6442   44.1950
H   41.9544   39.2623   43.1616
H   41.9386   40.9189   42.5082
H   50.3514   49.5077   42.1782
H   48.4040   52.9097   44.0252
H   46.6965   51.3898   45.1087
H   45.9513   48.5373   45.3047
H   51.0062   51.7547   41.9601
H   45.1690   36.0604   48.8891
H   47.8659   35.7954   45.5325
H   47.0189   37.9523   44.6642
H   47.6376   34.1882   47.2179
H   43.9045   38.0485   48.9976
H   44.1404   39.7588   46.3260
H   45.4925   41.5903   46.3473
H   46.0406   40.5480   48.3168
H   46.9980   40.0556   50.5180
H   49.5831   40.3195   45.5157
H   48.8691   39.2917   51.6674
H   51.3776   38.5928   49.6206
H   51.4017   38.5001   47.8237
H   52.2414   40.8062   47.6396
H   54.9304   41.8329   49.9382
H   53.6746   42.7175   49.0466
H   54.6233   41.4961   48.2168
H   53.4697   39.1110   51.0038
H   52.0545   40.1110   51.3350
H   53.6859   40.7471   51.6475
84
Frame 41: 41
C   47.0107   45.9637   44.1897
O   44.4071   43.8028   45.6971
C   47.7578   44.9980   43.4666
O   48.1539   42.7547   42.8038
C   45.8958   45.5603   44.9605
O   50.3595   52.1937   42.5143
C   47.3688   43.6660   43.4772
O   48.5357   47.6976   43.3132
C   45.4866   44.2317   44.9247
O   46.9703   34.5772   47.7423
C   46.1440   43.2654   44.1123
O   44.2107   38.4896   48.1901
C   45.5675   41.9636   43.9049
O   48.1288   40.7509   44.8560
C   44.1655   41.7508   43.7855
O   50.1236   40.0159   46.3055
C   43.6103   40.4923   43.7637
O   49.5485   39.3464   50.9785
C   44.4456   39.3438   44.1942
C   42.1689   40.3230   43.3957
C   47.5996   49.5861   44.2659
C   48.6472   49.1063   43.4161
C   49.5812   49.9037   42.8145
C   49.4711   51.2918   43.0716
C   48.4520   51.8141   43.9058
C   47.5197   50.9731   44.5025
C   46.8434   48.4670   44.6854
C   47.3911   47.3251   44.1183
C   45.5740   36.4951   47.9562
C   46.5416   35.7931   47.2299
C   47.0671   36.3134   46.0197
C   46.5777   37.5247   45.5436
C   45.5713   38.2254   46.2318
C   45.1193   37.7237   47.4685
C   45.0033   39.5248   45.6957
C   45.9178   40.7836   45.7620
C   47.3577   40.6648   45.8812
C   47.8923   40.3435   47.2210
C   47.0889   40.3236   48.3891
C   49.2812   40.0039   47.3663
C   47.6189   40.0320   49.6383
C   49.7871   39.6324   48.6111
C   48.9800   39.6717   49.7486
C   51.2413   39.1941   48.7079
C   52.2525   40.3279   48.5849
C   53.1225   40.7619   49.5278
C   54.1352   41.8042   49.1271
C   53.0815   40.2488   50.9518
H   48.6399   45.2791   42.8998
H   45.3610   46.2860   45.5625
H   44.1145   44.5200   46.2926
H   48.1989   41.9135   43.3155
H   46.2195   41.2164   43.4526
H   43.5077   42.6141   43.7006
H   43.8790   38.4155   44.1516
H   45.3368   39.2428   43.5701
H   41.5139   40.6634   44.2104
H   41.9248   39.2787   43.1755
H   41.9168   40.9353   42.5221
H   50.3604   49.4870   42.1757
H   48.4405   52.8898   44.0500
H   46.7371   51.3723   45.1433
H   45.9837   48.5221   45.3364
H   51.0202   51.7327   41.9582
H   45.2117   36.0492   48.8806
H   47.8422   35.7833   45.4709
H   46.9857   37.9476   44.6269
H   47.6396   34.1718   47.1550
H   43.9253   38.0204   48.9990
H   44.1281   39.7443   46.3289
H   45.4810   41.5775   46.3509
H   46.0238   40.5234   48.3136
H   46.9865   40.0764   50.5215
H   49.5673   40.2942   45.5147
H   48.8716   39.3666   51.6839
H   51.3834   38.6548   49.6475
H   51.4050   38.5251   47.8530
H   52.2219   40.8345   47.6187
H   54.9205   41.9159   49.8805
H   53.6565   42.7826   48.9830
H   54.6006   41.5476   48.1678
H   53.4773   39.2255   51.0200
H   52.0497   40.2166   51.3257
H   53.6735   40.8797   51.6224
84
Frame 42: 42
C   47.0199   45.9476   44.2014
O   44.4046   43.7992   45.7065
C   47.7595   44.9793   43.4739
O   48.1408   42.7350   42.8051
C   45.9039   45.5489   44.9729
O   50.3914   52.1650   42.5246
C   47.3621   43.6498   43.4816
O   48.5498   47.6758   43.3221
C   45.4857   44.2233   44.9335
O   47.0017   34.5713   47.7057
C   46.1356   43.2553   44.1171
O   44.2123   38.4586   48.1866
C   45.5515   41.9574   43.9077
O   48.1084   40.7257   44.8499
C   44.1483   41.7510   43.7938
O   50.1117   40.0241   46.3043
C   43.5872   40.4950   43.7741
O   49.5471   39.3906   50.9830
C   44.4207   39.3419   44.1964
C   42.1429   40.3328   43.4147
C   47.6316   49.5659   44.2889
C   48.6700   49.0835   43.4293
C   49.6036   49.8780   42.8233
C   49.5029   51.2657   43.0861
C   48.4934   51.7905   43.9304
C   47.5613   50.9525   44.5313
C   46.8720   48.4495   44.7095
C   47.4086   47.3068   44.1335
C   45.5922   36.4775   47.9369
C   46.5600   35.7860   47.2012
C   47.0724   36.3147   45.9891
C   46.5686   37.5228   45.5201
C   45.5631   38.2138   46.2191
C   45.1232   37.7036   47.4565
C   44.9876   39.5149   45.6950
C   45.9014   40.7738   45.7632
C   47.3412   40.6529   45.8793
C   47.8784   40.3394   47.2194
C   47.0746   40.3145   48.3871
C   49.2704   40.0134   47.3660
C   47.6072   40.0347   49.6375
C   49.7809   39.6574   48.6133
C   48.9736   39.6956   49.7506
C   51.2403   39.2374   48.7127
C   52.2382   40.3804   48.5698
C   53.1038   40.8405   49.5043
C   54.1064   41.8846   49.0841
C   53.0678   40.3546   50.9378
H   48.6423   45.2566   42.9062
H   45.3746   46.2764   45.5778
H   44.1180   44.5166   46.3048
H   48.1830   41.8931   43.3161
H   46.1985   41.2072   43.4528
H   43.4942   42.6173   43.7125
H   43.8512   38.4154   44.1537
H   45.3079   39.2407   43.5667
H   41.4943   40.6780   44.2325
H   41.8918   39.2896   43.1972
H   41.8891   40.9454   42.5416
H   50.3755   49.4594   42.1771
H   48.4890   52.8658   44.0786
H   46.7860   51.3535   45.1799
H   46.0178   48.5071   45.3676
H   51.0451   51.7024   41.9615
H   45.2409   36.0257   48.8625
H   47.8484   35.7930   45.4337
H   46.9651   37.9516   44.6011
H   47.6693   34.1732   47.1118
H   43.9340   37.9826   48.9940
H   44.1161   39.7287   46.3351
H   45.4659   41.5667   46.3541
H   46.0073   40.5015   48.3101
H   46.9733   40.0732   50.5199
H   49.5517   40.2886   45.5113
H   48.8707   39.4098   51.6888
H   51.3907   38.7136   49.6596
H   51.4092   38.5575   47.8675
H   52.2012   40.8703   47.5954
H   54.8922   42.0157   49.8340
H   53.6189   42.8564   48.9249
H   54.5722   41.6161   48.1284
H   53.4782   39.3388   51.0262
H   52.0360   40.3150   51.3110
H   53.6498   41.0067   51.5965
84
Frame 43: 43
C   47.0259   45.9314   44.2101
O   44.3987   43.7967   45.7139
C   47.7577   44.9604   43.4786
O   48.1241   42.7147   42.8049
C   45.9082   45.5381   44.9820
O   50.4301   52.1326   42.5392
C   47.3520   43.6333   43.4842
O   48.5634   47.6526   43.3302
C   45.4813   44.2154   44.9400
O   47.0337   34.5660   47.6681
C   46.1239   43.2452   44.1203
O   44.2137   38.4266   48.1844
C   45.5328   41.9507   43.9107
O   48.0859   40.7016   44.8428
C   44.1285   41.7497   43.8033
O   50.1008   40.0430   46.3006
C   43.5626   40.4957   43.7874
O   49.5478   39.4239   50.9826
C   44.3954   39.3392   44.2019
C   42.1153   40.3391   43.4376
C   47.6634   49.5450   44.3096
C   48.6938   49.0590   43.4423
C   49.6291   49.8496   42.8341
C   49.5391   51.2370   43.1027
C   48.5382   51.7652   43.9549
C   47.6039   50.9310   44.5580
C   46.8984   48.4322   44.7297
C   47.4239   47.2882   44.1459
C   45.6097   36.4591   47.9173
C   46.5794   35.7797   47.1727
C   47.0812   36.3193   45.9610
C   46.5655   37.5260   45.5016
C   45.5574   38.2043   46.2095
C   45.1276   37.6836   47.4458
C   44.9726   39.5060   45.6970
C   45.8843   40.7661   45.7655
C   47.3238   40.6437   45.8774
C   47.8654   40.3387   47.2171
C   47.0622   40.3061   48.3852
C   49.2609   40.0280   47.3634
C   47.5984   40.0348   49.6357
C   49.7767   39.6837   48.6117
C   48.9695   39.7154   49.7493
C   51.2416   39.2835   48.7118
C   52.2243   40.4378   48.5562
C   53.0838   40.9198   49.4853
C   54.0740   41.9706   49.0526
C   53.0529   40.4516   50.9245
H   48.6412   45.2335   42.9099
H   45.3843   46.2677   45.5891
H   44.1185   44.5141   46.3150
H   48.1649   41.8728   43.3164
H   46.1750   41.1978   43.4534
H   43.4775   42.6186   43.7251
H   43.8236   38.4140   44.1606
H   45.2782   39.2375   43.5660
H   41.4734   40.6890   44.2587
H   41.8582   39.2966   43.2238
H   41.8587   40.9511   42.5649
H   50.3946   49.4285   42.1818
H   48.5418   52.8399   44.1075
H   46.8352   51.3347   45.2127
H   46.0486   48.4928   45.3931
H   51.0773   51.6679   41.9704
H   45.2673   35.9995   48.8423
H   47.8584   35.8067   45.3989
H   46.9551   37.9645   44.5842
H   47.7016   34.1767   47.0687
H   43.9419   37.9428   48.9895
H   44.1049   39.7134   46.3444
H   45.4498   41.5579   46.3584
H   45.9927   40.4799   48.3077
H   46.9639   40.0659   50.5180
H   49.5359   40.2922   45.5059
H   48.8717   39.4374   51.6889
H   51.4004   38.7702   49.6630
H   51.4177   38.5981   47.8725
H   52.1808   40.9166   47.5766
H   54.8585   42.1192   49.8004
H   53.5751   42.9347   48.8828
H   54.5423   41.6966   48.0998
H   53.4795   39.4438   51.0265
H   52.0213   40.4003   51.2969
H   53.6235   41.1213   51.5755
84
Frame 44: 44
C   47.0359   45.9141   44.2234
O   44.3873   43.7986   45.7169
C   47.7681   44.9364   43.5010
O   48.1291   42.6848   42.8424
C   45.9110   45.5294   44.9892
O   50.4622   52.1020   42.5467
C   47.3548   43.6115   43.5082
O   48.5804   47.6287   43.3416
C   45.4761   44.2095   44.9473
O   47.0641   34.5631   47.6143
C   46.1165   43.2346   44.1317
O   44.2048   38.3881   48.1800
C   45.5161   41.9459   43.9166
O   48.0447   40.6371   44.8304
C   44.1111   41.7516   43.8105
O   50.0854   40.0814   46.2946
C   43.5405   40.4995   43.7977
O   49.5528   39.4471   50.9778
C   44.3714   39.3404   44.2095
C   42.0916   40.3478   43.4526
C   47.6877   49.5251   44.3201
C   48.7158   49.0349   43.4526
C   49.6534   49.8220   42.8433
C   49.5686   51.2098   43.1113
C   48.5704   51.7419   43.9643
C   47.6335   50.9113   44.5682
C   46.9188   48.4154   44.7410
C   47.4397   47.2691   44.1577
C   45.6209   36.4379   47.8882
C   46.6013   35.7811   47.1372
C   47.1070   36.3474   45.9388
C   46.5833   37.5576   45.4979
C   45.5528   38.2042   46.2046
C   45.1260   37.6633   47.4325
C   44.9520   39.5029   45.7033
C   45.8594   40.7653   45.7774
C   47.2969   40.6314   45.8805
C   47.8489   40.3454   47.2184
C   47.0493   40.3024   48.3891
C   49.2488   40.0524   47.3601
C   47.5922   40.0351   49.6373
C   49.7722   39.7129   48.6066
C   48.9675   39.7328   49.7464
C   51.2416   39.3285   48.7026
C   52.2112   40.4927   48.5409
C   53.0685   40.9855   49.4660
C   54.0483   42.0435   49.0271
C   53.0456   40.5224   50.9069
H   48.6582   45.2023   42.9389
H   45.3874   46.2639   45.5906
H   44.1121   44.5170   46.3191
H   48.1620   41.8431   43.3582
H   46.1538   41.1886   43.4602
H   43.4642   42.6233   43.7319
H   43.7987   38.4158   44.1685
H   45.2524   39.2384   43.5712
H   41.4534   40.7019   44.2747
H   41.8297   39.3059   43.2416
H   41.8348   40.9590   42.5793
H   50.4168   49.3979   42.1906
H   48.5782   52.8165   44.1166
H   46.8667   51.3179   45.2234
H   46.0700   48.4797   45.4053
H   51.1070   51.6349   41.9773
H   45.2808   35.9613   48.8056
H   47.8932   35.8517   45.3738
H   46.9879   38.0285   44.6023
H   47.7387   34.1901   47.0118
H   43.9396   37.8927   48.9803
H   44.0849   39.6991   46.3547
H   45.4273   41.5559   46.3725
H   45.9773   40.4626   48.3152
H   46.9598   40.0567   50.5215
H   49.5089   40.2971   45.4968
H   48.8788   39.4523   51.6861
H   51.4087   38.8190   49.6543
H   51.4227   38.6430   47.8645
H   52.1587   40.9688   47.5605
H   54.8336   42.2011   49.7721
H   53.5406   43.0026   48.8560
H   54.5162   41.7707   48.0738
H   53.4848   39.5205   51.0118
H   52.0154   40.4598   51.2813
H   53.6090   41.2013   51.5542
84
Frame 45: 45
C   47.0465   45.8972   44.2407
O   44.3744   43.7997   45.7175
C   47.7832   44.9125   43.5325
O   48.1449   42.6560   42.8945
C   45.9115   45.5212   44.9961
O   50.4957   52.0696   42.5531
C   47.3632   43.5893   43.5406
O   48.6000   47.6039   43.3588
C   45.4704   44.2034   44.9543
O   47.0981   34.5657   47.5765
C   46.1118   43.2235   44.1454
O   44.1993   38.3557   48.1774
C   45.5032   41.9402   43.9232
O   48.0093   40.5913   44.8258
C   44.0974   41.7540   43.8146
O   50.0700   40.1398   46.2862
C   43.5189   40.5054   43.8035
O   49.5633   39.4606   50.9672
C   44.3436   39.3405   44.2122
C   42.0684   40.3626   43.4612
C   47.7097   49.5062   44.3281
C   48.7389   49.0102   43.4652
C   49.6802   49.7927   42.8556
C   49.5984   51.1817   43.1188
C   48.5997   51.7193   43.9676
C   47.6589   50.8934   44.5717
C   46.9363   48.4002   44.7502
C   47.4555   47.2505   44.1722
C   45.6345   36.4222   47.8675
C   46.6197   35.7814   47.1091
C   47.1150   36.3613   45.9132
C   46.5727   37.5657   45.4796
C   45.5386   38.1964   46.1944
C   45.1241   37.6446   47.4212
C   44.9275   39.4948   45.7049
C   45.8345   40.7573   45.7848
C   47.2698   40.6161   45.8837
C   47.8314   40.3476   47.2188
C   47.0369   40.2906   48.3927
C   49.2377   40.0819   47.3543
C   47.5888   40.0256   49.6372
C   49.7705   39.7427   48.5968
C   48.9693   39.7439   49.7395
C   51.2452   39.3776   48.6856
C   52.1986   40.5551   48.5239
C   53.0540   41.0549   49.4469
C   54.0208   42.1243   49.0070
C   53.0415   40.5883   50.8869
H   48.6824   45.1704   42.9814
H   45.3846   46.2607   45.5883
H   44.1050   44.5174   46.3231
H   48.1592   41.8106   43.4081
H   46.1373   41.1794   43.4672
H   43.4561   42.6297   43.7342
H   43.7661   38.4190   44.1701
H   45.2227   39.2355   43.5718
H   41.4338   40.7204   44.2845
H   41.7998   39.3224   43.2505
H   41.8137   40.9755   42.5885
H   50.4441   49.3644   42.2063
H   48.6102   52.7944   44.1165
H   46.8916   51.3042   45.2236
H   46.0862   48.4693   45.4124
H   51.1406   51.5988   41.9868
H   45.3033   35.9361   48.7831
H   47.9070   35.8801   45.3440
H   46.9630   38.0429   44.5820
H   47.7744   34.2043   46.9690
H   43.9414   37.8518   48.9747
H   44.0623   39.6832   46.3607
H   45.4036   41.5465   46.3824
H   45.9627   40.4379   48.3239
H   46.9594   40.0329   50.5238
H   49.4830   40.3310   45.4885
H   48.8920   39.4527   51.6783
H   51.4228   38.8671   49.6350
H   51.4326   38.6973   47.8447
H   52.1350   41.0342   47.5456
H   54.8079   42.2876   49.7489
H   53.5024   43.0787   48.8415
H   54.4870   41.8595   48.0506
H   53.4952   39.5926   50.9885
H   52.0133   40.5105   51.2641
H   53.5972   41.2738   51.5340
84
Frame 46: 46
C   47.0486   45.8844   44.2476
O   44.3724   43.7966   45.7305
C   47.7739   44.8987   43.5294
O   48.1143   42.6452   42.8709
C   45.9155   45.5120   45.0075
O   50.5417   52.0341   42.5693
C   47.3450   43.5787   43.5319
O   48.6145   47.5813   43.3698
C   45.4665   44.1969   44.9628
O   47.1261   34.5575   47.5395
C   46.0978   43.2162   44.1467
O   44.2018   38.3221   48.1747
C   45.4838   41.9348   43.9283
O   47.9977   40.5884   44.8232
C   44.0766   41.7530   43.8295
O   50.0623   40.1494   46.2830
C   43.4936   40.5065   43.8228
O   49.5656   39.4856   50.9665
C   44.3177   39.3377   44.2218
C   42.0397   40.3696   43.4925
C   47.7386   49.4883   44.3428
C   48.7638   48.9862   43.4788
C   49.7106   49.7626   42.8698
C   49.6386   51.1518   43.1344
C   48.6439   51.6955   43.9842
C   47.6977   50.8755   44.5880
C   46.9572   48.3872   44.7636
C   47.4676   47.2348   44.1830
C   45.6499   36.4012   47.8471
C   46.6361   35.7717   47.0808
C   47.1210   36.3614   45.8854
C   46.5680   37.5640   45.4613
C   45.5350   38.1855   46.1858
C   45.1289   37.6227   47.4104
C   44.9174   39.4857   45.7090
C   45.8236   40.7487   45.7855
C   47.2600   40.6096   45.8809
C   47.8232   40.3423   47.2160
C   47.0289   40.2759   48.3893
C   49.2315   40.0907   47.3519
C   47.5833   40.0179   49.6343
C   49.7691   39.7644   48.5957
C   48.9677   39.7567   49.7380
C   51.2497   39.4241   48.6857
C   52.1833   40.6163   48.5158
C   53.0303   41.1370   49.4354
C   53.9782   42.2204   48.9884
C   53.0262   40.6795   50.8783
H   48.6710   45.1539   42.9738
H   45.3966   46.2519   45.6062
H   44.1103   44.5136   46.3402
H   48.1268   41.7971   43.3776
H   46.1124   41.1721   43.4678
H   43.4377   42.6309   43.7541
H   43.7360   38.4186   44.1835
H   45.1900   39.2304   43.5723
H   41.4133   40.7311   44.3205
H   41.7648   39.3304   43.2850
H   41.7805   40.9828   42.6213
H   50.4713   49.3296   42.2199
H   48.6619   52.7704   44.1342
H   46.9336   51.2910   45.2407
H   46.1077   48.4611   45.4260
H   51.1831   51.5594   42.0022
H   45.3264   35.9078   48.7614
H   47.9141   35.8899   45.3099
H   46.9498   38.0480   44.5637
H   47.8021   34.2044   46.9269
H   43.9484   37.8099   48.9682
H   44.0582   39.6697   46.3742
H   45.3945   41.5369   46.3857
H   45.9531   40.4101   48.3193
H   46.9530   40.0158   50.5202
H   49.4738   40.3305   45.4854
H   48.8946   39.4701   51.6775
H   51.4364   38.9224   49.6380
H   51.4475   38.7416   47.8488
H   52.1119   41.0876   47.5343
H   54.7629   42.4017   49.7288
H   53.4432   43.1648   48.8175
H   54.4483   41.9580   48.0333
H   53.4976   39.6925   50.9861
H   51.9995   40.5857   51.2561
H   53.5697   41.3789   51.5210
84
Frame 47: 47
C   47.0494   45.8711   44.2506
O   44.3695   43.7942   45.7422
C   47.7642   44.8837   43.5241
O   48.0870   42.6304   42.8557
C   45.9180   45.5030   45.0150
O   50.5889   51.9988   42.5896
C   47.3278   43.5663   43.5251
O   48.6262   47.5590   43.3756
C   45.4615   44.1904   44.9694
O   47.1491   34.5470   47.5010
C   46.0832   43.2084   44.1478
O   44.2066   38.2908   48.1736
C   45.4639   41.9288   43.9329
O   47.9841   40.5819   44.8188
C   44.0557   41.7511   43.8444
O   50.0554   40.1672   46.2775
C   43.4687   40.5064   43.8430
O   49.5698   39.5097   50.9633
C   44.2930   39.3344   44.2322
C   42.0113   40.3745   43.5263
C   47.7679   49.4691   44.3580
C   48.7874   48.9621   43.4900
C   49.7395   49.7331   42.8825
C   49.6794   51.1218   43.1528
C   48.6907   51.6703   44.0065
C   47.7389   50.8557   44.6087
C   46.9784   48.3727   44.7760
C   47.4783   47.2185   44.1899
C   45.6643   36.3808   47.8272
C   46.6499   35.7611   47.0520
C   47.1250   36.3603   45.8575
C   46.5641   37.5630   45.4442
C   45.5324   38.1753   46.1784
C   45.1345   37.6020   47.4008
C   44.9075   39.4767   45.7139
C   45.8122   40.7407   45.7869
C   47.2491   40.6036   45.8781
C   47.8155   40.3392   47.2124
C   47.0223   40.2628   48.3858
C   49.2265   40.1034   47.3476
C   47.5798   40.0109   49.6305
C   49.7690   39.7881   48.5921
C   48.9679   39.7702   49.7344
C   51.2550   39.4722   48.6827
C   52.1688   40.6790   48.5077
C   53.0058   41.2188   49.4253
C   53.9353   42.3161   48.9737
C   53.0082   40.7687   50.8705
H   48.6589   45.1360   42.9633
H   45.4063   46.2441   45.6185
H   44.1148   44.5109   46.3553
H   48.1036   41.7833   43.3642
H   46.0875   41.1643   43.4685
H   43.4190   42.6309   43.7737
H   43.7080   38.4172   44.1976
H   45.1586   39.2258   43.5742
H   41.3938   40.7390   44.3597
H   41.7306   39.3361   43.3223
H   41.7461   40.9879   42.6570
H   50.4954   49.2964   42.2295
H   48.7179   52.7444   44.1606
H   46.9794   51.2749   45.2645
H   46.1306   48.4508   45.4400
H   51.2254   51.5210   42.0196
H   45.3485   35.8802   48.7404
H   47.9170   35.8962   45.2745
H   46.9388   38.0543   44.5475
H   47.8239   34.2014   46.8828
H   43.9580   37.7709   48.9636
H   44.0543   39.6558   46.3881
H   45.3847   41.5279   46.3896
H   45.9449   40.3841   48.3153
H   46.9493   39.9988   50.5163
H   49.4641   40.3387   45.4800
H   48.8990   39.4850   51.6744
H   51.4502   38.9774   49.6369
H   51.4636   38.7899   47.8484
H   52.0905   41.1441   47.5238
H   54.7166   42.5140   49.7135
H   53.3845   43.2505   48.7985
H   54.4102   42.0573   48.0199
H   53.4968   39.7908   50.9839
H   51.9829   40.6587   51.2479
H   53.5386   41.4809   51.5102
84
Frame 48: 48
C   47.0496   45.8578   44.2524
O   44.3666   43.7912   45.7530
C   47.7539   44.8690   43.5177
O   48.0604   42.6157   42.8406
C   45.9198   45.4939   45.0212
O   50.6361   51.9636   42.6119
C   47.3106   43.5540   43.5178
O   48.6366   47.5372   43.3799
C   45.4564   44.1838   44.9750
O   47.1656   34.5341   47.4638
C   46.0690   43.2003   44.1483
O   44.2120   38.2621   48.1734
C   45.4448   41.9225   43.9374
O   47.9716   40.5752   44.8138
C   44.0355   41.7484   43.8590
O   50.0500   40.1881   46.2715
C   43.4450   40.5054   43.8627
O   49.5756   39.5338   50.9592
C   44.2697   39.3305   44.2425
C   41.9843   40.3779   43.5597
C   47.7971   49.4496   44.3739
C   48.8100   48.9382   43.5008
C   49.7673   49.7040   42.8949
C   49.7202   51.0918   43.1726
C   48.7383   51.6445   44.0314
C   47.7807   50.8351   44.6318
C   46.9994   48.3578   44.7886
C   47.4882   47.2023   44.1958
C   45.6759   36.3605   47.8085
C   46.6593   35.7487   47.0243
C   47.1251   36.3560   45.8302
C   46.5587   37.5597   45.4278
C   45.5296   38.1649   46.1716
C   45.1394   37.5822   47.3921
C   44.8986   39.4675   45.7187
C   45.8019   40.7325   45.7880
C   47.2393   40.5973   45.8748
C   47.8093   40.3366   47.2082
C   47.0174   40.2496   48.3818
C   49.2229   40.1179   47.3427
C   47.5782   40.0039   49.6262
C   49.7705   39.8133   48.5877
C   48.9698   39.7842   49.7301
C   51.2615   39.5221   48.6787
C   52.1551   40.7434   48.4995
C   52.9814   41.3016   49.4157
C   53.8920   42.4132   48.9603
C   52.9902   40.8577   50.8628
H   48.6460   45.1187   42.9517
H   45.4150   46.2362   45.6290
H   44.1192   44.5076   46.3695
H   48.0810   41.7698   43.3507
H   46.0634   41.1564   43.4689
H   43.4008   42.6300   43.7929
H   43.6817   38.4150   44.2116
H   45.1288   39.2208   43.5762
H   41.3756   40.7450   44.3984
H   41.6984   39.3403   43.3589
H   41.7131   40.9916   42.6924
H   50.5178   49.2641   42.2378
H   48.7751   52.7175   44.1911
H   47.0265   51.2576   45.2914
H   46.1538   48.4398   45.4550
H   51.2671   51.4833   42.0380
H   45.3674   35.8538   48.7207
H   47.9147   35.8975   45.2396
H   46.9267   38.0572   44.5318
H   47.8382   34.1944   46.8399
H   43.9676   37.7353   48.9600
H   44.0512   39.6422   46.4014
H   45.3761   41.5186   46.3932
H   45.9387   40.3580   48.3111
H   46.9477   39.9814   50.5117
H   49.4561   40.3496   45.4740
H   48.9054   39.4992   51.6703
H   51.4650   39.0334   49.6344
H   51.4810   38.8407   47.8464
H   52.0698   41.2029   47.5135
H   54.6688   42.6280   49.7001
H   53.3250   43.3370   48.7805
H   54.3725   42.1587   48.0082
H   53.4961   39.8893   50.9808
H   51.9666   40.7310   51.2396
H   53.5070   41.5820   51.4999
84
Frame 49: 49
C   47.0499   45.8446   44.2542
O   44.3648   43.7873   45.7638
C   47.7443   44.8547   43.5116
O   48.0354   42.6015   42.8263
C   45.9220   45.4844   45.0275
O   50.6816   51.9293   42.6349
C   47.2946   43.5419   43.5110
O   48.6463   47.5160   43.3839
C   45.4522   44.1766   44.9809
O   47.1709   34.5165   47.4277
C   46.0560   43.1919   44.1492
O   44.2168   38.2369   48.1738
C   45.4273   41.9157   43.9421
O   47.9605   40.5671   44.8081
C   44.0171   41.7451   43.8731
O   50.0468   40.2139   46.2650
C   43.4235   40.5036   43.8811
O   49.5845   39.5579   50.9539
C   44.2485   39.3261   44.2517
C   41.9599   40.3803   43.5905
C   47.8256   49.4299   44.3904
C   48.8316   48.9148   43.5116
C   49.7939   49.6757   42.9074
C   49.7595   51.0622   43.1930
C   48.7846   51.6185   44.0574
C   47.8217   50.8141   44.6558
C   47.0200   48.3426   44.8018
C   47.4978   47.1861   44.2019
C   45.6820   36.3399   47.7909
C   46.6607   35.7328   46.9974
C   47.1177   36.3458   45.8029
C   46.5498   37.5525   45.4118
C   45.5256   38.1538   46.1655
C   45.1418   37.5633   47.3842
C   44.8905   39.4581   45.7228
C   45.7932   40.7234   45.7888
C   47.2311   40.5898   45.8709
C   47.8051   40.3339   47.2036
C   47.0152   40.2354   48.3774
C   49.2218   40.1351   47.3373
C   47.5796   39.9959   49.6212
C   49.7746   39.8406   48.5824
C   48.9745   39.7985   49.7249
C   51.2704   39.5750   48.6734
C   52.1427   40.8111   48.4913
C   52.9581   41.3866   49.4066
C   53.8492   42.5129   48.9487
C   52.9736   40.9472   50.8549
H   48.6336   45.1019   42.9403
H   45.4237   46.2277   45.6395
H   44.1243   44.5033   46.3835
H   48.0597   41.7564   43.3374
H   46.0411   41.1483   43.4694
H   43.3843   42.6284   43.8117
H   43.6580   38.4120   44.2239
H   45.1017   39.2158   43.5779
H   41.3593   40.7493   44.4343
H   41.6692   39.3435   43.3923
H   41.6830   40.9947   42.7255
H   50.5388   49.2330   42.2458
H   48.8311   52.6903   44.2229
H   47.0728   51.2394   45.3198
H   46.1768   48.4280   45.4708
H   51.3070   51.4467   42.0567
H   45.3800   35.8286   48.7028
H   47.9023   35.8897   45.2038
H   46.9125   38.0554   44.5166
H   47.8399   34.1806   46.7981
H   43.9755   37.7041   48.9574
H   44.0484   39.6295   46.4130
H   45.3695   41.5084   46.3969
H   45.9352   40.3303   48.3071
H   46.9494   39.9619   50.5067
H   49.4504   40.3646   45.4676
H   48.9150   39.5123   51.6651
H   51.4825   39.0918   49.6299
H   51.5011   38.8959   47.8423
H   52.0501   41.2663   47.5040
H   54.6214   42.7437   49.6885
H   53.2661   43.4259   48.7656
H   54.3351   42.2642   47.9977
H   53.4971   39.9885   50.9762
H   51.9522   40.8029   51.2313
H   53.4766   41.6826   51.4904
84
Frame 50: 50
C   47.0527   45.8320   44.2574
O   44.3682   43.7817   45.7775
C   47.7380   44.8415   43.5073
O   48.0162   42.5888   42.8148
C   45.9275   45.4746   45.0358
O   50.7181   51.9004   42.6531
C   47.2833   43.5305   43.5064
O   48.6553   47.4975   43.3874
C   45.4525   44.1685   44.9892
O   47.1478   34.4857   47.3920
C   46.0482   43.1832   44.1524
O   44.2199   38.2187   48.1761
C   45.4149   41.9088   43.9481
O   47.9540   40.5548   44.8012
C   44.0038   41.7424   43.8874
O   50.0512   40.2593   46.2602
C   43.4069   40.5025   43.8970
O   49.5995   39.5776   50.9467
C   44.2318   39.3222   44.2587
C   41.9410   40.3836   43.6166
C   47.8501   49.4122   44.4050
C   48.8501   48.8944   43.5208
C   49.8157   49.6517   42.9173
C   49.7916   51.0370   43.2096
C   48.8229   51.5958   44.0794
C   47.8563   50.7950   44.6768
C   47.0390   48.3282   44.8142
C   47.5077   47.1713   44.2080
C   45.6739   36.3171   47.7751
C   46.6405   35.7060   46.9698
C   47.0880   36.3182   45.7714
C   46.5294   37.5339   45.3938
C   45.5176   38.1404   46.1601
C   45.1375   37.5452   47.3778
C   44.8843   39.4485   45.7259
C   45.7894   40.7120   45.7894
C   47.2279   40.5787   45.8659
C   47.8067   40.3307   47.1980
C   47.0187   40.2155   48.3715
C   49.2272   40.1609   47.3321
C   47.5870   39.9820   49.6147
C   49.7852   39.8727   48.5763
C   48.9855   39.8109   49.7183
C   51.2854   39.6335   48.6666
C   52.1356   40.8852   48.4869
C   52.9407   41.4730   49.4034
C   53.8129   42.6148   48.9475
C   52.9629   41.0318   50.8511
H   48.6245   45.0869   42.9307
H   45.4353   46.2185   45.6520
H   44.1342   44.4970   46.4004
H   48.0423   41.7433   43.3250
H   46.0238   41.1406   43.4704
H   43.3731   42.6275   43.8314
H   43.6395   38.4094   44.2321
H   45.0803   39.2125   43.5789
H   41.3475   40.7536   44.4649
H   41.6460   39.3479   43.4195
H   41.6598   40.9996   42.7542
H   50.5556   49.2072   42.2513
H   48.8770   52.6664   44.2497
H   47.1122   51.2222   45.3448
H   46.1982   48.4161   45.4860
H   51.3385   51.4163   42.0709
H   45.3782   35.8052   48.6887
H   47.8572   35.8537   45.1587
H   46.8899   38.0406   44.4998
H   47.8097   34.1481   46.7557
H   43.9786   37.6817   48.9568
H   44.0470   39.6199   46.4219
H   45.3696   41.4961   46.4013
H   45.9375   40.2945   48.3015
H   46.9572   39.9329   50.4997
H   49.4529   40.3959   45.4623
H   48.9307   39.5174   51.6576
H   51.5060   39.1521   49.6221
H   51.5283   38.9602   47.8342
H   52.0351   41.3406   47.5006
H   54.5804   42.8577   49.6881
H   53.2144   43.5180   48.7652
H   54.3035   42.3756   47.9966
H   53.5038   40.0827   50.9714
H   51.9440   40.8682   51.2264
H   53.4518   41.7753   51.4881
84
Frame 51: 51
C   47.0587   45.8198   44.2622
O   44.3769   43.7747   45.7942
C   47.7357   44.8289   43.5050
O   48.0014   42.5769   42.8048
C   45.9370   45.4643   45.0465
O   50.7450   51.8772   42.6644
C   47.2764   43.5196   43.5036
O   48.6644   47.4814   43.3902
C   45.4576   44.1599   45.0000
O   47.1123   34.4537   47.3645
C   46.0450   43.1745   44.1576
O   44.2154   38.2046   48.1773
C   45.4065   41.9024   43.9549
O   47.9509   40.5384   44.7930
C   43.9944   41.7413   43.9015
O   50.0610   40.3300   46.2569
C   43.3934   40.5035   43.9104
O   49.6198   39.5832   50.9348
C   44.2168   39.3200   44.2633
C   41.9255   40.3903   43.6379
C   47.8714   49.3962   44.4171
C   48.8659   48.8770   43.5275
C   49.8328   49.6319   42.9233
C   49.8162   51.0162   43.2207
C   48.8530   51.5764   44.0956
C   47.8847   50.7780   44.6935
C   47.0570   48.3145   44.8257
C   47.5186   47.1575   44.2144
C   45.6536   36.2942   47.7616
C   46.6095   35.6778   46.9476
C   47.0504   36.2876   45.7457
C   46.4993   37.5091   45.3759
C   45.5036   38.1257   46.1549
C   45.1244   37.5278   47.3718
C   44.8778   39.4396   45.7276
C   45.7890   40.6989   45.7893
C   47.2283   40.5642   45.8593
C   47.8126   40.3256   47.1909
C   47.0273   40.1882   48.3637
C   49.2371   40.1926   47.3256
C   47.6000   39.9577   49.6054
C   49.8005   39.9041   48.5672
C   49.0016   39.8147   49.7082
C   51.3050   39.6931   48.6558
C   52.1313   40.9620   48.4862
C   52.9265   41.5562   49.4072
C   53.7796   42.7157   48.9598
C   52.9561   41.1045   50.8516
H   48.6192   45.0727   42.9232
H   45.4511   46.2084   45.6675
H   44.1491   44.4894   46.4201
H   48.0269   41.7299   43.3118
H   46.0100   41.1333   43.4716
H   43.3666   42.6288   43.8517
H   43.6221   38.4086   44.2368
H   45.0614   39.2104   43.5786
H   41.3381   40.7602   44.4904
H   41.6260   39.3560   43.4400
H   41.6416   41.0093   42.7785
H   50.5684   49.1863   42.2532
H   48.9127   52.6461   44.2695
H   47.1448   51.2064   45.3655
H   46.2188   48.4039   45.5005
H   51.3614   51.3923   42.0785
H   45.3611   35.7826   48.6763
H   47.8068   35.8154   45.1231
H   46.8566   38.0159   44.4803
H   47.7677   34.1131   46.7233
H   43.9716   37.6646   48.9552
H   44.0449   39.6143   46.4281
H   45.3753   41.4823   46.4063
H   45.9451   40.2497   48.2945
H   46.9711   39.8897   50.4899
H   49.4603   40.4421   45.4576
H   48.9523   39.5034   51.6449
H   51.5345   39.2084   49.6076
H   51.5613   39.0309   47.8184
H   52.0215   41.4241   47.5040
H   54.5429   42.9659   49.7024
H   53.1662   43.6101   48.7840
H   54.2742   42.4917   48.0072
H   53.5150   40.1651   50.9652
H   51.9402   40.9188   51.2249
H   53.4302   41.8525   51.4944
84
Frame 52: 52
C   47.0660   45.8061   44.2688
O   44.3826   43.7695   45.8093
C   47.7333   44.8143   43.5042
O   47.9817   42.5639   42.7922
C   45.9469   45.4537   45.0582
O   50.7775   51.8492   42.6756
C   47.2671   43.5075   43.5006
O   48.6761   47.4622   43.3947
C   45.4608   44.1517   45.0104
O   47.0948   34.4309   47.3368
C   46.0389   43.1660   44.1620
O   44.2108   38.1857   48.1759
C   45.3947   41.8964   43.9614
O   47.9429   40.5278   44.7861
C   43.9818   41.7405   43.9158
O   50.0596   40.3764   46.2484
C   43.3767   40.5048   43.9255
O   49.6397   39.5888   50.9215
C   44.1985   39.3175   44.2698
C   41.9067   40.3971   43.6623
C   47.8985   49.3775   44.4324
C   48.8858   48.8562   43.5362
C   49.8541   49.6080   42.9302
C   49.8465   50.9913   43.2329
C   48.8905   51.5535   44.1145
C   47.9207   50.7582   44.7140
C   47.0803   48.2986   44.8411
C   47.5327   47.1414   44.2234
C   45.6411   36.2727   47.7459
C   46.5946   35.6586   46.9274
C   47.0354   36.2743   45.7284
C   46.4822   37.4959   45.3627
C   45.4936   38.1136   46.1496
C   45.1153   37.5102   47.3642
C   44.8698   39.4309   45.7300
C   45.7840   40.6880   45.7905
C   47.2237   40.5533   45.8545
C   47.8135   40.3194   47.1845
C   47.0329   40.1638   48.3580
C   49.2401   40.2130   47.3166
C   47.6115   39.9355   49.5973
C   49.8110   39.9290   48.5559
C   49.0156   39.8169   49.6972
C   51.3199   39.7506   48.6421
C   52.1180   41.0387   48.4803
C   52.9005   41.6446   49.4046
C   53.7274   42.8257   48.9644
C   52.9411   41.1844   50.8461
H   48.6145   45.0559   42.9179
H   45.4682   46.1983   45.6841
H   44.1609   44.4839   46.4378
H   48.0087   41.7159   43.2974
H   45.9926   41.1259   43.4734
H   43.3569   42.6303   43.8716
H   43.6003   38.4085   44.2449
H   45.0381   39.2067   43.5790
H   41.3260   40.7672   44.5193
H   41.6024   39.3643   43.4641
H   41.6193   41.0189   42.8061
H   50.5839   49.1610   42.2549
H   48.9569   52.6222   44.2921
H   47.1863   51.1880   45.3910
H   46.2458   48.3902   45.5203
H   51.3884   51.3631   42.0849
H   45.3485   35.7567   48.6581
H   47.7927   35.8061   45.1041
H   46.8356   38.0040   44.4664
H   47.7480   34.0920   46.6924
H   43.9669   37.6422   48.9512
H   44.0414   39.6056   46.4359
H   45.3745   41.4701   46.4120
H   45.9498   40.2103   48.2918
H   46.9853   39.8507   50.4822
H   49.4566   40.4752   45.4496
H   48.9747   39.4904   51.6317
H   51.5609   39.2648   49.5905
H   51.5901   39.0997   47.8002
H   51.9971   41.5046   47.5011
H   54.4858   43.0877   49.7079
H   53.0941   43.7077   48.7952
H   54.2259   42.6192   48.0098
H   53.5207   40.2567   50.9533
H   51.9298   40.9738   51.2188
H   53.3991   41.9386   51.4934
84
Frame 53: 53
C   47.0723   45.7920   44.2757
O   44.3838   43.7662   45.8216
C   47.7304   44.7989   43.5049
O   47.9615   42.5496   42.7829
C   45.9543   45.4437   45.0684
O   50.8139   51.8179   42.6876
C   47.2567   43.4948   43.4994
O   48.6885   47.4414   43.4001
C   45.4608   44.1446   45.0192
O   47.0857   34.4077   47.2963
C   46.0304   43.1578   44.1664
O   44.2068   38.1580   48.1720
C   45.3809   41.8906   43.9684
O   47.9305   40.5171   44.7817
C   43.9674   41.7389   43.9305
O   50.0526   40.4064   46.2398
C   43.3587   40.5050   43.9434
O   49.6560   39.6073   50.9130
C   44.1793   39.3145   44.2798
C   41.8865   40.4021   43.6904
C   47.9277   49.3575   44.4486
C   48.9076   48.8335   43.5458
C   49.8776   49.5816   42.9381
C   49.8802   50.9637   43.2461
C   48.9319   51.5285   44.1343
C   47.9599   50.7370   44.7353
C   47.1046   48.2823   44.8571
C   47.5470   47.1246   44.2329
C   45.6333   36.2465   47.7226
C   46.5882   35.6406   46.8996
C   47.0332   36.2697   45.7090
C   46.4812   37.4953   45.3548
C   45.4902   38.1044   46.1455
C   45.1102   37.4891   47.3537
C   44.8623   39.4228   45.7354
C   45.7758   40.6800   45.7943
C   47.2155   40.5454   45.8529
C   47.8106   40.3157   47.1813
C   47.0349   40.1458   48.3560
C   49.2387   40.2304   47.3100
C   47.6198   39.9235   49.5935
C   49.8168   39.9554   48.5479
C   49.0257   39.8278   49.6905
C   51.3290   39.8062   48.6316
C   52.1013   41.1100   48.4707
C   52.8718   41.7306   49.3953
C   53.6730   42.9298   48.9564
C   52.9238   41.2690   50.8359
H   48.6100   45.0376   42.9151
H   45.4822   46.1893   45.6981
H   44.1679   44.4807   46.4520
H   47.9899   41.7012   43.2869
H   45.9739   41.1184   43.4769
H   43.3450   42.6306   43.8904
H   43.5775   38.4076   44.2584
H   45.0130   39.2016   43.5825
H   41.3129   40.7735   44.5517
H   41.5775   39.3705   43.4935
H   41.5952   41.0255   42.8366
H   50.6015   49.1326   42.2577
H   49.0058   52.5961   44.3156
H   47.2314   51.1688   45.4174
H   46.2740   48.3765   45.5406
H   51.4190   51.3303   42.0922
H   45.3381   35.7208   48.6284
H   47.7923   35.8081   45.0819
H   46.8374   38.0131   44.4650
H   47.7400   34.0752   46.6497
H   43.9642   37.6084   48.9436
H   44.0382   39.5936   46.4475
H   45.3687   41.4607   46.4190
H   45.9512   40.1766   48.2928
H   46.9966   39.8257   50.4791
H   49.4462   40.4937   45.4421
H   48.9941   39.4950   51.6240
H   51.5809   39.3238   49.5788
H   51.6105   39.1621   47.7883
H   51.9701   41.5744   47.4921
H   54.4268   43.2062   49.6994
H   53.0212   43.7986   48.7898
H   54.1744   42.7357   48.0008
H   53.5219   40.3529   50.9407
H   51.9175   41.0377   51.2097
H   53.3677   42.0310   51.4839
84
Frame 54: 54
C   47.0779   45.7779   44.2825
O   44.3850   43.7625   45.8342
C   47.7268   44.7837   43.5055
O   47.9409   42.5359   42.7734
C   45.9612   45.4335   45.0787
O   50.8512   51.7857   42.7007
C   47.2460   43.4822   43.4982
O   48.7004   47.4204   43.4058
C   45.4607   44.1372   45.0284
O   47.0790   34.3849   47.2568
C   46.0218   43.1495   44.1710
O   44.2082   38.1325   48.1698
C   45.3671   41.8846   43.9754
O   47.9192   40.5082   44.7777
C   43.9530   41.7372   43.9454
O   50.0459   40.4399   46.2323
C   43.3406   40.5051   43.9613
O   49.6707   39.6291   50.9056
C   44.1600   39.3112   44.2889
C   41.8662   40.4072   43.7190
C   47.9567   49.3373   44.4650
C   48.9292   48.8105   43.5558
C   49.9014   49.5546   42.9467
C   49.9144   50.9354   43.2601
C   48.9737   51.5029   44.1546
C   47.9992   50.7154   44.7569
C   47.1286   48.2659   44.8730
C   47.5606   47.1077   44.2424
C   45.6300   36.2222   47.7010
C   46.5825   35.6219   46.8713
C   47.0261   36.2601   45.6851
C   46.4745   37.4889   45.3416
C   45.4864   38.0933   46.1396
C   45.1086   37.4689   47.3438
C   44.8550   39.4134   45.7395
C   45.7678   40.6709   45.7974
C   47.2076   40.5376   45.8511
C   47.8076   40.3125   47.1780
C   47.0367   40.1278   48.3536
C   49.2370   40.2497   47.3040
C   47.6273   39.9125   49.5897
C   49.8218   39.9837   48.5408
C   49.0348   39.8406   49.6843
C   51.3366   39.8625   48.6222
C   52.0839   41.1808   48.4612
C   52.8430   41.8158   49.3854
C   53.6199   43.0309   48.9466
C   52.9057   41.3542   50.8256
H   48.6046   45.0198   42.9119
H   45.4955   46.1800   45.7122
H   44.1752   44.4766   46.4670
H   47.9710   41.6870   43.2764
H   45.9550   41.1110   43.4801
H   43.3331   42.6308   43.9096
H   43.5547   38.4066   44.2705
H   44.9877   39.1970   43.5846
H   41.3002   40.7800   44.5846
H   41.5523   39.3767   43.5237
H   41.5707   41.0321   42.8678
H   50.6194   49.1035   42.2614
H   49.0554   52.5693   44.3398
H   47.2766   51.1494   45.4439
H   46.3016   48.3627   45.5606
H   51.4504   51.2965   42.1008
H   45.3359   35.6897   48.6031
H   47.7836   35.8028   45.0529
H   46.8288   38.0123   44.4544
H   47.7317   34.0570   46.6063
H   43.9689   37.5782   48.9390
H   44.0357   39.5803   46.4581
H   45.3627   41.4499   46.4254
H   45.9526   40.1421   48.2927
H   47.0069   39.8010   50.4757
H   49.4366   40.5157   45.4356
H   49.0120   39.5039   51.6173
H   51.5989   39.3842   49.5687
H   51.6288   39.2245   47.7779
H   51.9430   41.6430   47.4829
H   54.3688   43.3217   49.6891
H   52.9507   43.8867   48.7813
H   54.1240   42.8474   47.9903
H   53.5215   40.4499   50.9291
H   51.9045   41.1032   51.2004
H   53.3354   42.1242   51.4737
