84
Frame 1: 1
C    47.0779    45.7779    44.2825
O    44.3850    43.7625    45.8342
C    47.7268    44.7837    43.5055
O    47.9409    42.5359    42.7734
C    45.9612    45.4335    45.0787
O    50.8512    51.7857    42.7007
C    47.2460    43.4822    43.4982
O    48.7004    47.4204    43.4058
C    45.4607    44.1372    45.0284
O    47.0790    34.3849    47.2568
C    46.0218    43.1495    44.1710
O    44.2082    38.1325    48.1698
C    45.3671    41.8846    43.9754
O    47.9192    40.5082    44.7777
C    43.9530    41.7372    43.9454
O    50.0459    40.4399    46.2323
C    43.3406    40.5051    43.9613
O    49.6707    39.6291    50.9056
C    44.1600    39.3112    44.2889
C    41.8662    40.4072    43.7190
C    47.9567    49.3373    44.4650
C    48.9292    48.8105    43.5558
C    49.9014    49.5546    42.9467
C    49.9144    50.9354    43.2601
C    48.9737    51.5029    44.1546
C    47.9992    50.7154    44.7569
C    47.1286    48.2659    44.8730
C    47.5606    47.1077    44.2424
C    45.6300    36.2222    47.7010
C    46.5825    35.6219    46.8713
C    47.0261    36.2601    45.6851
C    46.4745    37.4889    45.3416
C    45.4864    38.0933    46.1396
C    45.1086    37.4689    47.3438
C    44.8550    39.4134    45.7395
C    45.7678    40.6709    45.7974
C    47.2076    40.5376    45.8511
C    47.8076    40.3125    47.1780
C    47.0367    40.1278    48.3536
C    49.2370    40.2497    47.3040
C    47.6273    39.9125    49.5897
C    49.8218    39.9837    48.5408
C    49.0348    39.8406    49.6843
C    51.3366    39.8625    48.6222
C    52.0839    41.1808    48.4612
C    52.8430    41.8158    49.3854
C    53.6199    43.0309    48.9466
C    52.9057    41.3542    50.8256
H    48.6046    45.0198    42.9119
H    45.4955    46.1800    45.7122
H    44.1752    44.4766    46.4670
H    47.9710    41.6870    43.2764
H    45.9550    41.1110    43.4801
H    43.3331    42.6308    43.9096
H    43.5547    38.4066    44.2705
H    44.9877    39.1970    43.5846
H    41.3002    40.7800    44.5846
H    41.5523    39.3767    43.5237
H    41.5707    41.0321    42.8678
H    50.6194    49.1035    42.2614
H    49.0554    52.5693    44.3398
H    47.2766    51.1494    45.4439
H    46.3016    48.3627    45.5606
H    51.4504    51.2965    42.1008
H    45.3359    35.6897    48.6031
H    47.7836    35.8028    45.0529
H    46.8288    38.0123    44.4544
H    47.7317    34.0570    46.6063
H    43.9689    37.5782    48.9390
H    44.0357    39.5803    46.4581
H    45.3627    41.4499    46.4254
H    45.9526    40.1421    48.2927
H    47.0069    39.8010    50.4757
H    49.4366    40.5157    45.4356
H    49.0120    39.5039    51.6173
H    51.5989    39.3842    49.5687
H    51.6288    39.2245    47.7779
H    51.9430    41.6430    47.4829
H    54.3688    43.3217    49.6891
H    52.9507    43.8867    48.7813
H    54.1240    42.8474    47.9903
H    53.5215    40.4499    50.9291
H    51.9045    41.1032    51.2004
H    53.3354    42.1242    51.4737
84
Frame 2: 2
C    47.0776    45.7777    44.2823
O    44.3848    43.7626    45.8342
C    47.7256    44.7831    43.5052
O    47.9404    42.5356    42.7732
C    45.9609    45.4334    45.0783
O    50.8512    51.7857    42.7007
C    47.2448    43.4811    43.4992
O    48.7004    47.4203    43.4058
C    45.4612    44.1364    45.0291
O    47.0788    34.3852    47.2568
C    46.0238    43.1475    44.1759
O    44.2082    38.1331    48.1693
C    45.3743    41.8716    44.0014
O    47.9214    40.5079    44.7770
C    43.9541    41.7342    43.9466
O    50.0460    40.4399    46.2324
C    43.3399    40.5049    43.9616
O    49.6703    39.6292    50.9052
C    44.1573    39.3088    44.2898
C    41.8656    40.4078    43.7181
C    47.9567    49.3372    44.4650
C    48.9292    48.8104    43.5558
C    49.9014    49.5546    42.9467
C    49.9144    50.9354    43.2601
C    48.9737    51.5029    44.1546
C    47.9992    50.7153    44.7569
C    47.1286    48.2658    44.8730
C    47.5605    47.1076    44.2423
C    45.6298    36.2230    47.7005
C    46.5824    35.6223    46.8712
C    47.0260    36.2605    45.6851
C    46.4749    37.4895    45.3415
C    45.4873    38.0959    46.1393
C    45.1088    37.4701    47.3432
C    44.8559    39.4159    45.7367
C    45.7663    40.6816    45.7813
C    47.2078    40.5403    45.8485
C    47.8062    40.3130    47.1763
C    47.0360    40.1282    48.3525
C    49.2363    40.2498    47.3034
C    47.6268    39.9127    49.5887
C    49.8212    39.9838    48.5404
C    49.0343    39.8407    49.6839
C    51.3362    39.8626    48.6220
C    52.0838    41.1808    48.4612
C    52.8429    41.8158    49.3854
C    53.6199    43.0309    48.9466
C    52.9056    41.3542    50.8256
H    48.6029    45.0189    42.9107
H    45.4947    46.1801    45.7111
H    44.1734    44.4776    46.4653
H    47.9750    41.6871    43.2765
H    45.9575    41.1108    43.4787
H    43.3384    42.6296    43.8982
H    43.5500    38.4056    44.2743
H    44.9831    39.1912    43.5838
H    41.2992    40.7802    44.5835
H    41.5517    39.3775    43.5221
H    41.5711    41.0330    42.8668
H    50.6194    49.1035    42.2614
H    49.0554    52.5693    44.3398
H    47.2766    51.1493    45.4439
H    46.3016    48.3626    45.5606
H    51.4504    51.2965    42.1008
H    45.3353    35.6906    48.6025
H    47.7833    35.8030    45.0528
H    46.8299    38.0122    44.4541
H    47.7315    34.0573    46.6064
H    43.9686    37.5783    48.9381
H    44.0394    39.5838    46.4582
H    45.3626    41.4492    46.4246
H    45.9518    40.1432    48.2911
H    47.0062    39.8011    50.4746
H    49.4374    40.5157    45.4352
H    49.0115    39.5040    51.6169
H    51.5983    39.3843    49.5686
H    51.6285    39.2246    47.7778
H    51.9430    41.6430    47.4829
H    54.3688    43.3216    49.6891
H    52.9507    43.8867    48.7813
H    54.1240    42.8473    47.9903
H    53.5214    40.4499    50.9291
H    51.9044    41.1031    51.2004
H    53.3353    42.1242    51.4737
84
Frame 3: 3
C    47.0772    45.7774    44.2820
O    44.3845    43.7627    45.8342
C    47.7244    44.7825    43.5049
O    47.9400    42.5353    42.7731
C    45.9606    45.4334    45.0779
O    50.8512    51.7857    42.7007
C    47.2436    43.4800    43.5002
O    48.7004    47.4202    43.4057
C    45.4617    44.1357    45.0298
O    47.0785    34.3855    47.2568
C    46.0258    43.1454    44.1809
O    44.2082    38.1338    48.1689
C    45.3815    41.8586    44.0273
O    47.9236    40.5076    44.7763
C    43.9553    41.7311    43.9477
O    50.0461    40.4400    46.2325
C    43.3392    40.5046    43.9619
O    49.6698    39.6292    50.9048
C    44.1546    39.3065    44.2907
C    41.8649    40.4084    43.7171
C    47.9567    49.3371    44.4650
C    48.9292    48.8104    43.5558
C    49.9014    49.5545    42.9467
C    49.9144    50.9353    43.2601
C    48.9737    51.5028    44.1546
C    47.9992    50.7153    44.7569
C    47.1286    48.2656    44.8729
C    47.5605    47.1074    44.2422
C    45.6295    36.2238    47.6999
C    46.5822    35.6226    46.8711
C    47.0258    36.2608    45.6851
C    46.4753    37.4901    45.3414
C    45.4882    38.0984    46.1389
C    45.1089    37.4712    47.3425
C    44.8568    39.4184    45.7338
C    45.7647    40.6924    45.7652
C    47.2079    40.5430    45.8459
C    47.8048    40.3134    47.1746
C    47.0353    40.1287    48.3514
C    49.2357    40.2498    47.3029
C    47.6262    39.9128    49.5877
C    49.8206    39.9839    48.5399
C    49.0338    39.8407    49.6834
C    51.3358    39.8627    48.6219
C    52.0836    41.1808    48.4611
C    52.8429    41.8157    49.3854
C    53.6198    43.0308    48.9466
C    52.9056    41.3541    50.8255
H    48.6011    45.0180    42.9096
H    45.4939    46.1803    45.7100
H    44.1716    44.4787    46.4636
H    47.9789    41.6871    43.2767
H    45.9599    41.1106    43.4772
H    43.3438    42.6284    43.8867
H    43.5454    38.4047    44.2780
H    44.9784    39.1853    43.5830
H    41.2981    40.7804    44.5824
H    41.5510    39.3783    43.5206
H    41.5716    41.0339    42.8659
H    50.6194    49.1034    42.2614
H    49.0553    52.5692    44.3398
H    47.2766    51.1493    45.4439
H    46.3017    48.3624    45.5606
H    51.4504    51.2965    42.1008
H    45.3346    35.6915    48.6020
H    47.7830    35.8032    45.0526
H    46.8309    38.0120    44.4539
H    47.7313    34.0576    46.6064
H    43.9683    37.5785    48.9372
H    44.0432    39.5874    46.4582
H    45.3625    41.4486    46.4238
H    45.9510    40.1442    48.2895
H    47.0055    39.8013    50.4735
H    49.4382    40.5156    45.4347
H    49.0111    39.5041    51.6165
H    51.5976    39.3844    49.5685
H    51.6281    39.2246    47.7777
H    51.9430    41.6431    47.4828
H    54.3687    43.3216    49.6891
H    52.9507    43.8866    48.7813
H    54.1239    42.8473    47.9903
H    53.5214    40.4498    50.9290
H    51.9044    41.1031    51.2003
H    53.3353    42.1241    51.4737
84
Frame 4: 4
C    47.0769    45.7772    44.2818
O    44.3843    43.7628    45.8342
C    47.7232    44.7819    43.5046
O    47.9395    42.5350    42.7729
C    45.9603    45.4333    45.0774
O    50.8512    51.7856    42.7007
C    47.2424    43.4789    43.5013
O    48.7003    47.4201    43.4057
C    45.4622    44.1349    45.0304
O    47.0783    34.3859    47.2568
C    46.0278    43.1434    44.1858
O    44.2083    38.1344    48.1684
C    45.3888    41.8456    44.0533
O    47.9258    40.5072    44.7756
C    43.9564    41.7281    43.9489
O    50.0462    40.4400    46.2326
C    43.3385    40.5044    43.9621
O    49.6694    39.6293    50.9045
C    44.1519    39.3041    44.2916
C    41.8643    40.4090    43.7162
C    47.9567    49.3370    44.4650
C    48.9292    48.8103    43.5558
C    49.9014    49.5545    42.9467
C    49.9144    50.9353    43.2601
C    48.9736    51.5028    44.1546
C    47.9992    50.7152    44.7569
C    47.1286    48.2655    44.8729
C    47.5604    47.1073    44.2421
C    45.6293    36.2245    47.6994
C    46.5821    35.6230    46.8710
C    47.0257    36.2612    45.6850
C    46.4757    37.4907    45.3414
C    45.4892    38.1010    46.1386
C    45.1091    37.4724    47.3419
C    44.8577    39.4208    45.7310
C    45.7632    40.7031    45.7491
C    47.2081    40.5458    45.8433
C    47.8034    40.3139    47.1729
C    47.0346    40.1291    48.3502
C    49.2350    40.2499    47.3023
C    47.6257    39.9130    49.5867
C    49.8200    39.9840    48.5395
C    49.0333    39.8408    49.6830
C    51.3354    39.8628    48.6217
C    52.0835    41.1808    48.4611
C    52.8428    41.8157    49.3853
C    53.6198    43.0308    48.9466
C    52.9055    41.3541    50.8255
H    48.5994    45.0171    42.9084
H    45.4931    46.1804    45.7088
H    44.1698    44.4797    46.4619
H    47.9829    41.6872    43.2768
H    45.9624    41.1104    43.4758
H    43.3491    42.6272    43.8753
H    43.5407    38.4037    44.2818
H    44.9738    39.1795    43.5822
H    41.2971    40.7806    44.5812
H    41.5504    39.3791    43.5190
H    41.5720    41.0348    42.8649
H    50.6194    49.1034    42.2614
H    49.0553    52.5692    44.3398
H    47.2766    51.1492    45.4439
H    46.3017    48.3623    45.5606
H    51.4504    51.2964    42.1008
H    45.3340    35.6924    48.6014
H    47.7827    35.8034    45.0525
H    46.8320    38.0119    44.4536
H    47.7311    34.0578    46.6065
H    43.9679    37.5786    48.9363
H    44.0469    39.5909    46.4583
H    45.3623    41.4479    46.4230
H    45.9503    40.1453    48.2878
H    47.0049    39.8014    50.4724
H    49.4389    40.5156    45.4343
H    49.0106    39.5043    51.6161
H    51.5970    39.3845    49.5683
H    51.6278    39.2247    47.7776
H    51.9430    41.6431    47.4828
H    54.3687    43.3215    49.6891
H    52.9507    43.8866    48.7813
H    54.1239    42.8472    47.9903
H    53.5213    40.4498    50.9290
H    51.9043    41.1030    51.2003
H    53.3352    42.1241    51.4736
84
Frame 5: 5
C    47.0765    45.7770    44.2816
O    44.3840    43.7628    45.8342
C    47.7220    44.7813    43.5043
O    47.9390    42.5348    42.7728
C    45.9599    45.4332    45.0770
O    50.8511    51.7856    42.7007
C    47.2412    43.4778    43.5023
O    48.7003    47.4200    43.4057
C    45.4628    44.1341    45.0311
O    47.0781    34.3862    47.2568
C    46.0298    43.1413    44.1908
O    44.2083    38.1350    48.1679
C    45.3960    41.8326    44.0793
O    47.9280    40.5069    44.7749
C    43.9575    41.7250    43.9501
O    50.0462    40.4400    46.2327
C    43.3378    40.5042    43.9624
O    49.6689    39.6294    50.9041
C    44.1492    39.3017    44.2925
C    41.8637    40.4096    43.7152
C    47.9567    49.3369    44.4650
C    48.9291    48.8103    43.5558
C    49.9013    49.5544    42.9467
C    49.9143    50.9353    43.2601
C    48.9736    51.5027    44.1546
C    47.9991    50.7151    44.7569
C    47.1286    48.2653    44.8728
C    47.5604    47.1071    44.2419
C    45.6291    36.2253    47.6989
C    46.5819    35.6233    46.8709
C    47.0256    36.2615    45.6850
C    46.4761    37.4914    45.3413
C    45.4901    38.1035    46.1382
C    45.1093    37.4736    47.3412
C    44.8586    39.4233    45.7281
C    45.7616    40.7138    45.7330
C    47.2083    40.5485    45.8407
C    47.8019    40.3143    47.1712
C    47.0339    40.1295    48.3491
C    49.2344    40.2500    47.3017
C    47.6251    39.9131    49.5858
C    49.8194    39.9841    48.5390
C    49.0328    39.8409    49.6825
C    51.3350    39.8629    48.6215
C    52.0833    41.1808    48.4611
C    52.8427    41.8156    49.3853
C    53.6198    43.0307    48.9466
C    52.9055    41.3540    50.8255
H    48.5976    45.0161    42.9072
H    45.4923    46.1805    45.7077
H    44.1680    44.4808    46.4602
H    47.9868    41.6873    43.2769
H    45.9648    41.1102    43.4744
H    43.3544    42.6260    43.8639
H    43.5361    38.4027    44.2855
H    44.9692    39.1736    43.5813
H    41.2961    40.7808    44.5801
H    41.5498    39.3799    43.5174
H    41.5724    41.0356    42.8639
H    50.6193    49.1034    42.2614
H    49.0553    52.5691    44.3399
H    47.2765    51.1491    45.4439
H    46.3017    48.3621    45.5606
H    51.4503    51.2964    42.1008
H    45.3334    35.6933    48.6009
H    47.7823    35.8035    45.0524
H    46.8331    38.0117    44.4534
H    47.7309    34.0581    46.6066
H    43.9676    37.5787    48.9353
H    44.0507    39.5944    46.4583
H    45.3622    41.4472    46.4222
H    45.9495    40.1464    48.2862
H    47.0042    39.8016    50.4713
H    49.4397    40.5155    45.4338
H    49.0101    39.5044    51.6157
H    51.5963    39.3845    49.5682
H    51.6275    39.2247    47.7775
H    51.9430    41.6431    47.4828
H    54.3687    43.3214    49.6891
H    52.9507    43.8866    48.7813
H    54.1239    42.8472    47.9903
H    53.5213    40.4497    50.9289
H    51.9042    41.1029    51.2002
H    53.3352    42.1240    51.4736
84
Frame 6: 6
C    47.0762    45.7767    44.2813
O    44.3838    43.7629    45.8342
C    47.7208    44.7807    43.5041
O    47.9385    42.5345    42.7726
C    45.9596    45.4331    45.0766
O    50.8511    51.7856    42.7007
C    47.2400    43.4767    43.5033
O    48.7003    47.4199    43.4057
C    45.4633    44.1334    45.0318
O    47.0778    34.3865    47.2569
C    46.0318    43.1393    44.1957
O    44.2083    38.1357    48.1674
C    45.4032    41.8196    44.1052
O    47.9302    40.5066    44.7742
C    43.9586    41.7220    43.9513
O    50.0463    40.4401    46.2328
C    43.3371    40.5039    43.9627
O    49.6685    39.6295    50.9037
C    44.1465    39.2993    44.2934
C    41.8631    40.4101    43.7143
C    47.9566    49.3368    44.4650
C    48.9291    48.8102    43.5558
C    49.9013    49.5544    42.9467
C    49.9143    50.9352    43.2601
C    48.9736    51.5027    44.1546
C    47.9991    50.7151    44.7569
C    47.1286    48.2652    44.8728
C    47.5603    47.1070    44.2418
C    45.6289    36.2261    47.6984
C    46.5818    35.6237    46.8708
C    47.0254    36.2619    45.6850
C    46.4765    37.4920    45.3412
C    45.4910    38.1061    46.1379
C    45.1095    37.4748    47.3406
C    44.8594    39.4258    45.7253
C    45.7601    40.7245    45.7170
C    47.2085    40.5512    45.8381
C    47.8005    40.3148    47.1695
C    47.0331    40.1299    48.3480
C    49.2337    40.2501    47.3012
C    47.6246    39.9133    49.5848
C    49.8189    39.9842    48.5386
C    49.0323    39.8410    49.6821
C    51.3346    39.8630    48.6213
C    52.0832    41.1808    48.4610
C    52.8426    41.8156    49.3853
C    53.6197    43.0307    48.9466
C    52.9054    41.3540    50.8255
H    48.5959    45.0152    42.9061
H    45.4915    46.1807    45.7066
H    44.1662    44.4818    46.4585
H    47.9908    41.6873    43.2771
H    45.9673    41.1100    43.4730
H    43.3598    42.6248    43.8524
H    43.5314    38.4018    44.2893
H    44.9645    39.1678    43.5805
H    41.2951    40.7810    44.5790
H    41.5492    39.3807    43.5159
H    41.5728    41.0365    42.8629
H    50.6193    49.1033    42.2614
H    49.0552    52.5691    44.3399
H    47.2765    51.1491    45.4439
H    46.3018    48.3620    45.5606
H    51.4503    51.2964    42.1008
H    45.3328    35.6942    48.6003
H    47.7820    35.8037    45.0523
H    46.8341    38.0116    44.4531
H    47.7307    34.0584    46.6066
H    43.9673    37.5789    48.9344
H    44.0544    39.5980    46.4584
H    45.3621    41.4466    46.4214
H    45.9487    40.1475    48.2846
H    47.0035    39.8017    50.4702
H    49.4405    40.5155    45.4334
H    49.0096    39.5045    51.6152
H    51.5957    39.3846    49.5681
H    51.6271    39.2248    47.7774
H    51.9430    41.6432    47.4827
H    54.3687    43.3213    49.6891
H    52.9507    43.8865    48.7813
H    54.1239    42.8471    47.9903
H    53.5212    40.4497    50.9289
H    51.9042    41.1029    51.2002
H    53.3351    42.1240    51.4736
84
Frame 7: 7
C    47.0758    45.7765    44.2811
O    44.3835    43.7630    45.8342
C    47.7196    44.7801    43.5038
O    47.9381    42.5342    42.7725
C    45.9593    45.4331    45.0762
O    50.8511    51.7856    42.7007
C    47.2388    43.4756    43.5043
O    48.7003    47.4198    43.4056
C    45.4638    44.1326    45.0325
O    47.0776    34.3868    47.2569
C    46.0338    43.1372    44.2007
O    44.2083    38.1363    48.1670
C    45.4104    41.8066    44.1312
O    47.9324    40.5063    44.7735
C    43.9598    41.7190    43.9524
O    50.0464    40.4401    46.2329
C    43.3364    40.5037    43.9630
O    49.6681    39.6295    50.9033
C    44.1438    39.2970    44.2943
C    41.8624    40.4107    43.7133
C    47.9566    49.3368    44.4650
C    48.9291    48.8101    43.5558
C    49.9013    49.5544    42.9468
C    49.9143    50.9352    43.2601
C    48.9736    51.5026    44.1546
C    47.9991    50.7150    44.7569
C    47.1286    48.2650    44.8727
C    47.5602    47.1068    44.2417
C    45.6286    36.2269    47.6978
C    46.5816    35.6240    46.8707
C    47.0253    36.2622    45.6850
C    46.4769    37.4926    45.3411
C    45.4919    38.1086    46.1375
C    45.1096    37.4759    47.3399
C    44.8603    39.4283    45.7225
C    45.7585    40.7353    45.7009
C    47.2086    40.5539    45.8355
C    47.7991    40.3153    47.1678
C    47.0324    40.1304    48.3469
C    49.2330    40.2501    47.3006
C    47.6240    39.9135    49.5838
C    49.8183    39.9843    48.5381
C    49.0318    39.8410    49.6816
C    51.3341    39.8631    48.6212
C    52.0830    41.1808    48.4610
C    52.8426    41.8155    49.3853
C    53.6197    43.0306    48.9465
C    52.9054    41.3539    50.8254
H    48.5941    45.0143    42.9049
H    45.4907    46.1808    45.7055
H    44.1645    44.4829    46.4568
H    47.9947    41.6874    43.2772
H    45.9698    41.1098    43.4715
H    43.3651    42.6236    43.8410
H    43.5267    38.4008    44.2930
H    44.9599    39.1619    43.5797
H    41.2940    40.7812    44.5779
H    41.5485    39.3815    43.5143
H    41.5733    41.0374    42.8620
H    50.6193    49.1033    42.2614
H    49.0552    52.5690    44.3399
H    47.2765    51.1490    45.4439
H    46.3018    48.3618    45.5606
H    51.4503    51.2964    42.1008
H    45.3321    35.6950    48.5998
H    47.7817    35.8039    45.0521
H    46.8352    38.0114    44.4529
H    47.7305    34.0587    46.6067
H    43.9670    37.5790    48.9335
H    44.0582    39.6015    46.4584
H    45.3620    41.4459    46.4206
H    45.9479    40.1485    48.2830
H    47.0028    39.8018    50.4691
H    49.4413    40.5154    45.4329
H    49.0092    39.5046    51.6148
H    51.5950    39.3847    49.5680
H    51.6268    39.2248    47.7773
H    51.9430    41.6432    47.4827
H    54.3686    43.3213    49.6891
H    52.9506    43.8865    48.7812
H    54.1238    42.8471    47.9903
H    53.5212    40.4496    50.9289
H    51.9041    41.1028    51.2001
H    53.3350    42.1239    51.4736
84
Frame 8: 8
C    47.0755    45.7763    44.2808
O    44.3833    43.7631    45.8342
C    47.7184    44.7795    43.5035
O    47.9376    42.5339    42.7723
C    45.9590    45.4330    45.0758
O    50.8511    51.7856    42.7008
C    47.2377    43.4745    43.5053
O    48.7002    47.4196    43.4056
C    45.4643    44.1318    45.0332
O    47.0774    34.3872    47.2569
C    46.0358    43.1352    44.2056
O    44.2084    38.1369    48.1665
C    45.4176    41.7936    44.1571
O    47.9346    40.5060    44.7727
C    43.9609    41.7159    43.9536
O    50.0465    40.4402    46.2329
C    43.3357    40.5035    43.9633
O    49.6676    39.6296    50.9030
C    44.1411    39.2946    44.2952
C    41.8618    40.4113    43.7124
C    47.9566    49.3367    44.4650
C    48.9291    48.8101    43.5558
C    49.9013    49.5543    42.9468
C    49.9143    50.9352    43.2601
C    48.9736    51.5026    44.1546
C    47.9991    50.7149    44.7569
C    47.1286    48.2649    44.8727
C    47.5602    47.1067    44.2416
C    45.6284    36.2277    47.6973
C    46.5815    35.6244    46.8706
C    47.0252    36.2626    45.6849
C    46.4774    37.4932    45.3410
C    45.4929    38.1112    46.1372
C    45.1098    37.4771    47.3393
C    44.8612    39.4308    45.7196
C    45.7570    40.7460    45.6848
C    47.2088    40.5567    45.8329
C    47.7977    40.3157    47.1661
C    47.0317    40.1308    48.3457
C    49.2324    40.2502    47.3000
C    47.6235    39.9136    49.5828
C    49.8177    39.9845    48.5377
C    49.0313    39.8411    49.6812
C    51.3337    39.8632    48.6210
C    52.0829    41.1808    48.4610
C    52.8425    41.8155    49.3852
C    53.6197    43.0306    48.9465
C    52.9053    41.3539    50.8254
H    48.5924    45.0134    42.9038
H    45.4900    46.1809    45.7044
H    44.1627    44.4839    46.4551
H    47.9987    41.6875    43.2773
H    45.9722    41.1096    43.4701
H    43.3704    42.6224    43.8296
H    43.5221    38.3999    44.2968
H    44.9553    39.1561    43.5789
H    41.2930    40.7814    44.5768
H    41.5479    39.3823    43.5128
H    41.5737    41.0383    42.8610
H    50.6193    49.1033    42.2614
H    49.0552    52.5690    44.3399
H    47.2765    51.1489    45.4439
H    46.3018    48.3617    45.5606
H    51.4503    51.2964    42.1008
H    45.3315    35.6959    48.5992
H    47.7814    35.8041    45.0520
H    46.8363    38.0113    44.4526
H    47.7303    34.0589    46.6068
H    43.9667    37.5791    48.9326
H    44.0619    39.6051    46.4585
H    45.3618    41.4452    46.4198
H    45.9472    40.1496    48.2813
H    47.0022    39.8020    50.4680
H    49.4420    40.5154    45.4325
H    49.0087    39.5047    51.6144
H    51.5944    39.3848    49.5679
H    51.6265    39.2249    47.7772
H    51.9430    41.6432    47.4826
H    54.3686    43.3212    49.6891
H    52.9506    43.8865    48.7812
H    54.1238    42.8470    47.9902
H    53.5211    40.4496    50.9288
H    51.9040    41.1027    51.2001
H    53.3350    42.1239    51.4735
84
Frame 9: 9
C    47.0751    45.7760    44.2806
O    44.3830    43.7632    45.8342
C    47.7172    44.7789    43.5032
O    47.9371    42.5336    42.7722
C    45.9587    45.4329    45.0754
O    50.8511    51.7855    42.7008
C    47.2365    43.4734    43.5064
O    48.7002    47.4195    43.4056
C    45.4648    44.1310    45.0338
O    47.0771    34.3875    47.2569
C    46.0378    43.1331    44.2106
O    44.2084    38.1376    48.1660
C    45.4249    41.7806    44.1831
O    47.9368    40.5057    44.7720
C    43.9620    41.7129    43.9548
O    50.0466    40.4402    46.2330
C    43.3350    40.5032    43.9635
O    49.6672    39.6297    50.9026
C    44.1384    39.2922    44.2961
C    41.8612    40.4119    43.7114
C    47.9566    49.3366    44.4650
C    48.9291    48.8100    43.5558
C    49.9013    49.5543    42.9468
C    49.9143    50.9352    43.2601
C    48.9735    51.5025    44.1546
C    47.9991    50.7149    44.7569
C    47.1286    48.2647    44.8726
C    47.5601    47.1065    44.2415
C    45.6282    36.2284    47.6968
C    46.5813    35.6247    46.8705
C    47.0251    36.2629    45.6849
C    46.4778    37.4938    45.3410
C    45.4938    38.1137    46.1368
C    45.1100    37.4783    47.3386
C    44.8621    39.4332    45.7168
C    45.7554    40.7567    45.6687
C    47.2090    40.5594    45.8303
C    47.7963    40.3162    47.1644
C    47.0310    40.1312    48.3446
C    49.2317    40.2503    47.2995
C    47.6229    39.9138    49.5818
C    49.8171    39.9846    48.5372
C    49.0308    39.8412    49.6808
C    51.3333    39.8633    48.6208
C    52.0827    41.1808    48.4610
C    52.8424    41.8155    49.3852
C    53.6197    43.0305    48.9465
C    52.9053    41.3538    50.8254
H    48.5906    45.0125    42.9026
H    45.4892    46.1811    45.7033
H    44.1609    44.4850    46.4534
H    48.0026    41.6876    43.2775
H    45.9747    41.1094    43.4687
H    43.3757    42.6212    43.8181
H    43.5174    38.3989    44.3005
H    44.9506    39.1502    43.5781
H    41.2920    40.7816    44.5756
H    41.5473    39.3831    43.5112
H    41.5741    41.0392    42.8600
H    50.6193    49.1032    42.2614
H    49.0551    52.5689    44.3399
H    47.2765    51.1488    45.4439
H    46.3019    48.3615    45.5606
H    51.4503    51.2964    42.1009
H    45.3309    35.6968    48.5987
H    47.7811    35.8043    45.0519
H    46.8373    38.0111    44.4524
H    47.7301    34.0592    46.6068
H    43.9663    37.5792    48.9317
H    44.0657    39.6086    46.4585
H    45.3617    41.4446    46.4190
H    45.9464    40.1507    48.2797
H    47.0015    39.8021    50.4669
H    49.4428    40.5153    45.4321
H    49.0082    39.5049    51.6140
H    51.5937    39.3849    49.5677
H    51.6261    39.2249    47.7771
H    51.9430    41.6433    47.4826
H    54.3686    43.3211    49.6891
H    52.9506    43.8865    48.7812
H    54.1238    42.8470    47.9902
H    53.5211    40.4496    50.9288
H    51.9040    41.1027    51.2000
H    53.3349    42.1239    51.4735
84
Frame 10: 10
C    47.0748    45.7758    44.2804
O    44.3828    43.7633    45.8342
C    47.7160    44.7783    43.5029
O    47.9367    42.5333    42.7720
C    45.9584    45.4328    45.0749
O    50.8511    51.7855    42.7008
C    47.2353    43.4723    43.5074
O    48.7002    47.4194    43.4056
C    45.4653    44.1303    45.0345
O    47.0769    34.3878    47.2569
C    46.0398    43.1311    44.2155
O    44.2084    38.1382    48.1656
C    45.4321    41.7676    44.2091
O    47.9390    40.5053    44.7713
C    43.9631    41.7098    43.9560
O    50.0467    40.4402    46.2331
C    43.3344    40.5030    43.9638
O    49.6667    39.6297    50.9022
C    44.1357    39.2898    44.2970
C    41.8606    40.4125    43.7105
C    47.9566    49.3365    44.4650
C    48.9291    48.8100    43.5558
C    49.9013    49.5542    42.9468
C    49.9143    50.9351    43.2601
C    48.9735    51.5025    44.1547
C    47.9991    50.7148    44.7569
C    47.1286    48.2646    44.8726
C    47.5600    47.1064    44.2414
C    45.6279    36.2292    47.6963
C    46.5812    35.6251    46.8704
C    47.0249    36.2633    45.6849
C    46.4782    37.4944    45.3409
C    45.4947    38.1163    46.1365
C    45.1102    37.4794    47.3380
C    44.8630    39.4357    45.7140
C    45.7539    40.7675    45.6526
C    47.2092    40.5621    45.8277
C    47.7949    40.3166    47.1627
C    47.0303    40.1317    48.3435
C    49.2311    40.2504    47.2989
C    47.6224    39.9139    49.5808
C    49.8165    39.9847    48.5368
C    49.0303    39.8413    49.6803
C    51.3329    39.8634    48.6206
C    52.0826    41.1808    48.4609
C    52.8423    41.8154    49.3852
C    53.6196    43.0305    48.9465
C    52.9052    41.3538    50.8253
H    48.5889    45.0116    42.9014
H    45.4884    46.1812    45.7021
H    44.1591    44.4860    46.4516
H    48.0066    41.6876    43.2776
H    45.9771    41.1092    43.4673
H    43.3811    42.6200    43.8067
H    43.5128    38.3979    44.3043
H    44.9460    39.1444    43.5773
H    41.2909    40.7818    44.5745
H    41.5467    39.3839    43.5096
H    41.5745    41.0401    42.8590
H    50.6193    49.1032    42.2615
H    49.0551    52.5689    44.3399
H    47.2765    51.1488    45.4439
H    46.3019    48.3614    45.5607
H    51.4503    51.2963    42.1009
H    45.3303    35.6977    48.5981
H    47.7808    35.8045    45.0517
H    46.8384    38.0110    44.4521
H    47.7300    34.0595    46.6069
H    43.9660    37.5794    48.9308
H    44.0694    39.6121    46.4586
H    45.3616    41.4439    46.4182
H    45.9456    40.1517    48.2781
H    47.0008    39.8023    50.4658
H    49.4436    40.5153    45.4316
H    49.0077    39.5050    51.6136
H    51.5931    39.3850    49.5676
H    51.6258    39.2250    47.7770
H    51.9430    41.6433    47.4826
H    54.3685    43.3211    49.6891
H    52.9506    43.8864    48.7812
H    54.1238    42.8469    47.9902
H    53.5210    40.4495    50.9288
H    51.9039    41.1026    51.2000
H    53.3348    42.1238    51.4735
84
Frame 11: 11
C    47.0744    45.7756    44.2801
O    44.3825    43.7633    45.8342
C    47.7148    44.7777    43.5026
O    47.9362    42.5330    42.7719
C    45.9581    45.4328    45.0745
O    50.8510    51.7855    42.7008
C    47.2341    43.4712    43.5084
O    48.7002    47.4193    43.4055
C    45.4659    44.1295    45.0352
O    47.0767    34.3881    47.2569
C    46.0418    43.1290    44.2205
O    44.2084    38.1389    48.1651
C    45.4393    41.7546    44.2350
O    47.9412    40.5050    44.7706
C    43.9643    41.7068    43.9571
O    50.0467    40.4403    46.2332
C    43.3337    40.5028    43.9641
O    49.6663    39.6298    50.9018
C    44.1330    39.2875    44.2979
C    41.8599    40.4131    43.7095
C    47.9566    49.3364    44.4650
C    48.9291    48.8099    43.5559
C    49.9012    49.5542    42.9468
C    49.9143    50.9351    43.2601
C    48.9735    51.5024    44.1547
C    47.9991    50.7147    44.7569
C    47.1286    48.2644    44.8725
C    47.5600    47.1062    44.2413
C    45.6277    36.2300    47.6957
C    46.5810    35.6255    46.8703
C    47.0248    36.2636    45.6849
C    46.4786    37.4950    45.3408
C    45.4956    38.1188    46.1361
C    45.1103    37.4806    47.3374
C    44.8639    39.4382    45.7111
C    45.7523    40.7782    45.6365
C    47.2093    40.5648    45.8251
C    47.7934    40.3171    47.1610
C    47.0296    40.1321    48.3424
C    49.2304    40.2504    47.2983
C    47.6218    39.9141    49.5798
C    49.8159    39.9848    48.5363
C    49.0298    39.8413    49.6799
C    51.3325    39.8635    48.6205
C    52.0824    41.1808    48.4609
C    52.8423    41.8154    49.3852
C    53.6196    43.0304    48.9465
C    52.9051    41.3537    50.8253
H    48.5871    45.0106    42.9003
H    45.4876    46.1813    45.7010
H    44.1573    44.4871    46.4499
H    48.0105    41.6877    43.2777
H    45.9796    41.1090    43.4658
H    43.3864    42.6188    43.7953
H    43.5081    38.3970    44.3080
H    44.9414    39.1385    43.5764
H    41.2899    40.7820    44.5734
H    41.5460    39.3846    43.5081
H    41.5750    41.0410    42.8581
H    50.6193    49.1032    42.2615
H    49.0551    52.5689    44.3399
H    47.2765    51.1487    45.4439
H    46.3020    48.3612    45.5607
H    51.4503    51.2963    42.1009
H    45.3296    35.6986    48.5976
H    47.7805    35.8047    45.0516
H    46.8395    38.0109    44.4519
H    47.7298    34.0598    46.6070
H    43.9657    37.5795    48.9299
H    44.0732    39.6157    46.4586
H    45.3615    41.4432    46.4174
H    45.9448    40.1528    48.2765
H    47.0001    39.8024    50.4648
H    49.4444    40.5153    45.4312
H    49.0073    39.5051    51.6132
H    51.5924    39.3850    49.5675
H    51.6255    39.2250    47.7769
H    51.9430    41.6433    47.4825
H    54.3685    43.3210    49.6891
H    52.9506    43.8864    48.7812
H    54.1237    42.8469    47.9902
H    53.5210    40.4495    50.9287
H    51.9039    41.1025    51.1999
H    53.3348    42.1238    51.4735
84
Frame 12: 12
C    47.0741    45.7753    44.2799
O    44.3823    43.7634    45.8342
C    47.7136    44.7771    43.5023
O    47.9357    42.5328    42.7717
C    45.9577    45.4327    45.0741
O    50.8510    51.7855    42.7008
C    47.2329    43.4701    43.5094
O    48.7001    47.4192    43.4055
C    45.4664    44.1287    45.0359
O    47.0765    34.3884    47.2569
C    46.0438    43.1270    44.2254
O    44.2085    38.1395    48.1646
C    45.4465    41.7416    44.2610
O    47.9434    40.5047    44.7699
C    43.9654    41.7038    43.9583
O    50.0468    40.4403    46.2333
C    43.3330    40.5025    43.9644
O    49.6659    39.6299    50.9015
C    44.1303    39.2851    44.2988
C    41.8593    40.4137    43.7086
C    47.9566    49.3363    44.4650
C    48.9291    48.8099    43.5559
C    49.9012    49.5542    42.9468
C    49.9143    50.9351    43.2602
C    48.9735    51.5024    44.1547
C    47.9991    50.7147    44.7569
C    47.1286    48.2643    44.8725
C    47.5599    47.1061    44.2411
C    45.6275    36.2308    47.6952
C    46.5809    35.6258    46.8702
C    47.0247    36.2640    45.6848
C    46.4790    37.4957    45.3407
C    45.4966    38.1214    46.1358
C    45.1105    37.4818    47.3367
C    44.8648    39.4407    45.7083
C    45.7508    40.7889    45.6204
C    47.2095    40.5676    45.8225
C    47.7920    40.3176    47.1593
C    47.0289    40.1325    48.3412
C    49.2297    40.2505    47.2978
C    47.6213    39.9142    49.5788
C    49.8153    39.9849    48.5359
C    49.0293    39.8414    49.6794
C    51.3321    39.8636    48.6203
C    52.0823    41.1808    48.4609
C    52.8422    41.8153    49.3851
C    53.6196    43.0304    48.9465
C    52.9051    41.3537    50.8253
H    48.5854    45.0097    42.8991
H    45.4868    46.1815    45.6999
H    44.1555    44.4881    46.4482
H    48.0145    41.6878    43.2779
H    45.9820    41.1088    43.4644
H    43.3917    42.6176    43.7838
H    43.5034    38.3960    44.3118
H    44.9368    39.1327    43.5756
H    41.2889    40.7822    44.5723
H    41.5454    39.3854    43.5065
H    41.5754    41.0419    42.8571
H    50.6192    49.1031    42.2615
H    49.0550    52.5688    44.3399
H    47.2764    51.1486    45.4439
H    46.3020    48.3611    45.5607
H    51.4503    51.2963    42.1009
H    45.3290    35.6995    48.5970
H    47.7802    35.8048    45.0515
H    46.8405    38.0107    44.4516
H    47.7296    34.0600    46.6070
H    43.9654    37.5796    48.9289
H    44.0769    39.6192    46.4587
H    45.3613    41.4426    46.4166
H    45.9441    40.1539    48.2748
H    46.9994    39.8025    50.4637
H    49.4451    40.5152    45.4307
H    49.0068    39.5052    51.6128
H    51.5918    39.3851    49.5674
H    51.6251    39.2251    47.7768
H    51.9430    41.6434    47.4825
H    54.3685    43.3209    49.6891
H    52.9506    43.8864    48.7812
H    54.1237    42.8468    47.9902
H    53.5209    40.4494    50.9287
H    51.9038    41.1025    51.1999
H    53.3347    42.1237    51.4735
84
Frame 13: 13
C    47.0737    45.7751    44.2797
O    44.3820    43.7635    45.8342
C    47.7124    44.7765    43.5020
O    47.9352    42.5325    42.7716
C    45.9574    45.4326    45.0737
O    50.8510    51.7854    42.7008
C    47.2317    43.4690    43.5104
O    48.7001    47.4191    43.4055
C    45.4669    44.1280    45.0366
O    47.0762    34.3888    47.2569
C    46.0458    43.1250    44.2304
O    44.2085    38.1401    48.1642
C    45.4537    41.7286    44.2870
O    47.9456    40.5044    44.7692
C    43.9665    41.7007    43.9595
O    50.0469    40.4403    46.2334
C    43.3323    40.5023    43.9647
O    49.6654    39.6300    50.9011
C    44.1276    39.2827    44.2997
C    41.8587    40.4143    43.7076
C    47.9566    49.3362    44.4650
C    48.9290    48.8098    43.5559
C    49.9012    49.5541    42.9468
C    49.9142    50.9350    43.2602
C    48.9735    51.5024    44.1547
C    47.9990    50.7146    44.7569
C    47.1286    48.2641    44.8724
C    47.5599    47.1060    44.2410
C    45.6273    36.2316    47.6947
C    46.5807    35.6262    46.8701
C    47.0245    36.2644    45.6848
C    46.4794    37.4963    45.3407
C    45.4975    38.1240    46.1354
C    45.1107    37.4830    47.3361
C    44.8657    39.4432    45.7054
C    45.7493    40.7996    45.6043
C    47.2097    40.5703    45.8199
C    47.7906    40.3180    47.1576
C    47.0282    40.1329    48.3401
C    49.2291    40.2506    47.2972
C    47.6207    39.9144    49.5779
C    49.8147    39.9850    48.5355
C    49.0288    39.8415    49.6790
C    51.3317    39.8637    48.6201
C    52.0821    41.1808    48.4608
C    52.8421    41.8153    49.3851
C    53.6195    43.0303    48.9465
C    52.9050    41.3537    50.8252
H    48.5836    45.0088    42.8979
H    45.4860    46.1816    45.6988
H    44.1537    44.4892    46.4465
H    48.0184    41.6878    43.2780
H    45.9845    41.1087    43.4630
H    43.3971    42.6164    43.7724
H    43.4988    38.3950    44.3155
H    44.9321    39.1268    43.5748
H    41.2879    40.7824    44.5712
H    41.5448    39.3862    43.5049
H    41.5758    41.0427    42.8561
H    50.6192    49.1031    42.2615
H    49.0550    52.5688    44.3400
H    47.2764    51.1486    45.4439
H    46.3020    48.3609    45.5607
H    51.4502    51.2963    42.1009
H    45.3284    35.7004    48.5965
H    47.7798    35.8050    45.0514
H    46.8416    38.0106    44.4513
H    47.7294    34.0603    46.6071
H    43.9651    37.5798    48.9280
H    44.0806    39.6227    46.4587
H    45.3612    41.4419    46.4158
H    45.9433    40.1550    48.2732
H    46.9988    39.8027    50.4626
H    49.4459    40.5152    45.4303
H    49.0063    39.5053    51.6124
H    51.5911    39.3852    49.5673
H    51.6248    39.2251    47.7768
H    51.9430    41.6434    47.4825
H    54.3684    43.3208    49.6891
H    52.9506    43.8863    48.7812
H    54.1237    42.8468    47.9902
H    53.5209    40.4494    50.9286
H    51.9037    41.1024    51.1998
H    53.3347    42.1237    51.4734
84
Frame 14: 14
C    47.0734    45.7749    44.2794
O    44.3818    43.7636    45.8342
C    47.7112    44.7759    43.5017
O    47.9348    42.5322    42.7714
C    45.9571    45.4325    45.0733
O    50.8510    51.7854    42.7008
C    47.2305    43.4679    43.5115
O    48.7001    47.4190    43.4055
C    45.4674    44.1272    45.0372
O    47.0760    34.3891    47.2569
C    46.0478    43.1229    44.2353
O    44.2085    38.1408    48.1637
C    45.4609    41.7156    44.3129
O    47.9478    40.5041    44.7685
C    43.9676    41.6977    43.9606
O    50.0470    40.4404    46.2335
C    43.3316    40.5021    43.9650
O    49.6650    39.6300    50.9007
C    44.1249    39.2803    44.3006
C    41.8581    40.4149    43.7067
C    47.9566    49.3361    44.4650
C    48.9290    48.8097    43.5559
C    49.9012    49.5541    42.9468
C    49.9142    50.9350    43.2602
C    48.9734    51.5023    44.1547
C    47.9990    50.7145    44.7569
C    47.1286    48.2640    44.8724
C    47.5598    47.1058    44.2409
C    45.6270    36.2323    47.6942
C    46.5806    35.6265    46.8700
C    47.0244    36.2647    45.6848
C    46.4798    37.4969    45.3406
C    45.4984    38.1265    46.1351
C    45.1108    37.4841    47.3354
C    44.8666    39.4457    45.7026
C    45.7477    40.8104    45.5882
C    47.2099    40.5730    45.8173
C    47.7892    40.3185    47.1559
C    47.0275    40.1334    48.3390
C    49.2284    40.2506    47.2966
C    47.6202    39.9146    49.5769
C    49.8141    39.9851    48.5350
C    49.0283    39.8415    49.6785
C    51.3313    39.8638    48.6200
C    52.0820    41.1808    48.4608
C    52.8421    41.8152    49.3851
C    53.6195    43.0303    48.9465
C    52.9050    41.3536    50.8252
H    48.5819    45.0079    42.8968
H    45.4852    46.1817    45.6977
H    44.1519    44.4902    46.4448
H    48.0224    41.6879    43.2781
H    45.9870    41.1085    43.4616
H    43.4024    42.6152    43.7610
H    43.4941    38.3941    44.3193
H    44.9275    39.1210    43.5740
H    41.2868    40.7826    44.5700
H    41.5442    39.3870    43.5034
H    41.5762    41.0436    42.8551
H    50.6192    49.1031    42.2615
H    49.0550    52.5687    44.3400
H    47.2764    51.1485    45.4439
H    46.3021    48.3608    45.5607
H    51.4502    51.2963    42.1009
H    45.3278    35.7013    48.5959
H    47.7795    35.8052    45.0512
H    46.8427    38.0104    44.4511
H    47.7292    34.0606    46.6072
H    43.9647    37.5799    48.9271
H    44.0844    39.6263    46.4588
H    45.3611    41.4412    46.4150
H    45.9425    40.1560    48.2716
H    46.9981    39.8028    50.4615
H    49.4467    40.5151    45.4299
H    49.0058    39.5055    51.6120
H    51.5905    39.3853    49.5671
H    51.6245    39.2252    47.7767
H    51.9430    41.6434    47.4824
H    54.3684    43.3208    49.6891
H    52.9506    43.8863    48.7812
H    54.1237    42.8467    47.9902
H    53.5208    40.4493    50.9286
H    51.9037    41.1023    51.1998
H    53.3346    42.1236    51.4734
84
Frame 15: 15
C    47.0730    45.7747    44.2792
O    44.3815    43.7637    45.8343
C    47.7100    44.7753    43.5015
O    47.9343    42.5319    42.7713
C    45.9568    45.4325    45.0729
O    50.8510    51.7854    42.7008
C    47.2293    43.4668    43.5125
O    48.7001    47.4189    43.4054
C    45.4679    44.1264    45.0379
O    47.0758    34.3894    47.2569
C    46.0498    43.1209    44.2403
O    44.2085    38.1414    48.1632
C    45.4682    41.7026    44.3389
O    47.9500    40.5038    44.7678
C    43.9688    41.6946    43.9618
O    50.0471    40.4404    46.2336
C    43.3309    40.5018    43.9652
O    49.6645    39.6301    50.9003
C    44.1222    39.2780    44.3015
C    41.8574    40.4155    43.7057
C    47.9565    49.3360    44.4650
C    48.9290    48.8097    43.5559
C    49.9012    49.5541    42.9468
C    49.9142    50.9350    43.2602
C    48.9734    51.5023    44.1547
C    47.9990    50.7144    44.7569
C    47.1286    48.2638    44.8723
C    47.5597    47.1057    44.2408
C    45.6268    36.2331    47.6936
C    46.5804    35.6269    46.8699
C    47.0243    36.2651    45.6848
C    46.4802    37.4975    45.3405
C    45.4993    38.1291    46.1347
C    45.1110    37.4853    47.3348
C    44.8674    39.4481    45.6998
C    45.7462    40.8211    45.5721
C    47.2100    40.5757    45.8147
C    47.7878    40.3189    47.1543
C    47.0267    40.1338    48.3379
C    49.2278    40.2507    47.2961
C    47.6196    39.9147    49.5759
C    49.8136    39.9852    48.5346
C    49.0278    39.8416    49.6781
C    51.3309    39.8639    48.6198
C    52.0819    41.1808    48.4608
C    52.8420    41.8152    49.3851
C    53.6195    43.0302    48.9465
C    52.9049    41.3536    50.8252
H    48.5801    45.0070    42.8956
H    45.4844    46.1819    45.6966
H    44.1501    44.4913    46.4431
H    48.0263    41.6880    43.2783
H    45.9894    41.1083    43.4601
H    43.4077    42.6140    43.7495
H    43.4895    38.3931    44.3230
H    44.9229    39.1151    43.5732
H    41.2858    40.7827    44.5689
H    41.5435    39.3878    43.5018
H    41.5767    41.0445    42.8542
H    50.6192    49.1030    42.2615
H    49.0549    52.5687    44.3400
H    47.2764    51.1484    45.4439
H    46.3021    48.3606    45.5607
H    51.4502    51.2962    42.1009
H    45.3271    35.7022    48.5954
H    47.7792    35.8054    45.0511
H    46.8437    38.0103    44.4508
H    47.7290    34.0609    46.6072
H    43.9644    37.5800    48.9262
H    44.0881    39.6298    46.4588
H    45.3610    41.4406    46.4142
H    45.9417    40.1571    48.2700
H    46.9974    39.8030    50.4604
H    49.4475    40.5151    45.4294
H    49.0054    39.5056    51.6116
H    51.5898    39.3854    49.5670
H    51.6241    39.2252    47.7766
H    51.9430    41.6435    47.4824
H    54.3684    43.3207    49.6891
H    52.9506    43.8863    48.7812
H    54.1236    42.8467    47.9902
H    53.5208    40.4493    50.9286
H    51.9036    41.1023    51.1997
H    53.3345    42.1236    51.4734
84
Frame 16: 16
C    47.0727    45.7744    44.2790
O    44.3813    43.7638    45.8343
C    47.7088    44.7747    43.5012
O    47.9338    42.5316    42.7711
C    45.9565    45.4324    45.0724
O    50.8510    51.7854    42.7008
C    47.2281    43.4657    43.5135
O    48.7000    47.4188    43.4054
C    45.4684    44.1257    45.0386
O    47.0755    34.3897    47.2570
C    46.0518    43.1188    44.2452
O    44.2086    38.1420    48.1627
C    45.4754    41.6896    44.3648
O    47.9522    40.5034    44.7671
C    43.9699    41.6916    43.9630
O    50.0472    40.4404    46.2337
C    43.3302    40.5016    43.9655
O    49.6641    39.6302    50.8999
C    44.1195    39.2756    44.3024
C    41.8568    40.4160    43.7048
C    47.9565    49.3359    44.4650
C    48.9290    48.8096    43.5559
C    49.9012    49.5540    42.9468
C    49.9142    50.9349    43.2602
C    48.9734    51.5022    44.1547
C    47.9990    50.7144    44.7569
C    47.1286    48.2637    44.8723
C    47.5597    47.1055    44.2407
C    45.6266    36.2339    47.6931
C    46.5803    35.6272    46.8698
C    47.0241    36.2654    45.6847
C    46.4806    37.4981    45.3404
C    45.5003    38.1316    46.1344
C    45.1112    37.4865    47.3341
C    44.8683    39.4506    45.6969
C    45.7446    40.8318    45.5561
C    47.2102    40.5785    45.8121
C    47.7864    40.3194    47.1526
C    47.0260    40.1342    48.3367
C    49.2271    40.2508    47.2955
C    47.6191    39.9149    49.5749
C    49.8130    39.9853    48.5341
C    49.0273    39.8417    49.6777
C    51.3305    39.8640    48.6196
C    52.0817    41.1808    48.4607
C    52.8419    41.8151    49.3850
C    53.6194    43.0302    48.9465
C    52.9049    41.3535    50.8252
H    48.5784    45.0061    42.8944
H    45.4836    46.1820    45.6954
H    44.1483    44.4923    46.4414
H    48.0303    41.6880    43.2784
H    45.9919    41.1081    43.4587
H    43.4131    42.6128    43.7381
H    43.4848    38.3922    44.3268
H    44.9182    39.1093    43.5724
H    41.2848    40.7829    44.5678
H    41.5429    39.3886    43.5003
H    41.5771    41.0454    42.8532
H    50.6192    49.1030    42.2615
H    49.0549    52.5686    44.3400
H    47.2764    51.1484    45.4439
H    46.3021    48.3605    45.5607
H    51.4502    51.2962    42.1009
H    45.3265    35.7031    48.5948
H    47.7789    35.8056    45.0510
H    46.8448    38.0101    44.4506
H    47.7288    34.0612    46.6073
H    43.9641    37.5802    48.9253
H    44.0919    39.6333    46.4589
H    45.3609    41.4399    46.4134
H    45.9410    40.1582    48.2684
H    46.9967    39.8031    50.4593
H    49.4482    40.5150    45.4290
H    49.0049    39.5057    51.6111
H    51.5892    39.3855    49.5669
H    51.6238    39.2253    47.7765
H    51.9430    41.6435    47.4823
H    54.3684    43.3206    49.6891
H    52.9506    43.8862    48.7812
H    54.1236    42.8466    47.9902
H    53.5207    40.4493    50.9285
H    51.9035    41.1022    51.1997
H    53.3345    42.1236    51.4734
84
Frame 17: 17
C    47.0723    45.7742    44.2787
O    44.3810    43.7638    45.8343
C    47.7076    44.7741    43.5009
O    47.9334    42.5313    42.7710
C    45.9562    45.4323    45.0720
O    50.8510    51.7854    42.7008
C    47.2269    43.4646    43.5145
O    48.7000    47.4187    43.4054
C    45.4689    44.1249    45.0393
O    47.0753    34.3901    47.2570
C    46.0538    43.1168    44.2502
O    44.2086    38.1427    48.1623
C    45.4826    41.6766    44.3908
O    47.9544    40.5031    44.7664
C    43.9710    41.6886    43.9642
O    50.0473    40.4405    46.2338
C    43.3295    40.5014    43.9658
O    49.6637    39.6303    50.8996
C    44.1168    39.2732    44.3033
C    41.8562    40.4166    43.7038
C    47.9565    49.3358    44.4650
C    48.9290    48.8096    43.5559
C    49.9011    49.5540    42.9468
C    49.9142    50.9349    43.2602
C    48.9734    51.5022    44.1547
C    47.9990    50.7143    44.7569
C    47.1286    48.2635    44.8722
C    47.5596    47.1054    44.2406
C    45.6263    36.2347    47.6926
C    46.5801    35.6276    46.8697
C    47.0240    36.2658    45.6847
C    46.4810    37.4987    45.3403
C    45.5012    38.1342    46.1340
C    45.1114    37.4876    47.3335
C    44.8692    39.4531    45.6941
C    45.7431    40.8425    45.5400
C    47.2104    40.5812    45.8095
C    47.7849    40.3199    47.1509
C    47.0253    40.1347    48.3356
C    49.2265    40.2509    47.2949
C    47.6185    39.9150    49.5739
C    49.8124    39.9854    48.5337
C    49.0268    39.8418    49.6772
C    51.3301    39.8641    48.6194
C    52.0816    41.1808    48.4607
C    52.8418    41.8151    49.3850
C    53.6194    43.0301    48.9464
C    52.9048    41.3535    50.8251
H    48.5766    45.0051    42.8933
H    45.4828    46.1821    45.6943
H    44.1465    44.4934    46.4397
H    48.0342    41.6881    43.2785
H    45.9943    41.1079    43.4573
H    43.4184    42.6116    43.7267
H    43.4801    38.3912    44.3305
H    44.9136    39.1034    43.5716
H    41.2838    40.7831    44.5667
H    41.5423    39.3894    43.4987
H    41.5775    41.0463    42.8522
H    50.6192    49.1030    42.2615
H    49.0549    52.5686    44.3400
H    47.2764    51.1483    45.4439
H    46.3022    48.3603    45.5607
H    51.4502    51.2962    42.1009
H    45.3259    35.7040    48.5943
H    47.7786    35.8058    45.0508
H    46.8459    38.0100    44.4503
H    47.7286    34.0614    46.6074
H    43.9638    37.5803    48.9244
H    44.0956    39.6369    46.4590
H    45.3607    41.4392    46.4126
H    45.9402    40.1592    48.2667
H    46.9960    39.8032    50.4582
H    49.4490    40.5150    45.4285
H    49.0044    39.5058    51.6107
H    51.5885    39.3855    49.5668
H    51.6235    39.2253    47.7764
H    51.9430    41.6435    47.4823
H    54.3683    43.3206    49.6891
H    52.9506    43.8862    48.7812
H    54.1236    42.8466    47.9902
H    53.5207    40.4492    50.9285
H    51.9035    41.1021    51.1996
H    53.3344    42.1235    51.4733
84
Frame 18: 18
C    47.0720    45.7740    44.2785
O    44.3808    43.7639    45.8343
C    47.7064    44.7735    43.5006
O    47.9329    42.5310    42.7708
C    45.9559    45.4322    45.0716
O    50.8509    51.7853    42.7008
C    47.2257    43.4635    43.5155
O    48.7000    47.4186    43.4054
C    45.4695    44.1241    45.0399
O    47.0751    34.3904    47.2570
C    46.0558    43.1147    44.2551
O    44.2086    38.1433    48.1618
C    45.4898    41.6636    44.4168
O    47.9566    40.5028    44.7657
C    43.9721    41.6855    43.9653
O    50.0473    40.4405    46.2339
C    43.3288    40.5011    43.9661
O    49.6632    39.6303    50.8992
C    44.1141    39.2708    44.3042
C    41.8556    40.4172    43.7029
C    47.9565    49.3357    44.4650
C    48.9290    48.8095    43.5559
C    49.9011    49.5539    42.9468
C    49.9142    50.9349    43.2602
C    48.9734    51.5021    44.1547
C    47.9990    50.7142    44.7569
C    47.1285    48.2634    44.8722
C    47.5595    47.1052    44.2405
C    45.6261    36.2354    47.6921
C    46.5800    35.6279    46.8696
C    47.0239    36.2661    45.6847
C    46.4814    37.4993    45.3403
C    45.5021    38.1367    46.1337
C    45.1115    37.4888    47.3328
C    44.8701    39.4556    45.6913
C    45.7415    40.8533    45.5239
C    47.2105    40.5839    45.8069
C    47.7835    40.3203    47.1492
C    47.0246    40.1351    48.3345
C    49.2258    40.2509    47.2943
C    47.6180    39.9152    49.5729
C    49.8118    39.9855    48.5332
C    49.0263    39.8418    49.6768
C    51.3296    39.8642    48.6193
C    52.0814    41.1808    48.4607
C    52.8418    41.8151    49.3850
C    53.6194    43.0301    48.9464
C    52.9048    41.3534    50.8251
H    48.5749    45.0042    42.8921
H    45.4820    46.1822    45.6932
H    44.1448    44.4944    46.4380
H    48.0382    41.6882    43.2787
H    45.9968    41.1077    43.4558
H    43.4237    42.6104    43.7152
H    43.4755    38.3902    44.3343
H    44.9090    39.0976    43.5707
H    41.2827    40.7833    44.5656
H    41.5417    39.3902    43.4971
H    41.5780    41.0472    42.8512
H    50.6192    49.1029    42.2615
H    49.0549    52.5685    44.3400
H    47.2764    51.1482    45.4439
H    46.3022    48.3602    45.5607
H    51.4502    51.2962    42.1009
H    45.3253    35.7049    48.5937
H    47.7783    35.8060    45.0507
H    46.8469    38.0098    44.4501
H    47.7284    34.0617    46.6074
H    43.9635    37.5804    48.9235
H    44.0994    39.6404    46.4590
H    45.3606    41.4386    46.4118
H    45.9394    40.1603    48.2651
H    46.9954    39.8034    50.4571
H    49.4498    40.5149    45.4281
H    49.0039    39.5060    51.6103
H    51.5879    39.3856    49.5667
H    51.6231    39.2254    47.7763
H    51.9430    41.6435    47.4823
H    54.3683    43.3205    49.6891
H    52.9505    43.8862    48.7811
H    54.1235    42.8465    47.9902
H    53.5206    40.4492    50.9284
H    51.9034    41.1021    51.1996
H    53.3344    42.1235    51.4733
84
Frame 19: 19
C    47.0717    45.7737    44.2782
O    44.3805    43.7640    45.8343
C    47.7052    44.7729    43.5003
O    47.9324    42.5308    42.7706
C    45.9555    45.4322    45.0712
O    50.8509    51.7853    42.7008
C    47.2245    43.4624    43.5166
O    48.7000    47.4185    43.4053
C    45.4700    44.1234    45.0406
O    47.0748    34.3907    47.2570
C    46.0578    43.1127    44.2600
O    44.2086    38.1439    48.1613
C    45.4970    41.6506    44.4427
O    47.9588    40.5025    44.7650
C    43.9733    41.6825    43.9665
O    50.0474    40.4406    46.2340
C    43.3281    40.5009    43.9664
O    49.6628    39.6304    50.8988
C    44.1114    39.2685    44.3052
C    41.8549    40.4178    43.7019
C    47.9565    49.3357    44.4650
C    48.9290    48.8094    43.5559
C    49.9011    49.5539    42.9469
C    49.9142    50.9348    43.2602
C    48.9734    51.5021    44.1547
C    47.9990    50.7142    44.7569
C    47.1285    48.2632    44.8722
C    47.5595    47.1051    44.2403
C    45.6259    36.2362    47.6915
C    46.5798    35.6283    46.8695
C    47.0238    36.2665    45.6847
C    46.4818    37.5000    45.3402
C    45.5030    38.1393    46.1333
C    45.1117    37.4900    47.3322
C    44.8710    39.4581    45.6884
C    45.7400    40.8640    45.5078
C    47.2107    40.5866    45.8043
C    47.7821    40.3208    47.1475
C    47.0239    40.1355    48.3334
C    49.2251    40.2510    47.2938
C    47.6174    39.9154    49.5719
C    49.8112    39.9856    48.5328
C    49.0258    39.8419    49.6763
C    51.3292    39.8643    48.6191
C    52.0813    41.1808    48.4606
C    52.8417    41.8150    49.3850
C    53.6193    43.0300    48.9464
C    52.9047    41.3534    50.8251
H    48.5731    45.0033    42.8909
H    45.4812    46.1824    45.6921
H    44.1430    44.4955    46.4363
H    48.0421    41.6883    43.2788
H    45.9993    41.1075    43.4544
H    43.4291    42.6092    43.7038
H    43.4708    38.3893    44.3380
H    44.9043    39.0917    43.5699
H    41.2817    40.7835    44.5644
H    41.5410    39.3910    43.4956
H    41.5784    41.0481    42.8503
H    50.6191    49.1029    42.2615
H    49.0548    52.5685    44.3400
H    47.2763    51.1482    45.4439
H    46.3022    48.3600    45.5607
H    51.4502    51.2962    42.1009
H    45.3246    35.7057    48.5931
H    47.7780    35.8061    45.0506
H    46.8480    38.0097    44.4498
H    47.7282    34.0620    46.6075
H    43.9631    37.5805    48.9225
H    44.1031    39.6440    46.4591
H    45.3605    41.4379    46.4110
H    45.9386    40.1614    48.2635
H    46.9947    39.8035    50.4560
H    49.4506    40.5149    45.4276
H    49.0035    39.5061    51.6099
H    51.5872    39.3857    49.5665
H    51.6228    39.2254    47.7762
H    51.9430    41.6436    47.4822
H    54.3683    43.3204    49.6891
H    52.9505    43.8862    48.7811
H    54.1235    42.8465    47.9902
H    53.5206    40.4491    50.9284
H    51.9033    41.1020    51.1996
H    53.3343    42.1234    51.4733
84
Frame 20: 20
C    47.0713    45.7735    44.2780
O    44.3803    43.7641    45.8343
C    47.7040    44.7723    43.5000
O    47.9320    42.5305    42.7705
C    45.9552    45.4321    45.0708
O    50.8509    51.7853    42.7008
C    47.2234    43.4613    43.5176
O    48.6999    47.4183    43.4053
C    45.4705    44.1226    45.0413
O    47.0746    34.3910    47.2570
C    46.0598    43.1106    44.2650
O    44.2087    38.1446    48.1609
C    45.5043    41.6376    44.4687
O    47.9610    40.5022    44.7643
C    43.9744    41.6794    43.9677
O    50.0475    40.4406    46.2340
C    43.3274    40.5007    43.9666
O    49.6624    39.6305    50.8984
C    44.1087    39.2661    44.3061
C    41.8543    40.4184    43.7010
C    47.9565    49.3356    44.4650
C    48.9290    48.8094    43.5559
C    49.9011    49.5539    42.9469
C    49.9142    50.9348    43.2602
C    48.9733    51.5020    44.1547
C    47.9990    50.7141    44.7569
C    47.1285    48.2631    44.8721
C    47.5594    47.1049    44.2402
C    45.6257    36.2370    47.6910
C    46.5797    35.6287    46.8694
C    47.0236    36.2668    45.6846
C    46.4822    37.5006    45.3401
C    45.5040    38.1418    46.1330
C    45.1119    37.4912    47.3316
C    44.8719    39.4605    45.6856
C    45.7384    40.8747    45.4917
C    47.2109    40.5894    45.8017
C    47.7807    40.3212    47.1458
C    47.0232    40.1359    48.3322
C    49.2245    40.2511    47.2932
C    47.6169    39.9155    49.5709
C    49.8106    39.9857    48.5323
C    49.0253    39.8420    49.6759
C    51.3288    39.8644    48.6189
C    52.0811    41.1808    48.4606
C    52.8416    41.8150    49.3849
C    53.6193    43.0300    48.9464
C    52.9046    41.3533    50.8250
H    48.5714    45.0024    42.8898
H    45.4805    46.1825    45.6910
H    44.1412    44.4965    46.4346
H    48.0461    41.6883    43.2789
H    46.0017    41.1073    43.4530
H    43.4344    42.6080    43.6924
H    43.4662    38.3883    44.3418
H    44.8997    39.0859    43.5691
H    41.2807    40.7837    44.5633
H    41.5404    39.3918    43.4940
H    41.5788    41.0489    42.8493
H    50.6191    49.1029    42.2615
H    49.0548    52.5685    44.3401
H    47.2763    51.1481    45.4439
H    46.3023    48.3599    45.5607
H    51.4501    51.2962    42.1009
H    45.3240    35.7066    48.5926
H    47.7776    35.8063    45.0505
H    46.8491    38.0096    44.4496
H    47.7280    34.0623    46.6076
H    43.9628    37.5807    48.9216
H    44.1069    39.6475    46.4591
H    45.3604    41.4372    46.4102
H    45.9379    40.1625    48.2619
H    46.9940    39.8037    50.4549
H    49.4513    40.5149    45.4272
H    49.0030    39.5062    51.6095
H    51.5866    39.3858    49.5664
H    51.6225    39.2255    47.7761
H    51.9430    41.6436    47.4822
H    54.3682    43.3203    49.6891
H    52.9505    43.8861    48.7811
H    54.1235    42.8464    47.9901
H    53.5205    40.4491    50.9284
H    51.9033    41.1019    51.1995
H    53.3342    42.1234    51.4733
84
Frame 21: 21
C    47.0710    45.7733    44.2778
O    44.3800    43.7642    45.8343
C    47.7028    44.7718    43.4997
O    47.9315    42.5302    42.7703
C    45.9549    45.4320    45.0704
O    50.8509    51.7853    42.7008
C    47.2222    43.4603    43.5186
O    48.6999    47.4182    43.4053
C    45.4710    44.1218    45.0420
O    47.0744    34.3913    47.2570
C    46.0618    43.1086    44.2699
O    44.2087    38.1452    48.1604
C    45.5115    41.6246    44.4947
O    47.9632    40.5019    44.7636
C    43.9755    41.6764    43.9689
O    50.0476    40.4406    46.2341
C    43.3267    40.5004    43.9669
O    49.6619    39.6305    50.8981
C    44.1061    39.2637    44.3070
C    41.8537    40.4190    43.7001
C    47.9565    49.3355    44.4650
C    48.9289    48.8093    43.5559
C    49.9011    49.5538    42.9469
C    49.9141    50.9348    43.2602
C    48.9733    51.5020    44.1547
C    47.9989    50.7140    44.7569
C    47.1285    48.2629    44.8721
C    47.5594    47.1048    44.2401
C    45.6254    36.2378    47.6905
C    46.5795    35.6290    46.8693
C    47.0235    36.2672    45.6846
C    46.4827    37.5012    45.3400
C    45.5049    38.1444    46.1326
C    45.1120    37.4923    47.3309
C    44.8728    39.4630    45.6827
C    45.7369    40.8855    45.4756
C    47.2111    40.5921    45.7991
C    47.7793    40.3217    47.1441
C    47.0225    40.1364    48.3311
C    49.2238    40.2511    47.2926
C    47.6163    39.9157    49.5700
C    49.8100    39.9859    48.5319
C    49.0248    39.8421    49.6755
C    51.3284    39.8645    48.6187
C    52.0810    41.1808    48.4606
C    52.8415    41.8149    49.3849
C    53.6193    43.0299    48.9464
C    52.9046    41.3533    50.8250
H    48.5696    45.0015    42.8886
H    45.4797    46.1826    45.6899
H    44.1394    44.4976    46.4329
H    48.0501    41.6884    43.2791
H    46.0042    41.1071    43.4516
H    43.4397    42.6067    43.6809
H    43.4615    38.3873    44.3455
H    44.8951    39.0800    43.5683
H    41.2796    40.7839    44.5622
H    41.5398    39.3926    43.4924
H    41.5792    41.0498    42.8483
H    50.6191    49.1028    42.2615
H    49.0548    52.5684    44.3401
H    47.2763    51.1480    45.4439
H    46.3023    48.3598    45.5607
H    51.4501    51.2961    42.1009
H    45.3234    35.7075    48.5920
H    47.7773    35.8065    45.0503
H    46.8501    38.0094    44.4493
H    47.7278    34.0625    46.6076
H    43.9625    37.5808    48.9207
H    44.1106    39.6510    46.4592
H    45.3602    41.4366    46.4095
H    45.9371    40.1635    48.2602
H    46.9933    39.8038    50.4538
H    49.4521    40.5148    45.4268
H    49.0025    39.5063    51.6091
H    51.5859    39.3859    49.5663
H    51.6221    39.2255    47.7760
H    51.9430    41.6436    47.4822
H    54.3682    43.3203    49.6891
H    52.9505    43.8861    48.7811
H    54.1235    42.8464    47.9901
H    53.5205    40.4490    50.9283
H    51.9032    41.1019    51.1995
H    53.3342    42.1233    51.4732
84
Frame 22: 22
C    47.0706    45.7730    44.2775
O    44.3798    43.7643    45.8343
C    47.7016    44.7712    43.4994
O    47.9310    42.5299    42.7702
C    45.9546    45.4319    45.0699
O    50.8509    51.7853    42.7009
C    47.2210    43.4592    43.5196
O    48.6999    47.4181    43.4053
C    45.4715    44.1210    45.0427
O    47.0741    34.3917    47.2570
C    46.0638    43.1065    44.2749
O    44.2087    38.1458    48.1599
C    45.5187    41.6116    44.5206
O    47.9654    40.5015    44.7628
C    43.9766    41.6733    43.9700
O    50.0477    40.4407    46.2342
C    43.3260    40.5002    43.9672
O    49.6615    39.6306    50.8977
C    44.1034    39.2613    44.3079
C    41.8531    40.4196    43.6991
C    47.9565    49.3354    44.4650
C    48.9289    48.8093    43.5559
C    49.9011    49.5538    42.9469
C    49.9141    50.9347    43.2602
C    48.9733    51.5019    44.1547
C    47.9989    50.7140    44.7569
C    47.1285    48.2628    44.8720
C    47.5593    47.1046    44.2400
C    45.6252    36.2386    47.6900
C    46.5794    35.6294    46.8692
C    47.0234    36.2675    45.6846
C    46.4831    37.5018    45.3399
C    45.5058    38.1469    46.1323
C    45.1122    37.4935    47.3303
C    44.8737    39.4655    45.6799
C    45.7353    40.8962    45.4595
C    47.2112    40.5948    45.7965
C    47.7779    40.3222    47.1424
C    47.0218    40.1368    48.3300
C    49.2232    40.2512    47.2921
C    47.6158    39.9158    49.5690
C    49.8094    39.9860    48.5315
C    49.0244    39.8421    49.6750
C    51.3280    39.8646    48.6186
C    52.0808    41.1808    48.4606
C    52.8415    41.8149    49.3849
C    53.6192    43.0299    48.9464
C    52.9045    41.3532    50.8250
H    48.5679    45.0006    42.8875
H    45.4789    46.1828    45.6887
H    44.1376    44.4986    46.4312
H    48.0540    41.6885    43.2792
H    46.0066    41.1069    43.4501
H    43.4450    42.6055    43.6695
H    43.4568    38.3864    44.3493
H    44.8904    39.0742    43.5675
H    41.2786    40.7841    44.5611
H    41.5392    39.3934    43.4909
H    41.5797    41.0507    42.8474
H    50.6191    49.1028    42.2615
H    49.0547    52.5684    44.3401
H    47.2763    51.1480    45.4439
H    46.3023    48.3596    45.5607
H    51.4501    51.2961    42.1009
H    45.3227    35.7084    48.5915
H    47.7770    35.8067    45.0502
H    46.8512    38.0093    44.4490
H    47.7276    34.0628    46.6077
H    43.9622    37.5809    48.9198
H    44.1144    39.6546    46.4592
H    45.3601    41.4359    46.4087
H    45.9363    40.1646    48.2586
H    46.9927    39.8039    50.4527
H    49.4529    40.5148    45.4263
H    49.0020    39.5064    51.6087
H    51.5853    39.3860    49.5662
H    51.6218    39.2256    47.7759
H    51.9430    41.6437    47.4821
H    54.3682    43.3202    49.6891
H    52.9505    43.8861    48.7811
H    54.1234    42.8463    47.9901
H    53.5204    40.4490    50.9283
H    51.9031    41.1018    51.1994
H    53.3341    42.1233    51.4732
84
Frame 23: 23
C    47.0703    45.7728    44.2773
O    44.3796    43.7643    45.8343
C    47.7004    44.7706    43.4992
O    47.9305    42.5296    42.7700
C    45.9543    45.4319    45.0695
O    50.8509    51.7852    42.7009
C    47.2198    43.4581    43.5206
O    48.6999    47.4180    43.4052
C    45.4720    44.1203    45.0433
O    47.0739    34.3920    47.2570
C    46.0658    43.1045    44.2798
O    44.2087    38.1465    48.1595
C    45.5259    41.5986    44.5466
O    47.9676    40.5012    44.7621
C    43.9778    41.6703    43.9712
O    50.0478    40.4407    46.2343
C    43.3253    40.5000    43.9675
O    49.6610    39.6307    50.8973
C    44.1007    39.2590    44.3088
C    41.8524    40.4202    43.6982
C    47.9565    49.3353    44.4650
C    48.9289    48.8092    43.5559
C    49.9010    49.5537    42.9469
C    49.9141    50.9347    43.2602
C    48.9733    51.5019    44.1547
C    47.9989    50.7139    44.7569
C    47.1285    48.2626    44.8720
C    47.5592    47.1045    44.2399
C    45.6250    36.2393    47.6894
C    46.5792    35.6297    46.8691
C    47.0232    36.2679    45.6846
C    46.4835    37.5024    45.3399
C    45.5067    38.1495    46.1319
C    45.1124    37.4947    47.3296
C    44.8745    39.4680    45.6771
C    45.7338    40.9069    45.4434
C    47.2114    40.5975    45.7939
C    47.7764    40.3226    47.1407
C    47.0211    40.1372    48.3289
C    49.2225    40.2513    47.2915
C    47.6152    39.9160    49.5680
C    49.8088    39.9861    48.5310
C    49.0239    39.8422    49.6746
C    51.3276    39.8647    48.6184
C    52.0807    41.1808    48.4605
C    52.8414    41.8148    49.3849
C    53.6192    43.0298    48.9464
C    52.9045    41.3532    50.8250
H    48.5661    44.9996    42.8863
H    45.4781    46.1829    45.6876
H    44.1358    44.4997    46.4295
H    48.0580    41.6885    43.2793
H    46.0091    41.1067    43.4487
H    43.4504    42.6043    43.6581
H    43.4522    38.3854    44.3530
H    44.8858    39.0683    43.5667
H    41.2776    40.7843    44.5600
H    41.5385    39.3942    43.4893
H    41.5801    41.0516    42.8464
H    50.6191    49.1028    42.2615
H    49.0547    52.5683    44.3401
H    47.2763    51.1479    45.4439
H    46.3024    48.3595    45.5607
H    51.4501    51.2961    42.1010
H    45.3221    35.7093    48.5909
H    47.7767    35.8069    45.0501
H    46.8523    38.0091    44.4488
H    47.7274    34.0631    46.6078
H    43.9619    37.5811    48.9189
H    44.1181    39.6581    46.4593
H    45.3600    41.4353    46.4079
H    45.9355    40.1657    48.2570
H    46.9920    39.8041    50.4516
H    49.4537    40.5147    45.4259
H    49.0016    39.5066    51.6083
H    51.5846    39.3860    49.5661
H    51.6215    39.2256    47.7758
H    51.9430    41.6437    47.4821
H    54.3682    43.3201    49.6891
H    52.9505    43.8860    48.7811
H    54.1234    42.8463    47.9901
H    53.5204    40.4490    50.9282
H    51.9031    41.1018    51.1994
H    53.3340    42.1233    51.4732
84
Frame 24: 24
C    47.0699    45.7726    44.2771
O    44.3793    43.7644    45.8343
C    47.6992    44.7700    43.4989
O    47.9301    42.5293    42.7699
C    45.9540    45.4318    45.0691
O    50.8508    51.7852    42.7009
C    47.2186    43.4570    43.5217
O    48.6998    47.4179    43.4052
C    45.4725    44.1195    45.0440
O    47.0737    34.3923    47.2570
C    46.0678    43.1025    44.2848
O    44.2088    38.1471    48.1590
C    45.5331    41.5856    44.5725
O    47.9699    40.5009    44.7614
C    43.9789    41.6673    43.9724
O    50.0478    40.4407    46.2344
C    43.3246    40.4997    43.9678
O    49.6606    39.6308    50.8969
C    44.0980    39.2566    44.3097
C    41.8518    40.4208    43.6972
C    47.9564    49.3352    44.4650
C    48.9289    48.8092    43.5559
C    49.9010    49.5537    42.9469
C    49.9141    50.9347    43.2602
C    48.9733    51.5019    44.1547
C    47.9989    50.7138    44.7569
C    47.1285    48.2625    44.8719
C    47.5592    47.1044    44.2398
C    45.6248    36.2401    47.6889
C    46.5791    35.6301    46.8690
C    47.0231    36.2683    45.6845
C    46.4839    37.5030    45.3398
C    45.5077    38.1521    46.1316
C    45.1126    37.4958    47.3290
C    44.8754    39.4705    45.6742
C    45.7322    40.9176    45.4273
C    47.2116    40.6003    45.7913
C    47.7750    40.3231    47.1390
C    47.0203    40.1377    48.3277
C    49.2218    40.2514    47.2909
C    47.6147    39.9162    49.5670
C    49.8083    39.9862    48.5306
C    49.0234    39.8423    49.6741
C    51.3272    39.8648    48.6182
C    52.0805    41.1808    48.4605
C    52.8413    41.8148    49.3848
C    53.6192    43.0298    48.9464
C    52.9044    41.3532    50.8249
H    48.5644    44.9987    42.8851
H    45.4773    46.1830    45.6865
H    44.1340    44.5007    46.4278
H    48.0619    41.6886    43.2795
H    46.0115    41.1065    43.4473
H    43.4557    42.6031    43.6466
H    43.4475    38.3845    44.3568
H    44.8812    39.0625    43.5658
H    41.2766    40.7845    44.5588
H    41.5379    39.3950    43.4877
H    41.5805    41.0525    42.8454
H    50.6191    49.1028    42.2615
H    49.0547    52.5683    44.3401
H    47.2763    51.1478    45.4439
H    46.3024    48.3593    45.5607
H    51.4501    51.2961    42.1010
H    45.3215    35.7102    48.5904
H    47.7764    35.8071    45.0499
H    46.8533    38.0090    44.4485
H    47.7272    34.0634    46.6078
H    43.9615    37.5812    48.9180
H    44.1218    39.6616    46.4593
H    45.3599    41.4346    46.4071
H    45.9348    40.1667    48.2554
H    46.9913    39.8042    50.4505
H    49.4544    40.5147    45.4254
H    49.0011    39.5067    51.6079
H    51.5840    39.3861    49.5660
H    51.6212    39.2257    47.7757
H    51.9430    41.6437    47.4820
H    54.3681    43.3201    49.6891
H    52.9505    43.8860    48.7811
H    54.1234    42.8462    47.9901
H    53.5203    40.4489    50.9282
H    51.9030    41.1017    51.1993
H    53.3340    42.1232    51.4732
84
Frame 25: 25
C    47.0696    45.7723    44.2768
O    44.3791    43.7645    45.8343
C    47.6980    44.7694    43.4986
O    47.9296    42.5290    42.7697
C    45.9537    45.4317    45.0687
O    50.8508    51.7852    42.7009
C    47.2174    43.4559    43.5227
O    48.6998    47.4178    43.4052
C    45.4731    44.1187    45.0447
O    47.0734    34.3926    47.2571
C    46.0698    43.1004    44.2897
O    44.2088    38.1477    48.1585
C    45.5404    41.5726    44.5985
O    47.9721    40.5006    44.7607
C    43.9800    41.6642    43.9736
O    50.0479    40.4408    46.2345
C    43.3239    40.4995    43.9680
O    49.6602    39.6308    50.8966
C    44.0953    39.2542    44.3106
C    41.8512    40.4214    43.6963
C    47.9564    49.3351    44.4650
C    48.9289    48.8091    43.5559
C    49.9010    49.5537    42.9469
C    49.9141    50.9347    43.2602
C    48.9732    51.5018    44.1547
C    47.9989    50.7138    44.7569
C    47.1285    48.2623    44.8719
C    47.5591    47.1042    44.2397
C    45.6245    36.2409    47.6884
C    46.5789    35.6304    46.8689
C    47.0230    36.2686    45.6845
C    46.4843    37.5036    45.3397
C    45.5086    38.1546    46.1312
C    45.1127    37.4970    47.3283
C    44.8763    39.4729    45.6714
C    45.7307    40.9284    45.4113
C    47.2118    40.6030    45.7887
C    47.7736    40.3235    47.1373
C    47.0196    40.1381    48.3266
C    49.2212    40.2514    47.2904
C    47.6142    39.9163    49.5660
C    49.8077    39.9863    48.5301
C    49.0229    39.8424    49.6737
C    51.3268    39.8649    48.6181
C    52.0804    41.1808    48.4605
C    52.8412    41.8148    49.3848
C    53.6192    43.0297    48.9464
C    52.9044    41.3531    50.8249
H    48.5626    44.9978    42.8840
H    45.4765    46.1832    45.6854
H    44.1322    44.5018    46.4260
H    48.0659    41.6887    43.2796
H    46.0140    41.1063    43.4459
H    43.4610    42.6019    43.6352
H    43.4429    38.3835    44.3605
H    44.8765    39.0566    43.5650
H    41.2755    40.7847    44.5577
H    41.5373    39.3958    43.4862
H    41.5809    41.0534    42.8444
H    50.6191    49.1027    42.2615
H    49.0546    52.5682    44.3401
H    47.2763    51.1477    45.4439
H    46.3024    48.3592    45.5607
H    51.4501    51.2961    42.1010
H    45.3209    35.7111    48.5898
H    47.7761    35.8072    45.0498
H    46.8544    38.0088    44.4483
H    47.7270    34.0636    46.6079
H    43.9612    37.5813    48.9171
H    44.1256    39.6652    46.4594
H    45.3598    41.4339    46.4063
H    45.9340    40.1678    48.2537
H    46.9906    39.8044    50.4494
H    49.4552    40.5146    45.4250
H    49.0006    39.5068    51.6075
H    51.5833    39.3862    49.5658
H    51.6208    39.2257    47.7756
H    51.9429    41.6438    47.4820
H    54.3681    43.3200    49.6891
H    52.9505    43.8860    48.7811
H    54.1234    42.8462    47.9901
H    53.5203    40.4489    50.9282
H    51.9030    41.1016    51.1993
H    53.3339    42.1232    51.4732
84
Frame 26: 26
C    47.0696    45.7723    44.2768
O    44.3791    43.7645    45.8343
C    47.6980    44.7694    43.4986
O    47.9296    42.5290    42.7697
C    45.9537    45.4317    45.0687
O    50.8508    51.7852    42.7009
C    47.2174    43.4559    43.5227
O    48.6998    47.4178    43.4052
C    45.4731    44.1187    45.0447
O    47.0734    34.3926    47.2571
C    46.0698    43.1004    44.2897
O    44.2088    38.1477    48.1585
C    45.5404    41.5726    44.5985
O    47.9721    40.5006    44.7607
C    43.9800    41.6642    43.9736
O    50.0479    40.4408    46.2345
C    43.3239    40.4995    43.9680
O    49.6602    39.6308    50.8966
C    44.0953    39.2542    44.3106
C    41.8512    40.4214    43.6963
C    47.9564    49.3351    44.4650
C    48.9289    48.8091    43.5559
C    49.9010    49.5537    42.9469
C    49.9141    50.9347    43.2602
C    48.9732    51.5018    44.1547
C    47.9989    50.7138    44.7569
C    47.1285    48.2623    44.8719
C    47.5591    47.1042    44.2397
C    45.6245    36.2409    47.6884
C    46.5789    35.6304    46.8689
C    47.0230    36.2686    45.6845
C    46.4843    37.5036    45.3397
C    45.5086    38.1546    46.1312
C    45.1127    37.4970    47.3283
C    44.8763    39.4729    45.6714
C    45.7307    40.9284    45.4113
C    47.2118    40.6030    45.7887
C    47.7736    40.3235    47.1373
C    47.0196    40.1381    48.3266
C    49.2212    40.2514    47.2904
C    47.6142    39.9163    49.5660
C    49.8077    39.9863    48.5301
C    49.0229    39.8424    49.6737
C    51.3268    39.8649    48.6181
C    52.0804    41.1808    48.4605
C    52.8412    41.8148    49.3848
C    53.6192    43.0297    48.9464
C    52.9044    41.3531    50.8249
H    48.5626    44.9978    42.8840
H    45.4765    46.1832    45.6854
H    44.1322    44.5018    46.4260
H    48.0659    41.6887    43.2796
H    46.0140    41.1063    43.4459
H    43.4610    42.6019    43.6352
H    43.4429    38.3835    44.3605
H    44.8765    39.0566    43.5650
H    41.2755    40.7847    44.5577
H    41.5373    39.3958    43.4862
H    41.5809    41.0534    42.8444
H    50.6191    49.1027    42.2615
H    49.0546    52.5682    44.3401
H    47.2763    51.1477    45.4439
H    46.3024    48.3592    45.5607
H    51.4501    51.2961    42.1010
H    45.3209    35.7111    48.5898
H    47.7761    35.8072    45.0498
H    46.8544    38.0088    44.4483
H    47.7270    34.0636    46.6079
H    43.9612    37.5813    48.9171
H    44.1256    39.6652    46.4594
H    45.3598    41.4339    46.4063
H    45.9340    40.1678    48.2537
H    46.9906    39.8044    50.4494
H    49.4552    40.5146    45.4250
H    49.0006    39.5068    51.6075
H    51.5833    39.3862    49.5658
H    51.6208    39.2257    47.7756
H    51.9429    41.6438    47.4820
H    54.3681    43.3200    49.6891
H    52.9505    43.8860    48.7811
H    54.1234    42.8462    47.9901
H    53.5203    40.4489    50.9282
H    51.9030    41.1016    51.1993
H    53.3339    42.1232    51.4732
84
Frame 27: 27
C    47.0696    45.7723    44.2768
O    44.3791    43.7645    45.8343
C    47.6980    44.7694    43.4986
O    47.9296    42.5290    42.7697
C    45.9537    45.4317    45.0687
O    50.8508    51.7852    42.7009
C    47.2174    43.4559    43.5227
O    48.6998    47.4178    43.4052
C    45.4731    44.1187    45.0447
O    47.0734    34.3926    47.2571
C    46.0698    43.1004    44.2897
O    44.2088    38.1477    48.1585
C    45.5404    41.5726    44.5985
O    47.9721    40.5006    44.7607
C    43.9800    41.6642    43.9736
O    50.0479    40.4408    46.2345
C    43.3239    40.4995    43.9680
O    49.6602    39.6308    50.8966
C    44.0953    39.2542    44.3106
C    41.8512    40.4214    43.6963
C    47.9564    49.3351    44.4650
C    48.9289    48.8091    43.5559
C    49.9010    49.5537    42.9469
C    49.9141    50.9347    43.2602
C    48.9732    51.5018    44.1547
C    47.9989    50.7138    44.7569
C    47.1285    48.2623    44.8719
C    47.5591    47.1042    44.2397
C    45.6245    36.2409    47.6884
C    46.5789    35.6304    46.8689
C    47.0230    36.2686    45.6845
C    46.4843    37.5036    45.3397
C    45.5086    38.1546    46.1312
C    45.1127    37.4970    47.3283
C    44.8763    39.4729    45.6714
C    45.7307    40.9284    45.4113
C    47.2118    40.6030    45.7887
C    47.7736    40.3235    47.1373
C    47.0196    40.1381    48.3266
C    49.2212    40.2514    47.2904
C    47.6142    39.9163    49.5660
C    49.8077    39.9863    48.5301
C    49.0229    39.8424    49.6737
C    51.3268    39.8649    48.6181
C    52.0804    41.1808    48.4605
C    52.8412    41.8148    49.3848
C    53.6192    43.0297    48.9464
C    52.9044    41.3531    50.8249
H    48.5626    44.9978    42.8840
H    45.4765    46.1832    45.6854
H    44.1322    44.5018    46.4260
H    48.0659    41.6887    43.2796
H    46.0140    41.1063    43.4459
H    43.4610    42.6019    43.6352
H    43.4429    38.3835    44.3605
H    44.8765    39.0566    43.5650
H    41.2755    40.7847    44.5577
H    41.5373    39.3958    43.4862
H    41.5809    41.0534    42.8444
H    50.6191    49.1027    42.2615
H    49.0546    52.5682    44.3401
H    47.2763    51.1477    45.4439
H    46.3024    48.3592    45.5607
H    51.4501    51.2961    42.1010
H    45.3209    35.7111    48.5898
H    47.7761    35.8072    45.0498
H    46.8544    38.0088    44.4483
H    47.7270    34.0636    46.6079
H    43.9612    37.5813    48.9171
H    44.1256    39.6652    46.4594
H    45.3598    41.4339    46.4063
H    45.9340    40.1678    48.2537
H    46.9906    39.8044    50.4494
H    49.4552    40.5146    45.4250
H    49.0006    39.5068    51.6075
H    51.5833    39.3862    49.5658
H    51.6208    39.2257    47.7756
H    51.9429    41.6438    47.4820
H    54.3681    43.3200    49.6891
H    52.9505    43.8860    48.7811
H    54.1234    42.8462    47.9901
H    53.5203    40.4489    50.9282
H    51.9030    41.1016    51.1993
H    53.3339    42.1232    51.4732
84
Frame 28: 28
C    47.0699    45.7726    44.2771
O    44.3793    43.7644    45.8343
C    47.6992    44.7700    43.4989
O    47.9301    42.5293    42.7699
C    45.9540    45.4318    45.0691
O    50.8508    51.7852    42.7009
C    47.2186    43.4570    43.5217
O    48.6998    47.4179    43.4052
C    45.4725    44.1195    45.0440
O    47.0737    34.3923    47.2570
C    46.0678    43.1025    44.2848
O    44.2088    38.1471    48.1590
C    45.5331    41.5856    44.5725
O    47.9699    40.5009    44.7614
C    43.9789    41.6673    43.9724
O    50.0478    40.4407    46.2344
C    43.3246    40.4997    43.9678
O    49.6606    39.6308    50.8969
C    44.0980    39.2566    44.3097
C    41.8518    40.4208    43.6972
C    47.9564    49.3352    44.4650
C    48.9289    48.8092    43.5559
C    49.9010    49.5537    42.9469
C    49.9141    50.9347    43.2602
C    48.9733    51.5019    44.1547
C    47.9989    50.7138    44.7569
C    47.1285    48.2625    44.8719
C    47.5592    47.1044    44.2398
C    45.6248    36.2401    47.6889
C    46.5791    35.6301    46.8690
C    47.0231    36.2683    45.6845
C    46.4839    37.5030    45.3398
C    45.5077    38.1521    46.1316
C    45.1126    37.4958    47.3290
C    44.8754    39.4705    45.6742
C    45.7322    40.9176    45.4273
C    47.2116    40.6003    45.7913
C    47.7750    40.3231    47.1390
C    47.0203    40.1377    48.3277
C    49.2218    40.2514    47.2909
C    47.6147    39.9162    49.5670
C    49.8083    39.9862    48.5306
C    49.0234    39.8423    49.6741
C    51.3272    39.8648    48.6182
C    52.0805    41.1808    48.4605
C    52.8413    41.8148    49.3848
C    53.6192    43.0298    48.9464
C    52.9044    41.3532    50.8249
H    48.5644    44.9987    42.8851
H    45.4773    46.1830    45.6865
H    44.1340    44.5007    46.4278
H    48.0619    41.6886    43.2795
H    46.0115    41.1065    43.4473
H    43.4557    42.6031    43.6466
H    43.4475    38.3845    44.3568
H    44.8812    39.0625    43.5658
H    41.2766    40.7845    44.5588
H    41.5379    39.3950    43.4877
H    41.5805    41.0525    42.8454
H    50.6191    49.1028    42.2615
H    49.0547    52.5683    44.3401
H    47.2763    51.1478    45.4439
H    46.3024    48.3593    45.5607
H    51.4501    51.2961    42.1010
H    45.3215    35.7102    48.5904
H    47.7764    35.8071    45.0499
H    46.8533    38.0090    44.4485
H    47.7272    34.0634    46.6078
H    43.9615    37.5812    48.9180
H    44.1218    39.6616    46.4593
H    45.3599    41.4346    46.4071
H    45.9348    40.1667    48.2554
H    46.9913    39.8042    50.4505
H    49.4544    40.5147    45.4254
H    49.0011    39.5067    51.6079
H    51.5840    39.3861    49.5660
H    51.6212    39.2257    47.7757
H    51.9430    41.6437    47.4820
H    54.3681    43.3201    49.6891
H    52.9505    43.8860    48.7811
H    54.1234    42.8462    47.9901
H    53.5203    40.4489    50.9282
H    51.9030    41.1017    51.1993
H    53.3340    42.1232    51.4732
84
Frame 29: 29
C    47.0703    45.7728    44.2773
O    44.3796    43.7643    45.8343
C    47.7004    44.7706    43.4992
O    47.9305    42.5296    42.7700
C    45.9543    45.4319    45.0695
O    50.8509    51.7852    42.7009
C    47.2198    43.4581    43.5206
O    48.6998    47.4180    43.4052
C    45.4720    44.1203    45.0433
O    47.0739    34.3920    47.2570
C    46.0658    43.1045    44.2798
O    44.2087    38.1465    48.1595
C    45.5259    41.5986    44.5466
O    47.9676    40.5012    44.7621
C    43.9778    41.6703    43.9712
O    50.0478    40.4407    46.2343
C    43.3253    40.5000    43.9675
O    49.6610    39.6307    50.8973
C    44.1007    39.2590    44.3088
C    41.8524    40.4202    43.6982
C    47.9565    49.3353    44.4650
C    48.9289    48.8092    43.5559
C    49.9010    49.5537    42.9469
C    49.9141    50.9347    43.2602
C    48.9733    51.5019    44.1547
C    47.9989    50.7139    44.7569
C    47.1285    48.2626    44.8720
C    47.5592    47.1045    44.2399
C    45.6250    36.2393    47.6894
C    46.5792    35.6297    46.8691
C    47.0232    36.2679    45.6846
C    46.4835    37.5024    45.3399
C    45.5067    38.1495    46.1319
C    45.1124    37.4947    47.3296
C    44.8745    39.4680    45.6771
C    45.7338    40.9069    45.4434
C    47.2114    40.5975    45.7939
C    47.7764    40.3226    47.1407
C    47.0211    40.1372    48.3289
C    49.2225    40.2513    47.2915
C    47.6152    39.9160    49.5680
C    49.8088    39.9861    48.5310
C    49.0239    39.8422    49.6746
C    51.3276    39.8647    48.6184
C    52.0807    41.1808    48.4605
C    52.8414    41.8148    49.3849
C    53.6192    43.0298    48.9464
C    52.9045    41.3532    50.8250
H    48.5661    44.9996    42.8863
H    45.4781    46.1829    45.6876
H    44.1358    44.4997    46.4295
H    48.0580    41.6885    43.2793
H    46.0091    41.1067    43.4487
H    43.4504    42.6043    43.6581
H    43.4522    38.3854    44.3530
H    44.8858    39.0683    43.5667
H    41.2776    40.7843    44.5600
H    41.5385    39.3942    43.4893
H    41.5801    41.0516    42.8464
H    50.6191    49.1028    42.2615
H    49.0547    52.5683    44.3401
H    47.2763    51.1479    45.4439
H    46.3024    48.3595    45.5607
H    51.4501    51.2961    42.1010
H    45.3221    35.7093    48.5909
H    47.7767    35.8069    45.0501
H    46.8523    38.0091    44.4488
H    47.7274    34.0631    46.6078
H    43.9619    37.5811    48.9189
H    44.1181    39.6581    46.4593
H    45.3600    41.4353    46.4079
H    45.9355    40.1657    48.2570
H    46.9920    39.8041    50.4516
H    49.4537    40.5147    45.4259
H    49.0016    39.5066    51.6083
H    51.5846    39.3860    49.5661
H    51.6215    39.2256    47.7758
H    51.9430    41.6437    47.4821
H    54.3682    43.3201    49.6891
H    52.9505    43.8860    48.7811
H    54.1234    42.8463    47.9901
H    53.5204    40.4490    50.9282
H    51.9031    41.1018    51.1994
H    53.3340    42.1233    51.4732
84
Frame 30: 30
C    47.0706    45.7730    44.2775
O    44.3798    43.7643    45.8343
C    47.7016    44.7712    43.4994
O    47.9310    42.5299    42.7702
C    45.9546    45.4319    45.0699
O    50.8509    51.7853    42.7009
C    47.2210    43.4592    43.5196
O    48.6999    47.4181    43.4053
C    45.4715    44.1210    45.0427
O    47.0741    34.3917    47.2570
C    46.0638    43.1065    44.2749
O    44.2087    38.1458    48.1599
C    45.5187    41.6116    44.5206
O    47.9654    40.5015    44.7628
C    43.9766    41.6733    43.9700
O    50.0477    40.4407    46.2342
C    43.3260    40.5002    43.9672
O    49.6615    39.6306    50.8977
C    44.1034    39.2613    44.3079
C    41.8531    40.4196    43.6991
C    47.9565    49.3354    44.4650
C    48.9289    48.8093    43.5559
C    49.9011    49.5538    42.9469
C    49.9141    50.9347    43.2602
C    48.9733    51.5019    44.1547
C    47.9989    50.7140    44.7569
C    47.1285    48.2628    44.8720
C    47.5593    47.1046    44.2400
C    45.6252    36.2386    47.6900
C    46.5794    35.6294    46.8692
C    47.0234    36.2675    45.6846
C    46.4831    37.5018    45.3399
C    45.5058    38.1469    46.1323
C    45.1122    37.4935    47.3303
C    44.8737    39.4655    45.6799
C    45.7353    40.8962    45.4595
C    47.2112    40.5948    45.7965
C    47.7779    40.3222    47.1424
C    47.0218    40.1368    48.3300
C    49.2232    40.2512    47.2921
C    47.6158    39.9158    49.5690
C    49.8094    39.9860    48.5315
C    49.0244    39.8421    49.6750
C    51.3280    39.8646    48.6186
C    52.0808    41.1808    48.4606
C    52.8415    41.8149    49.3849
C    53.6192    43.0299    48.9464
C    52.9045    41.3532    50.8250
H    48.5679    45.0006    42.8875
H    45.4789    46.1828    45.6887
H    44.1376    44.4986    46.4312
H    48.0540    41.6885    43.2792
H    46.0066    41.1069    43.4501
H    43.4450    42.6055    43.6695
H    43.4568    38.3864    44.3493
H    44.8904    39.0742    43.5675
H    41.2786    40.7841    44.5611
H    41.5392    39.3934    43.4909
H    41.5797    41.0507    42.8474
H    50.6191    49.1028    42.2615
H    49.0547    52.5684    44.3401
H    47.2763    51.1480    45.4439
H    46.3023    48.3596    45.5607
H    51.4501    51.2961    42.1009
H    45.3227    35.7084    48.5915
H    47.7770    35.8067    45.0502
H    46.8512    38.0093    44.4490
H    47.7276    34.0628    46.6077
H    43.9622    37.5809    48.9198
H    44.1144    39.6546    46.4592
H    45.3601    41.4359    46.4087
H    45.9363    40.1646    48.2586
H    46.9927    39.8039    50.4527
H    49.4529    40.5148    45.4263
H    49.0020    39.5064    51.6087
H    51.5853    39.3860    49.5662
H    51.6218    39.2256    47.7759
H    51.9430    41.6437    47.4821
H    54.3682    43.3202    49.6891
H    52.9505    43.8861    48.7811
H    54.1234    42.8463    47.9901
H    53.5204    40.4490    50.9283
H    51.9031    41.1018    51.1994
H    53.3341    42.1233    51.4732
84
Frame 31: 31
C    47.0710    45.7733    44.2778
O    44.3800    43.7642    45.8343
C    47.7028    44.7718    43.4997
O    47.9315    42.5302    42.7703
C    45.9549    45.4320    45.0704
O    50.8509    51.7853    42.7008
C    47.2222    43.4603    43.5186
O    48.6999    47.4182    43.4053
C    45.4710    44.1218    45.0420
O    47.0744    34.3913    47.2570
C    46.0618    43.1086    44.2699
O    44.2087    38.1452    48.1604
C    45.5115    41.6246    44.4947
O    47.9632    40.5019    44.7636
C    43.9755    41.6764    43.9689
O    50.0476    40.4406    46.2341
C    43.3267    40.5004    43.9669
O    49.6619    39.6305    50.8981
C    44.1061    39.2637    44.3070
C    41.8537    40.4190    43.7001
C    47.9565    49.3355    44.4650
C    48.9289    48.8093    43.5559
C    49.9011    49.5538    42.9469
C    49.9141    50.9348    43.2602
C    48.9733    51.5020    44.1547
C    47.9989    50.7140    44.7569
C    47.1285    48.2629    44.8721
C    47.5594    47.1048    44.2401
C    45.6254    36.2378    47.6905
C    46.5795    35.6290    46.8693
C    47.0235    36.2672    45.6846
C    46.4827    37.5012    45.3400
C    45.5049    38.1444    46.1326
C    45.1120    37.4923    47.3309
C    44.8728    39.4630    45.6827
C    45.7369    40.8855    45.4756
C    47.2111    40.5921    45.7991
C    47.7793    40.3217    47.1441
C    47.0225    40.1364    48.3311
C    49.2238    40.2511    47.2926
C    47.6163    39.9157    49.5700
C    49.8100    39.9859    48.5319
C    49.0248    39.8421    49.6755
C    51.3284    39.8645    48.6187
C    52.0810    41.1808    48.4606
C    52.8415    41.8149    49.3849
C    53.6193    43.0299    48.9464
C    52.9046    41.3533    50.8250
H    48.5696    45.0015    42.8886
H    45.4797    46.1826    45.6899
H    44.1394    44.4976    46.4329
H    48.0501    41.6884    43.2791
H    46.0042    41.1071    43.4516
H    43.4397    42.6068    43.6809
H    43.4615    38.3873    44.3455
H    44.8951    39.0800    43.5683
H    41.2796    40.7839    44.5622
H    41.5398    39.3926    43.4924
H    41.5792    41.0498    42.8483
H    50.6191    49.1028    42.2615
H    49.0548    52.5684    44.3401
H    47.2763    51.1480    45.4439
H    46.3023    48.3598    45.5607
H    51.4501    51.2961    42.1009
H    45.3234    35.7075    48.5920
H    47.7773    35.8065    45.0503
H    46.8501    38.0094    44.4493
H    47.7278    34.0625    46.6076
H    43.9625    37.5808    48.9207
H    44.1106    39.6510    46.4592
H    45.3602    41.4366    46.4095
H    45.9371    40.1635    48.2602
H    46.9933    39.8038    50.4538
H    49.4521    40.5148    45.4268
H    49.0025    39.5063    51.6091
H    51.5859    39.3859    49.5663
H    51.6221    39.2255    47.7760
H    51.9430    41.6436    47.4822
H    54.3682    43.3203    49.6891
H    52.9505    43.8861    48.7811
H    54.1235    42.8464    47.9901
H    53.5205    40.4490    50.9283
H    51.9032    41.1019    51.1995
H    53.3342    42.1233    51.4732
84
Frame 32: 32
C    47.0713    45.7735    44.2780
O    44.3803    43.7641    45.8343
C    47.7040    44.7723    43.5000
O    47.9320    42.5305    42.7705
C    45.9552    45.4321    45.0708
O    50.8509    51.7853    42.7008
C    47.2234    43.4613    43.5176
O    48.6999    47.4183    43.4053
C    45.4705    44.1226    45.0413
O    47.0746    34.3910    47.2570
C    46.0598    43.1106    44.2650
O    44.2087    38.1446    48.1609
C    45.5043    41.6376    44.4687
O    47.9610    40.5022    44.7643
C    43.9744    41.6794    43.9677
O    50.0475    40.4406    46.2340
C    43.3274    40.5007    43.9666
O    49.6624    39.6305    50.8984
C    44.1087    39.2661    44.3061
C    41.8543    40.4184    43.7010
C    47.9565    49.3356    44.4650
C    48.9290    48.8094    43.5559
C    49.9011    49.5539    42.9469
C    49.9142    50.9348    43.2602
C    48.9733    51.5020    44.1547
C    47.9990    50.7141    44.7569
C    47.1285    48.2631    44.8721
C    47.5594    47.1049    44.2402
C    45.6257    36.2370    47.6910
C    46.5797    35.6287    46.8694
C    47.0236    36.2668    45.6846
C    46.4822    37.5006    45.3401
C    45.5040    38.1418    46.1330
C    45.1119    37.4912    47.3316
C    44.8719    39.4605    45.6856
C    45.7384    40.8747    45.4917
C    47.2109    40.5894    45.8017
C    47.7807    40.3212    47.1458
C    47.0232    40.1359    48.3322
C    49.2245    40.2511    47.2932
C    47.6169    39.9155    49.5709
C    49.8106    39.9857    48.5323
C    49.0253    39.8420    49.6759
C    51.3288    39.8644    48.6189
C    52.0811    41.1808    48.4606
C    52.8416    41.8150    49.3849
C    53.6193    43.0300    48.9464
C    52.9046    41.3533    50.8250
H    48.5714    45.0024    42.8898
H    45.4805    46.1825    45.6910
H    44.1412    44.4965    46.4346
H    48.0461    41.6883    43.2789
H    46.0017    41.1073    43.4530
H    43.4344    42.6080    43.6924
H    43.4662    38.3883    44.3418
H    44.8997    39.0859    43.5691
H    41.2807    40.7837    44.5633
H    41.5404    39.3918    43.4940
H    41.5788    41.0489    42.8493
H    50.6191    49.1029    42.2615
H    49.0548    52.5685    44.3401
H    47.2763    51.1481    45.4439
H    46.3023    48.3599    45.5607
H    51.4501    51.2962    42.1009
H    45.3240    35.7066    48.5926
H    47.7776    35.8063    45.0505
H    46.8491    38.0096    44.4496
H    47.7280    34.0623    46.6076
H    43.9628    37.5807    48.9216
H    44.1069    39.6475    46.4591
H    45.3604    41.4372    46.4102
H    45.9379    40.1625    48.2619
H    46.9940    39.8037    50.4549
H    49.4513    40.5149    45.4272
H    49.0030    39.5062    51.6095
H    51.5866    39.3858    49.5664
H    51.6225    39.2255    47.7761
H    51.9430    41.6436    47.4822
H    54.3682    43.3203    49.6891
H    52.9505    43.8861    48.7811
H    54.1235    42.8464    47.9901
H    53.5205    40.4491    50.9284
H    51.9033    41.1019    51.1995
H    53.3342    42.1234    51.4733
84
Frame 33: 33
C    47.0717    45.7737    44.2782
O    44.3805    43.7640    45.8343
C    47.7052    44.7729    43.5003
O    47.9324    42.5308    42.7706
C    45.9555    45.4322    45.0712
O    50.8509    51.7853    42.7008
C    47.2245    43.4624    43.5166
O    48.7000    47.4185    43.4053
C    45.4700    44.1234    45.0406
O    47.0748    34.3907    47.2570
C    46.0578    43.1127    44.2600
O    44.2086    38.1439    48.1613
C    45.4970    41.6506    44.4427
O    47.9588    40.5025    44.7650
C    43.9733    41.6825    43.9665
O    50.0474    40.4406    46.2340
C    43.3281    40.5009    43.9664
O    49.6628    39.6304    50.8988
C    44.1114    39.2685    44.3052
C    41.8549    40.4178    43.7019
C    47.9565    49.3357    44.4650
C    48.9290    48.8094    43.5559
C    49.9011    49.5539    42.9469
C    49.9142    50.9348    43.2602
C    48.9734    51.5021    44.1547
C    47.9990    50.7142    44.7569
C    47.1285    48.2632    44.8722
C    47.5595    47.1051    44.2403
C    45.6259    36.2362    47.6915
C    46.5798    35.6283    46.8695
C    47.0238    36.2665    45.6847
C    46.4818    37.5000    45.3402
C    45.5030    38.1393    46.1333
C    45.1117    37.4900    47.3322
C    44.8710    39.4581    45.6884
C    45.7400    40.8640    45.5078
C    47.2107    40.5866    45.8043
C    47.7821    40.3208    47.1475
C    47.0239    40.1355    48.3334
C    49.2251    40.2510    47.2938
C    47.6174    39.9154    49.5719
C    49.8112    39.9856    48.5328
C    49.0258    39.8419    49.6763
C    51.3292    39.8643    48.6191
C    52.0813    41.1808    48.4606
C    52.8417    41.8150    49.3850
C    53.6193    43.0300    48.9464
C    52.9047    41.3534    50.8251
H    48.5731    45.0033    42.8909
H    45.4812    46.1824    45.6921
H    44.1430    44.4955    46.4363
H    48.0421    41.6883    43.2788
H    45.9993    41.1075    43.4544
H    43.4291    42.6092    43.7038
H    43.4708    38.3893    44.3380
H    44.9043    39.0917    43.5699
H    41.2817    40.7835    44.5644
H    41.5410    39.3910    43.4956
H    41.5784    41.0481    42.8503
H    50.6191    49.1029    42.2615
H    49.0548    52.5685    44.3400
H    47.2763    51.1482    45.4439
H    46.3022    48.3600    45.5607
H    51.4502    51.2962    42.1009
H    45.3246    35.7057    48.5931
H    47.7780    35.8061    45.0506
H    46.8480    38.0097    44.4498
H    47.7282    34.0620    46.6075
H    43.9631    37.5805    48.9225
H    44.1031    39.6440    46.4591
H    45.3605    41.4379    46.4110
H    45.9386    40.1614    48.2635
H    46.9947    39.8035    50.4560
H    49.4506    40.5149    45.4276
H    49.0035    39.5061    51.6099
H    51.5872    39.3857    49.5665
H    51.6228    39.2254    47.7762
H    51.9430    41.6436    47.4822
H    54.3683    43.3204    49.6891
H    52.9505    43.8862    48.7811
H    54.1235    42.8465    47.9902
H    53.5206    40.4491    50.9284
H    51.9033    41.1020    51.1996
H    53.3343    42.1234    51.4733
84
Frame 34: 34
C    47.0720    45.7740    44.2785
O    44.3808    43.7639    45.8343
C    47.7064    44.7735    43.5006
O    47.9329    42.5310    42.7708
C    45.9559    45.4322    45.0716
O    50.8509    51.7853    42.7008
C    47.2257    43.4635    43.5155
O    48.7000    47.4186    43.4054
C    45.4695    44.1241    45.0399
O    47.0751    34.3904    47.2570
C    46.0558    43.1147    44.2551
O    44.2086    38.1433    48.1618
C    45.4898    41.6636    44.4168
O    47.9566    40.5028    44.7657
C    43.9721    41.6855    43.9653
O    50.0473    40.4405    46.2339
C    43.3288    40.5011    43.9661
O    49.6632    39.6303    50.8992
C    44.1141    39.2708    44.3042
C    41.8556    40.4172    43.7029
C    47.9565    49.3357    44.4650
C    48.9290    48.8095    43.5559
C    49.9011    49.5539    42.9468
C    49.9142    50.9349    43.2602
C    48.9734    51.5021    44.1547
C    47.9990    50.7142    44.7569
C    47.1285    48.2634    44.8722
C    47.5595    47.1052    44.2405
C    45.6261    36.2354    47.6921
C    46.5800    35.6279    46.8696
C    47.0239    36.2661    45.6847
C    46.4814    37.4993    45.3403
C    45.5021    38.1367    46.1337
C    45.1115    37.4888    47.3328
C    44.8701    39.4556    45.6913
C    45.7415    40.8533    45.5239
C    47.2105    40.5839    45.8069
C    47.7835    40.3203    47.1492
C    47.0246    40.1351    48.3345
C    49.2258    40.2509    47.2943
C    47.6180    39.9152    49.5729
C    49.8118    39.9855    48.5332
C    49.0263    39.8418    49.6768
C    51.3296    39.8642    48.6193
C    52.0814    41.1808    48.4607
C    52.8418    41.8151    49.3850
C    53.6194    43.0301    48.9464
C    52.9048    41.3534    50.8251
H    48.5749    45.0042    42.8921
H    45.4820    46.1822    45.6932
H    44.1448    44.4944    46.4380
H    48.0382    41.6882    43.2787
H    45.9968    41.1077    43.4558
H    43.4237    42.6104    43.7152
H    43.4755    38.3902    44.3343
H    44.9090    39.0976    43.5707
H    41.2827    40.7833    44.5656
H    41.5417    39.3902    43.4971
H    41.5780    41.0472    42.8512
H    50.6192    49.1029    42.2615
H    49.0549    52.5685    44.3400
H    47.2764    51.1482    45.4439
H    46.3022    48.3602    45.5607
H    51.4502    51.2962    42.1009
H    45.3253    35.7049    48.5937
H    47.7783    35.8060    45.0507
H    46.8469    38.0098    44.4501
H    47.7284    34.0617    46.6074
H    43.9635    37.5804    48.9235
H    44.0994    39.6404    46.4590
H    45.3606    41.4386    46.4118
H    45.9394    40.1603    48.2651
H    46.9954    39.8034    50.4571
H    49.4498    40.5149    45.4281
H    49.0039    39.5060    51.6103
H    51.5879    39.3856    49.5667
H    51.6231    39.2254    47.7763
H    51.9430    41.6435    47.4823
H    54.3683    43.3205    49.6891
H    52.9505    43.8862    48.7811
H    54.1235    42.8465    47.9902
H    53.5206    40.4492    50.9284
H    51.9034    41.1021    51.1996
H    53.3344    42.1235    51.4733
84
Frame 35: 35
C    47.0723    45.7742    44.2787
O    44.3810    43.7638    45.8343
C    47.7076    44.7741    43.5009
O    47.9334    42.5313    42.7710
C    45.9562    45.4323    45.0720
O    50.8510    51.7854    42.7008
C    47.2269    43.4646    43.5145
O    48.7000    47.4187    43.4054
C    45.4689    44.1249    45.0393
O    47.0753    34.3901    47.2570
C    46.0538    43.1168    44.2502
O    44.2086    38.1427    48.1623
C    45.4826    41.6766    44.3908
O    47.9544    40.5031    44.7664
C    43.9710    41.6886    43.9642
O    50.0473    40.4405    46.2338
C    43.3295    40.5014    43.9658
O    49.6637    39.6303    50.8996
C    44.1168    39.2732    44.3033
C    41.8562    40.4166    43.7038
C    47.9565    49.3358    44.4650
C    48.9290    48.8096    43.5559
C    49.9011    49.5540    42.9468
C    49.9142    50.9349    43.2602
C    48.9734    51.5022    44.1547
C    47.9990    50.7143    44.7569
C    47.1286    48.2635    44.8722
C    47.5596    47.1054    44.2406
C    45.6263    36.2347    47.6926
C    46.5801    35.6276    46.8697
C    47.0240    36.2658    45.6847
C    46.4810    37.4987    45.3403
C    45.5012    38.1342    46.1340
C    45.1114    37.4876    47.3335
C    44.8692    39.4531    45.6941
C    45.7431    40.8425    45.5400
C    47.2104    40.5812    45.8095
C    47.7849    40.3199    47.1509
C    47.0253    40.1347    48.3356
C    49.2265    40.2509    47.2949
C    47.6185    39.9150    49.5739
C    49.8124    39.9854    48.5337
C    49.0268    39.8418    49.6772
C    51.3301    39.8641    48.6194
C    52.0816    41.1808    48.4607
C    52.8418    41.8151    49.3850
C    53.6194    43.0301    48.9464
C    52.9048    41.3535    50.8251
H    48.5766    45.0051    42.8933
H    45.4828    46.1821    45.6943
H    44.1465    44.4934    46.4397
H    48.0342    41.6881    43.2785
H    45.9943    41.1079    43.4573
H    43.4184    42.6116    43.7267
H    43.4801    38.3912    44.3305
H    44.9136    39.1034    43.5716
H    41.2838    40.7831    44.5667
H    41.5423    39.3894    43.4987
H    41.5775    41.0463    42.8522
H    50.6192    49.1030    42.2615
H    49.0549    52.5686    44.3400
H    47.2764    51.1483    45.4439
H    46.3022    48.3603    45.5607
H    51.4502    51.2962    42.1009
H    45.3259    35.7040    48.5943
H    47.7786    35.8058    45.0508
H    46.8459    38.0100    44.4503
H    47.7286    34.0614    46.6074
H    43.9638    37.5803    48.9244
H    44.0956    39.6369    46.4590
H    45.3607    41.4392    46.4126
H    45.9402    40.1592    48.2667
H    46.9960    39.8032    50.4582
H    49.4490    40.5150    45.4285
H    49.0044    39.5058    51.6107
H    51.5885    39.3855    49.5668
H    51.6235    39.2253    47.7764
H    51.9430    41.6435    47.4823
H    54.3683    43.3206    49.6891
H    52.9506    43.8862    48.7812
H    54.1236    42.8466    47.9902
H    53.5207    40.4492    50.9285
H    51.9035    41.1021    51.1996
H    53.3344    42.1235    51.4733
84
Frame 36: 36
C    47.0727    45.7744    44.2790
O    44.3813    43.7638    45.8343
C    47.7088    44.7747    43.5012
O    47.9338    42.5316    42.7711
C    45.9565    45.4324    45.0724
O    50.8510    51.7854    42.7008
C    47.2281    43.4657    43.5135
O    48.7000    47.4188    43.4054
C    45.4684    44.1257    45.0386
O    47.0755    34.3897    47.2570
C    46.0518    43.1188    44.2452
O    44.2086    38.1420    48.1627
C    45.4754    41.6896    44.3648
O    47.9522    40.5034    44.7671
C    43.9699    41.6916    43.9630
O    50.0472    40.4404    46.2337
C    43.3302    40.5016    43.9655
O    49.6641    39.6302    50.8999
C    44.1195    39.2756    44.3024
C    41.8568    40.4160    43.7048
C    47.9565    49.3359    44.4650
C    48.9290    48.8096    43.5559
C    49.9012    49.5540    42.9468
C    49.9142    50.9349    43.2602
C    48.9734    51.5022    44.1547
C    47.9990    50.7144    44.7569
C    47.1286    48.2637    44.8723
C    47.5597    47.1055    44.2407
C    45.6266    36.2339    47.6931
C    46.5803    35.6272    46.8698
C    47.0241    36.2654    45.6847
C    46.4806    37.4981    45.3404
C    45.5003    38.1316    46.1344
C    45.1112    37.4865    47.3341
C    44.8683    39.4506    45.6969
C    45.7446    40.8318    45.5561
C    47.2102    40.5785    45.8121
C    47.7864    40.3194    47.1526
C    47.0260    40.1342    48.3367
C    49.2271    40.2508    47.2955
C    47.6191    39.9149    49.5749
C    49.8130    39.9853    48.5341
C    49.0273    39.8417    49.6777
C    51.3305    39.8640    48.6196
C    52.0817    41.1808    48.4607
C    52.8419    41.8151    49.3850
C    53.6194    43.0302    48.9465
C    52.9049    41.3535    50.8252
H    48.5784    45.0061    42.8944
H    45.4836    46.1820    45.6954
H    44.1483    44.4923    46.4414
H    48.0303    41.6880    43.2784
H    45.9919    41.1081    43.4587
H    43.4131    42.6128    43.7381
H    43.4848    38.3922    44.3268
H    44.9182    39.1093    43.5724
H    41.2848    40.7829    44.5678
H    41.5429    39.3886    43.5003
H    41.5771    41.0454    42.8532
H    50.6192    49.1030    42.2615
H    49.0549    52.5686    44.3400
H    47.2764    51.1484    45.4439
H    46.3021    48.3605    45.5607
H    51.4502    51.2962    42.1009
H    45.3265    35.7031    48.5948
H    47.7789    35.8056    45.0510
H    46.8448    38.0101    44.4506
H    47.7288    34.0612    46.6073
H    43.9641    37.5802    48.9253
H    44.0919    39.6333    46.4589
H    45.3609    41.4399    46.4134
H    45.9410    40.1582    48.2684
H    46.9967    39.8031    50.4593
H    49.4482    40.5150    45.4290
H    49.0049    39.5057    51.6111
H    51.5892    39.3855    49.5669
H    51.6238    39.2253    47.7765
H    51.9430    41.6435    47.4823
H    54.3684    43.3206    49.6891
H    52.9506    43.8862    48.7812
H    54.1236    42.8466    47.9902
H    53.5207    40.4493    50.9285
H    51.9035    41.1022    51.1997
H    53.3345    42.1236    51.4734
84
Frame 37: 37
C    47.0730    45.7747    44.2792
O    44.3815    43.7637    45.8343
C    47.7100    44.7753    43.5015
O    47.9343    42.5319    42.7713
C    45.9568    45.4325    45.0729
O    50.8510    51.7854    42.7008
C    47.2293    43.4668    43.5125
O    48.7001    47.4189    43.4054
C    45.4679    44.1264    45.0379
O    47.0758    34.3894    47.2569
C    46.0498    43.1209    44.2403
O    44.2085    38.1414    48.1632
C    45.4682    41.7026    44.3389
O    47.9500    40.5038    44.7678
C    43.9688    41.6946    43.9618
O    50.0471    40.4404    46.2336
C    43.3309    40.5018    43.9652
O    49.6645    39.6301    50.9003
C    44.1222    39.2780    44.3015
C    41.8574    40.4155    43.7057
C    47.9565    49.3360    44.4650
C    48.9290    48.8097    43.5559
C    49.9012    49.5541    42.9468
C    49.9142    50.9350    43.2602
C    48.9734    51.5023    44.1547
C    47.9990    50.7144    44.7569
C    47.1286    48.2638    44.8723
C    47.5597    47.1057    44.2408
C    45.6268    36.2331    47.6936
C    46.5804    35.6269    46.8699
C    47.0243    36.2651    45.6848
C    46.4802    37.4975    45.3405
C    45.4993    38.1291    46.1347
C    45.1110    37.4853    47.3348
C    44.8674    39.4481    45.6998
C    45.7462    40.8211    45.5721
C    47.2100    40.5757    45.8147
C    47.7878    40.3189    47.1543
C    47.0267    40.1338    48.3379
C    49.2278    40.2507    47.2961
C    47.6196    39.9147    49.5759
C    49.8136    39.9852    48.5346
C    49.0278    39.8416    49.6781
C    51.3309    39.8639    48.6198
C    52.0819    41.1808    48.4608
C    52.8420    41.8152    49.3851
C    53.6195    43.0302    48.9465
C    52.9049    41.3536    50.8252
H    48.5801    45.0070    42.8956
H    45.4844    46.1819    45.6966
H    44.1501    44.4913    46.4431
H    48.0263    41.6880    43.2783
H    45.9894    41.1083    43.4601
H    43.4077    42.6140    43.7495
H    43.4895    38.3931    44.3230
H    44.9229    39.1151    43.5732
H    41.2858    40.7827    44.5689
H    41.5435    39.3878    43.5018
H    41.5767    41.0445    42.8542
H    50.6192    49.1030    42.2615
H    49.0549    52.5687    44.3400
H    47.2764    51.1484    45.4439
H    46.3021    48.3606    45.5607
H    51.4502    51.2962    42.1009
H    45.3271    35.7022    48.5954
H    47.7792    35.8054    45.0511
H    46.8437    38.0103    44.4508
H    47.7290    34.0609    46.6072
H    43.9644    37.5800    48.9262
H    44.0881    39.6298    46.4588
H    45.3610    41.4406    46.4142
H    45.9417    40.1571    48.2700
H    46.9974    39.8030    50.4604
H    49.4475    40.5151    45.4294
H    49.0054    39.5056    51.6116
H    51.5898    39.3854    49.5670
H    51.6241    39.2252    47.7766
H    51.9430    41.6435    47.4824
H    54.3684    43.3207    49.6891
H    52.9506    43.8863    48.7812
H    54.1236    42.8467    47.9902
H    53.5208    40.4493    50.9286
H    51.9036    41.1023    51.1997
H    53.3345    42.1236    51.4734
84
Frame 38: 38
C    47.0734    45.7749    44.2794
O    44.3818    43.7636    45.8342
C    47.7112    44.7759    43.5017
O    47.9348    42.5322    42.7714
C    45.9571    45.4325    45.0733
O    50.8510    51.7854    42.7008
C    47.2305    43.4679    43.5115
O    48.7001    47.4190    43.4055
C    45.4674    44.1272    45.0372
O    47.0760    34.3891    47.2569
C    46.0478    43.1229    44.2353
O    44.2085    38.1408    48.1637
C    45.4609    41.7156    44.3129
O    47.9478    40.5041    44.7685
C    43.9676    41.6977    43.9606
O    50.0470    40.4404    46.2335
C    43.3316    40.5021    43.9650
O    49.6650    39.6300    50.9007
C    44.1249    39.2803    44.3006
C    41.8581    40.4149    43.7067
C    47.9566    49.3361    44.4650
C    48.9290    48.8097    43.5559
C    49.9012    49.5541    42.9468
C    49.9142    50.9350    43.2602
C    48.9734    51.5023    44.1547
C    47.9990    50.7145    44.7569
C    47.1286    48.2640    44.8724
C    47.5598    47.1058    44.2409
C    45.6270    36.2323    47.6942
C    46.5806    35.6265    46.8700
C    47.0244    36.2647    45.6848
C    46.4798    37.4969    45.3406
C    45.4984    38.1265    46.1351
C    45.1108    37.4841    47.3354
C    44.8666    39.4457    45.7026
C    45.7477    40.8104    45.5882
C    47.2099    40.5730    45.8173
C    47.7892    40.3185    47.1559
C    47.0275    40.1334    48.3390
C    49.2284    40.2506    47.2966
C    47.6202    39.9146    49.5769
C    49.8141    39.9851    48.5350
C    49.0283    39.8415    49.6785
C    51.3313    39.8638    48.6200
C    52.0820    41.1808    48.4608
C    52.8421    41.8152    49.3851
C    53.6195    43.0303    48.9465
C    52.9050    41.3536    50.8252
H    48.5819    45.0079    42.8968
H    45.4852    46.1817    45.6977
H    44.1519    44.4902    46.4448
H    48.0224    41.6879    43.2781
H    45.9870    41.1085    43.4616
H    43.4024    42.6152    43.7610
H    43.4941    38.3941    44.3193
H    44.9275    39.1210    43.5740
H    41.2868    40.7826    44.5700
H    41.5442    39.3870    43.5034
H    41.5762    41.0436    42.8551
H    50.6192    49.1031    42.2615
H    49.0550    52.5687    44.3400
H    47.2764    51.1485    45.4439
H    46.3021    48.3608    45.5607
H    51.4502    51.2963    42.1009
H    45.3278    35.7013    48.5959
H    47.7795    35.8052    45.0512
H    46.8427    38.0104    44.4511
H    47.7292    34.0606    46.6072
H    43.9647    37.5799    48.9271
H    44.0844    39.6263    46.4588
H    45.3611    41.4412    46.4150
H    45.9425    40.1560    48.2716
H    46.9981    39.8028    50.4615
H    49.4467    40.5151    45.4299
H    49.0058    39.5055    51.6120
H    51.5905    39.3853    49.5671
H    51.6245    39.2252    47.7767
H    51.9430    41.6434    47.4824
H    54.3684    43.3208    49.6891
H    52.9506    43.8863    48.7812
H    54.1237    42.8467    47.9902
H    53.5208    40.4493    50.9286
H    51.9037    41.1023    51.1998
H    53.3346    42.1236    51.4734
84
Frame 39: 39
C    47.0737    45.7751    44.2797
O    44.3820    43.7635    45.8342
C    47.7124    44.7765    43.5020
O    47.9352    42.5325    42.7716
C    45.9574    45.4326    45.0737
O    50.8510    51.7854    42.7008
C    47.2317    43.4690    43.5104
O    48.7001    47.4191    43.4055
C    45.4669    44.1280    45.0366
O    47.0762    34.3888    47.2569
C    46.0458    43.1250    44.2304
O    44.2085    38.1401    48.1642
C    45.4537    41.7286    44.2870
O    47.9456    40.5044    44.7692
C    43.9665    41.7007    43.9595
O    50.0469    40.4403    46.2334
C    43.3323    40.5023    43.9647
O    49.6654    39.6300    50.9011
C    44.1276    39.2827    44.2997
C    41.8587    40.4143    43.7076
C    47.9566    49.3362    44.4650
C    48.9290    48.8098    43.5559
C    49.9012    49.5541    42.9468
C    49.9142    50.9350    43.2602
C    48.9735    51.5024    44.1547
C    47.9990    50.7146    44.7569
C    47.1286    48.2641    44.8724
C    47.5599    47.1060    44.2410
C    45.6273    36.2316    47.6947
C    46.5807    35.6262    46.8701
C    47.0245    36.2644    45.6848
C    46.4794    37.4963    45.3407
C    45.4975    38.1240    46.1354
C    45.1107    37.4830    47.3361
C    44.8657    39.4432    45.7054
C    45.7493    40.7996    45.6043
C    47.2097    40.5703    45.8199
C    47.7906    40.3180    47.1576
C    47.0282    40.1329    48.3401
C    49.2291    40.2506    47.2972
C    47.6207    39.9144    49.5779
C    49.8147    39.9850    48.5355
C    49.0288    39.8415    49.6790
C    51.3317    39.8637    48.6201
C    52.0821    41.1808    48.4608
C    52.8421    41.8153    49.3851
C    53.6195    43.0303    48.9465
C    52.9050    41.3537    50.8252
H    48.5836    45.0088    42.8979
H    45.4860    46.1816    45.6988
H    44.1537    44.4892    46.4465
H    48.0184    41.6878    43.2780
H    45.9845    41.1087    43.4630
H    43.3971    42.6164    43.7724
H    43.4988    38.3950    44.3155
H    44.9321    39.1268    43.5748
H    41.2879    40.7824    44.5712
H    41.5448    39.3862    43.5049
H    41.5758    41.0427    42.8561
H    50.6192    49.1031    42.2615
H    49.0550    52.5688    44.3400
H    47.2764    51.1486    45.4439
H    46.3020    48.3609    45.5607
H    51.4502    51.2963    42.1009
H    45.3284    35.7004    48.5965
H    47.7798    35.8050    45.0514
H    46.8416    38.0106    44.4513
H    47.7294    34.0603    46.6071
H    43.9651    37.5798    48.9280
H    44.0806    39.6227    46.4587
H    45.3612    41.4419    46.4158
H    45.9433    40.1550    48.2732
H    46.9988    39.8027    50.4626
H    49.4459    40.5152    45.4303
H    49.0063    39.5053    51.6124
H    51.5911    39.3852    49.5673
H    51.6248    39.2251    47.7768
H    51.9430    41.6434    47.4825
H    54.3684    43.3208    49.6891
H    52.9506    43.8863    48.7812
H    54.1237    42.8468    47.9902
H    53.5209    40.4494    50.9286
H    51.9037    41.1024    51.1998
H    53.3347    42.1237    51.4734
84
Frame 40: 40
C    47.0741    45.7753    44.2799
O    44.3823    43.7634    45.8342
C    47.7136    44.7771    43.5023
O    47.9357    42.5328    42.7717
C    45.9577    45.4327    45.0741
O    50.8510    51.7855    42.7008
C    47.2329    43.4701    43.5094
O    48.7001    47.4192    43.4055
C    45.4664    44.1287    45.0359
O    47.0765    34.3884    47.2569
C    46.0438    43.1270    44.2254
O    44.2085    38.1395    48.1646
C    45.4465    41.7416    44.2610
O    47.9434    40.5047    44.7699
C    43.9654    41.7038    43.9583
O    50.0468    40.4403    46.2333
C    43.3330    40.5025    43.9644
O    49.6659    39.6299    50.9015
C    44.1303    39.2851    44.2988
C    41.8593    40.4137    43.7086
C    47.9566    49.3363    44.4650
C    48.9291    48.8099    43.5559
C    49.9012    49.5542    42.9468
C    49.9143    50.9351    43.2602
C    48.9735    51.5024    44.1547
C    47.9991    50.7147    44.7569
C    47.1286    48.2643    44.8725
C    47.5599    47.1061    44.2411
C    45.6275    36.2308    47.6952
C    46.5809    35.6258    46.8702
C    47.0247    36.2640    45.6848
C    46.4790    37.4957    45.3407
C    45.4966    38.1214    46.1358
C    45.1105    37.4818    47.3367
C    44.8648    39.4407    45.7083
C    45.7508    40.7889    45.6204
C    47.2095    40.5676    45.8225
C    47.7920    40.3176    47.1593
C    47.0289    40.1325    48.3412
C    49.2297    40.2505    47.2978
C    47.6213    39.9142    49.5788
C    49.8153    39.9849    48.5359
C    49.0293    39.8414    49.6794
C    51.3321    39.8636    48.6203
C    52.0823    41.1808    48.4609
C    52.8422    41.8153    49.3851
C    53.6196    43.0304    48.9465
C    52.9051    41.3537    50.8253
H    48.5854    45.0097    42.8991
H    45.4868    46.1815    45.6999
H    44.1555    44.4881    46.4482
H    48.0145    41.6878    43.2779
H    45.9820    41.1088    43.4644
H    43.3917    42.6176    43.7838
H    43.5034    38.3960    44.3118
H    44.9368    39.1327    43.5756
H    41.2889    40.7822    44.5723
H    41.5454    39.3854    43.5065
H    41.5754    41.0419    42.8571
H    50.6192    49.1031    42.2615
H    49.0550    52.5688    44.3399
H    47.2764    51.1486    45.4439
H    46.3020    48.3611    45.5607
H    51.4503    51.2963    42.1009
H    45.3290    35.6995    48.5970
H    47.7802    35.8048    45.0515
H    46.8405    38.0107    44.4516
H    47.7296    34.0600    46.6070
H    43.9654    37.5796    48.9289
H    44.0769    39.6192    46.4587
H    45.3613    41.4426    46.4166
H    45.9441    40.1539    48.2748
H    46.9994    39.8025    50.4637
H    49.4451    40.5152    45.4307
H    49.0068    39.5052    51.6128
H    51.5918    39.3851    49.5674
H    51.6251    39.2251    47.7768
H    51.9430    41.6434    47.4825
H    54.3685    43.3209    49.6891
H    52.9506    43.8864    48.7812
H    54.1237    42.8468    47.9902
H    53.5209    40.4494    50.9287
H    51.9038    41.1025    51.1999
H    53.3347    42.1237    51.4735
84
Frame 41: 41
C    47.0744    45.7756    44.2801
O    44.3825    43.7633    45.8342
C    47.7148    44.7777    43.5026
O    47.9362    42.5330    42.7719
C    45.9581    45.4328    45.0745
O    50.8510    51.7855    42.7008
C    47.2341    43.4712    43.5084
O    48.7002    47.4193    43.4055
C    45.4659    44.1295    45.0352
O    47.0767    34.3881    47.2569
C    46.0418    43.1290    44.2205
O    44.2084    38.1389    48.1651
C    45.4393    41.7546    44.2350
O    47.9412    40.5050    44.7706
C    43.9643    41.7068    43.9571
O    50.0467    40.4403    46.2332
C    43.3337    40.5028    43.9641
O    49.6663    39.6298    50.9018
C    44.1330    39.2875    44.2979
C    41.8599    40.4131    43.7095
C    47.9566    49.3364    44.4650
C    48.9291    48.8099    43.5559
C    49.9012    49.5542    42.9468
C    49.9143    50.9351    43.2601
C    48.9735    51.5024    44.1547
C    47.9991    50.7147    44.7569
C    47.1286    48.2644    44.8725
C    47.5600    47.1062    44.2413
C    45.6277    36.2300    47.6957
C    46.5810    35.6255    46.8703
C    47.0248    36.2636    45.6849
C    46.4786    37.4950    45.3408
C    45.4956    38.1188    46.1361
C    45.1103    37.4806    47.3374
C    44.8639    39.4382    45.7111
C    45.7523    40.7782    45.6365
C    47.2093    40.5648    45.8251
C    47.7934    40.3171    47.1610
C    47.0296    40.1321    48.3424
C    49.2304    40.2504    47.2983
C    47.6218    39.9141    49.5798
C    49.8159    39.9848    48.5363
C    49.0298    39.8413    49.6799
C    51.3325    39.8635    48.6205
C    52.0824    41.1808    48.4609
C    52.8423    41.8154    49.3852
C    53.6196    43.0304    48.9465
C    52.9051    41.3537    50.8253
H    48.5871    45.0106    42.9003
H    45.4876    46.1813    45.7010
H    44.1573    44.4871    46.4499
H    48.0105    41.6877    43.2777
H    45.9796    41.1090    43.4658
H    43.3864    42.6188    43.7953
H    43.5081    38.3970    44.3080
H    44.9414    39.1385    43.5764
H    41.2899    40.7820    44.5734
H    41.5460    39.3846    43.5081
H    41.5750    41.0410    42.8581
H    50.6193    49.1032    42.2615
H    49.0551    52.5689    44.3399
H    47.2765    51.1487    45.4439
H    46.3020    48.3612    45.5607
H    51.4503    51.2963    42.1009
H    45.3296    35.6986    48.5976
H    47.7805    35.8047    45.0516
H    46.8395    38.0109    44.4519
H    47.7298    34.0598    46.6070
H    43.9657    37.5795    48.9299
H    44.0732    39.6157    46.4586
H    45.3615    41.4432    46.4174
H    45.9448    40.1528    48.2765
H    47.0001    39.8024    50.4648
H    49.4444    40.5153    45.4312
H    49.0073    39.5051    51.6132
H    51.5924    39.3850    49.5675
H    51.6255    39.2250    47.7769
H    51.9430    41.6433    47.4825
H    54.3685    43.3210    49.6891
H    52.9506    43.8864    48.7812
H    54.1237    42.8469    47.9902
H    53.5210    40.4495    50.9287
H    51.9039    41.1025    51.1999
H    53.3348    42.1238    51.4735
84
Frame 42: 42
C    47.0748    45.7758    44.2804
O    44.3828    43.7633    45.8342
C    47.7160    44.7783    43.5029
O    47.9367    42.5333    42.7720
C    45.9584    45.4328    45.0749
O    50.8511    51.7855    42.7008
C    47.2353    43.4723    43.5074
O    48.7002    47.4194    43.4056
C    45.4653    44.1303    45.0345
O    47.0769    34.3878    47.2569
C    46.0398    43.1311    44.2155
O    44.2084    38.1382    48.1656
C    45.4321    41.7676    44.2091
O    47.9390    40.5053    44.7713
C    43.9631    41.7098    43.9560
O    50.0467    40.4402    46.2331
C    43.3344    40.5030    43.9638
O    49.6667    39.6297    50.9022
C    44.1357    39.2898    44.2970
C    41.8606    40.4125    43.7105
C    47.9566    49.3365    44.4650
C    48.9291    48.8100    43.5558
C    49.9013    49.5542    42.9468
C    49.9143    50.9351    43.2601
C    48.9735    51.5025    44.1547
C    47.9991    50.7148    44.7569
C    47.1286    48.2646    44.8726
C    47.5600    47.1064    44.2414
C    45.6279    36.2292    47.6963
C    46.5812    35.6251    46.8704
C    47.0249    36.2633    45.6849
C    46.4782    37.4944    45.3409
C    45.4947    38.1163    46.1365
C    45.1102    37.4794    47.3380
C    44.8630    39.4357    45.7140
C    45.7539    40.7675    45.6526
C    47.2092    40.5621    45.8277
C    47.7949    40.3166    47.1627
C    47.0303    40.1317    48.3435
C    49.2311    40.2504    47.2989
C    47.6224    39.9139    49.5808
C    49.8165    39.9847    48.5368
C    49.0303    39.8413    49.6803
C    51.3329    39.8634    48.6206
C    52.0826    41.1808    48.4609
C    52.8423    41.8154    49.3852
C    53.6196    43.0305    48.9465
C    52.9052    41.3538    50.8253
H    48.5889    45.0116    42.9014
H    45.4884    46.1812    45.7021
H    44.1591    44.4860    46.4516
H    48.0066    41.6876    43.2776
H    45.9771    41.1092    43.4673
H    43.3811    42.6200    43.8067
H    43.5128    38.3979    44.3043
H    44.9460    39.1444    43.5773
H    41.2909    40.7818    44.5745
H    41.5467    39.3839    43.5096
H    41.5745    41.0401    42.8590
H    50.6193    49.1032    42.2615
H    49.0551    52.5689    44.3399
H    47.2765    51.1488    45.4439
H    46.3019    48.3614    45.5607
H    51.4503    51.2963    42.1009
H    45.3303    35.6977    48.5981
H    47.7808    35.8045    45.0517
H    46.8384    38.0110    44.4521
H    47.7300    34.0595    46.6069
H    43.9660    37.5794    48.9308
H    44.0694    39.6121    46.4586
H    45.3616    41.4439    46.4182
H    45.9456    40.1517    48.2781
H    47.0008    39.8023    50.4658
H    49.4436    40.5153    45.4316
H    49.0077    39.5050    51.6136
H    51.5931    39.3850    49.5676
H    51.6258    39.2250    47.7770
H    51.9430    41.6433    47.4826
H    54.3685    43.3211    49.6891
H    52.9506    43.8864    48.7812
H    54.1238    42.8469    47.9902
H    53.5210    40.4495    50.9288
H    51.9039    41.1026    51.2000
H    53.3348    42.1238    51.4735
84
Frame 43: 43
C    47.0751    45.7760    44.2806
O    44.3830    43.7632    45.8342
C    47.7172    44.7789    43.5032
O    47.9371    42.5336    42.7722
C    45.9587    45.4329    45.0754
O    50.8511    51.7855    42.7008
C    47.2365    43.4734    43.5064
O    48.7002    47.4195    43.4056
C    45.4648    44.1310    45.0338
O    47.0771    34.3875    47.2569
C    46.0378    43.1331    44.2106
O    44.2084    38.1376    48.1660
C    45.4249    41.7806    44.1831
O    47.9368    40.5057    44.7720
C    43.9620    41.7129    43.9548
O    50.0466    40.4402    46.2330
C    43.3350    40.5032    43.9635
O    49.6672    39.6297    50.9026
C    44.1384    39.2922    44.2961
C    41.8612    40.4119    43.7114
C    47.9566    49.3366    44.4650
C    48.9291    48.8100    43.5558
C    49.9013    49.5543    42.9468
C    49.9143    50.9352    43.2601
C    48.9735    51.5025    44.1546
C    47.9991    50.7149    44.7569
C    47.1286    48.2647    44.8726
C    47.5601    47.1065    44.2415
C    45.6282    36.2284    47.6968
C    46.5813    35.6247    46.8705
C    47.0251    36.2629    45.6849
C    46.4778    37.4938    45.3410
C    45.4938    38.1137    46.1368
C    45.1100    37.4783    47.3386
C    44.8621    39.4332    45.7168
C    45.7554    40.7567    45.6687
C    47.2090    40.5594    45.8303
C    47.7963    40.3162    47.1644
C    47.0310    40.1312    48.3446
C    49.2317    40.2503    47.2995
C    47.6229    39.9138    49.5818
C    49.8171    39.9846    48.5372
C    49.0308    39.8412    49.6808
C    51.3333    39.8633    48.6208
C    52.0827    41.1808    48.4610
C    52.8424    41.8155    49.3852
C    53.6197    43.0305    48.9465
C    52.9053    41.3538    50.8254
H    48.5906    45.0125    42.9026
H    45.4892    46.1811    45.7033
H    44.1609    44.4850    46.4534
H    48.0026    41.6876    43.2775
H    45.9747    41.1094    43.4687
H    43.3757    42.6212    43.8181
H    43.5174    38.3989    44.3005
H    44.9506    39.1502    43.5781
H    41.2920    40.7816    44.5756
H    41.5473    39.3831    43.5112
H    41.5741    41.0392    42.8600
H    50.6193    49.1032    42.2614
H    49.0551    52.5689    44.3399
H    47.2765    51.1488    45.4439
H    46.3019    48.3615    45.5606
H    51.4503    51.2964    42.1009
H    45.3309    35.6968    48.5987
H    47.7811    35.8043    45.0519
H    46.8373    38.0111    44.4524
H    47.7301    34.0592    46.6068
H    43.9663    37.5792    48.9317
H    44.0657    39.6086    46.4585
H    45.3617    41.4446    46.4190
H    45.9464    40.1507    48.2797
H    47.0015    39.8021    50.4669
H    49.4428    40.5153    45.4321
H    49.0082    39.5049    51.6140
H    51.5937    39.3849    49.5677
H    51.6261    39.2249    47.7771
H    51.9430    41.6433    47.4826
H    54.3686    43.3211    49.6891
H    52.9506    43.8865    48.7812
H    54.1238    42.8470    47.9902
H    53.5211    40.4496    50.9288
H    51.9040    41.1027    51.2000
H    53.3349    42.1239    51.4735
84
Frame 44: 44
C    47.0755    45.7763    44.2808
O    44.3833    43.7631    45.8342
C    47.7184    44.7795    43.5035
O    47.9376    42.5339    42.7723
C    45.9590    45.4330    45.0758
O    50.8511    51.7856    42.7008
C    47.2377    43.4745    43.5053
O    48.7002    47.4196    43.4056
C    45.4643    44.1318    45.0332
O    47.0774    34.3872    47.2569
C    46.0358    43.1352    44.2056
O    44.2084    38.1369    48.1665
C    45.4176    41.7936    44.1571
O    47.9346    40.5060    44.7727
C    43.9609    41.7159    43.9536
O    50.0465    40.4402    46.2329
C    43.3357    40.5035    43.9633
O    49.6676    39.6296    50.9030
C    44.1411    39.2946    44.2952
C    41.8618    40.4113    43.7124
C    47.9566    49.3367    44.4650
C    48.9291    48.8101    43.5558
C    49.9013    49.5543    42.9468
C    49.9143    50.9352    43.2601
C    48.9736    51.5026    44.1546
C    47.9991    50.7149    44.7569
C    47.1286    48.2649    44.8727
C    47.5602    47.1067    44.2416
C    45.6284    36.2277    47.6973
C    46.5815    35.6244    46.8706
C    47.0252    36.2626    45.6849
C    46.4774    37.4932    45.3410
C    45.4929    38.1112    46.1372
C    45.1098    37.4771    47.3393
C    44.8612    39.4308    45.7196
C    45.7570    40.7460    45.6848
C    47.2088    40.5567    45.8329
C    47.7977    40.3157    47.1661
C    47.0317    40.1308    48.3457
C    49.2324    40.2502    47.3000
C    47.6235    39.9136    49.5828
C    49.8177    39.9845    48.5377
C    49.0313    39.8411    49.6812
C    51.3337    39.8632    48.6210
C    52.0829    41.1808    48.4610
C    52.8425    41.8155    49.3852
C    53.6197    43.0306    48.9465
C    52.9053    41.3539    50.8254
H    48.5924    45.0134    42.9038
H    45.4900    46.1809    45.7044
H    44.1627    44.4839    46.4551
H    47.9987    41.6875    43.2773
H    45.9722    41.1096    43.4701
H    43.3704    42.6224    43.8296
H    43.5221    38.3999    44.2968
H    44.9553    39.1561    43.5789
H    41.2930    40.7814    44.5768
H    41.5479    39.3823    43.5128
H    41.5737    41.0383    42.8610
H    50.6193    49.1033    42.2614
H    49.0552    52.5690    44.3399
H    47.2765    51.1489    45.4439
H    46.3018    48.3617    45.5606
H    51.4503    51.2964    42.1008
H    45.3315    35.6959    48.5992
H    47.7814    35.8041    45.0520
H    46.8363    38.0113    44.4526
H    47.7303    34.0589    46.6068
H    43.9667    37.5791    48.9326
H    44.0619    39.6051    46.4585
H    45.3618    41.4452    46.4198
H    45.9472    40.1496    48.2813
H    47.0022    39.8020    50.4680
H    49.4420    40.5154    45.4325
H    49.0087    39.5047    51.6144
H    51.5944    39.3848    49.5679
H    51.6265    39.2249    47.7772
H    51.9430    41.6432    47.4826
H    54.3686    43.3212    49.6891
H    52.9506    43.8865    48.7812
H    54.1238    42.8470    47.9902
H    53.5211    40.4496    50.9288
H    51.9040    41.1027    51.2001
H    53.3350    42.1239    51.4735
84
Frame 45: 45
C    47.0758    45.7765    44.2811
O    44.3835    43.7630    45.8342
C    47.7196    44.7801    43.5038
O    47.9381    42.5342    42.7725
C    45.9593    45.4331    45.0762
O    50.8511    51.7856    42.7007
C    47.2388    43.4756    43.5043
O    48.7003    47.4198    43.4056
C    45.4638    44.1326    45.0325
O    47.0776    34.3868    47.2569
C    46.0338    43.1372    44.2007
O    44.2083    38.1363    48.1670
C    45.4104    41.8066    44.1312
O    47.9324    40.5063    44.7735
C    43.9598    41.7190    43.9524
O    50.0464    40.4401    46.2329
C    43.3364    40.5037    43.9630
O    49.6681    39.6295    50.9033
C    44.1438    39.2970    44.2943
C    41.8624    40.4107    43.7133
C    47.9566    49.3368    44.4650
C    48.9291    48.8101    43.5558
C    49.9013    49.5544    42.9468
C    49.9143    50.9352    43.2601
C    48.9736    51.5026    44.1546
C    47.9991    50.7150    44.7569
C    47.1286    48.2650    44.8727
C    47.5602    47.1068    44.2417
C    45.6286    36.2269    47.6978
C    46.5816    35.6240    46.8707
C    47.0253    36.2622    45.6850
C    46.4769    37.4926    45.3411
C    45.4919    38.1086    46.1375
C    45.1096    37.4759    47.3399
C    44.8603    39.4283    45.7225
C    45.7585    40.7353    45.7009
C    47.2086    40.5539    45.8355
C    47.7991    40.3153    47.1678
C    47.0324    40.1304    48.3469
C    49.2330    40.2501    47.3006
C    47.6240    39.9135    49.5838
C    49.8183    39.9843    48.5381
C    49.0318    39.8410    49.6816
C    51.3341    39.8631    48.6212
C    52.0830    41.1808    48.4610
C    52.8426    41.8155    49.3853
C    53.6197    43.0306    48.9465
C    52.9054    41.3539    50.8254
H    48.5941    45.0143    42.9049
H    45.4907    46.1808    45.7055
H    44.1645    44.4829    46.4568
H    47.9947    41.6874    43.2772
H    45.9698    41.1098    43.4715
H    43.3651    42.6236    43.8410
H    43.5267    38.4008    44.2930
H    44.9599    39.1619    43.5797
H    41.2940    40.7812    44.5779
H    41.5485    39.3815    43.5143
H    41.5733    41.0374    42.8620
H    50.6193    49.1033    42.2614
H    49.0552    52.5690    44.3399
H    47.2765    51.1490    45.4439
H    46.3018    48.3618    45.5606
H    51.4503    51.2964    42.1008
H    45.3321    35.6950    48.5998
H    47.7817    35.8039    45.0521
H    46.8352    38.0114    44.4529
H    47.7305    34.0587    46.6067
H    43.9670    37.5790    48.9335
H    44.0582    39.6015    46.4584
H    45.3620    41.4459    46.4206
H    45.9479    40.1485    48.2830
H    47.0028    39.8018    50.4691
H    49.4413    40.5154    45.4329
H    49.0092    39.5046    51.6148
H    51.5950    39.3847    49.5680
H    51.6268    39.2248    47.7773
H    51.9430    41.6432    47.4827
H    54.3686    43.3213    49.6891
H    52.9506    43.8865    48.7812
H    54.1238    42.8471    47.9903
H    53.5212    40.4496    50.9289
H    51.9041    41.1028    51.2001
H    53.3350    42.1239    51.4736
84
Frame 46: 46
C    47.0762    45.7767    44.2813
O    44.3838    43.7629    45.8342
C    47.7208    44.7807    43.5041
O    47.9385    42.5345    42.7726
C    45.9596    45.4331    45.0766
O    50.8511    51.7856    42.7007
C    47.2400    43.4767    43.5033
O    48.7003    47.4199    43.4057
C    45.4633    44.1334    45.0318
O    47.0778    34.3865    47.2569
C    46.0318    43.1393    44.1957
O    44.2083    38.1357    48.1674
C    45.4032    41.8196    44.1052
O    47.9302    40.5066    44.7742
C    43.9586    41.7220    43.9513
O    50.0463    40.4401    46.2328
C    43.3371    40.5039    43.9627
O    49.6685    39.6295    50.9037
C    44.1465    39.2993    44.2934
C    41.8631    40.4101    43.7143
C    47.9566    49.3368    44.4650
C    48.9291    48.8102    43.5558
C    49.9013    49.5544    42.9467
C    49.9143    50.9352    43.2601
C    48.9736    51.5027    44.1546
C    47.9991    50.7151    44.7569
C    47.1286    48.2652    44.8728
C    47.5603    47.1070    44.2418
C    45.6289    36.2261    47.6984
C    46.5818    35.6237    46.8708
C    47.0254    36.2619    45.6850
C    46.4765    37.4920    45.3412
C    45.4910    38.1061    46.1379
C    45.1095    37.4748    47.3406
C    44.8594    39.4258    45.7253
C    45.7601    40.7245    45.7170
C    47.2085    40.5512    45.8381
C    47.8005    40.3148    47.1695
C    47.0331    40.1299    48.3480
C    49.2337    40.2501    47.3012
C    47.6246    39.9133    49.5848
C    49.8189    39.9842    48.5386
C    49.0323    39.8410    49.6821
C    51.3346    39.8630    48.6213
C    52.0832    41.1808    48.4610
C    52.8426    41.8156    49.3853
C    53.6197    43.0307    48.9466
C    52.9054    41.3540    50.8255
H    48.5959    45.0152    42.9061
H    45.4915    46.1807    45.7066
H    44.1662    44.4818    46.4585
H    47.9908    41.6873    43.2771
H    45.9673    41.1100    43.4730
H    43.3598    42.6248    43.8524
H    43.5314    38.4018    44.2893
H    44.9645    39.1678    43.5805
H    41.2951    40.7810    44.5790
H    41.5492    39.3807    43.5159
H    41.5728    41.0365    42.8629
H    50.6193    49.1033    42.2614
H    49.0552    52.5691    44.3399
H    47.2765    51.1491    45.4439
H    46.3018    48.3620    45.5606
H    51.4503    51.2964    42.1008
H    45.3328    35.6942    48.6003
H    47.7820    35.8037    45.0523
H    46.8341    38.0116    44.4531
H    47.7307    34.0584    46.6066
H    43.9673    37.5789    48.9344
H    44.0544    39.5980    46.4584
H    45.3621    41.4466    46.4214
H    45.9487    40.1475    48.2846
H    47.0035    39.8017    50.4702
H    49.4405    40.5155    45.4334
H    49.0096    39.5045    51.6152
H    51.5957    39.3846    49.5681
H    51.6271    39.2248    47.7774
H    51.9430    41.6432    47.4827
H    54.3687    43.3213    49.6891
H    52.9507    43.8865    48.7813
H    54.1239    42.8471    47.9903
H    53.5212    40.4497    50.9289
H    51.9042    41.1029    51.2002
H    53.3351    42.1240    51.4736
84
Frame 47: 47
C    47.0765    45.7770    44.2816
O    44.3840    43.7628    45.8342
C    47.7220    44.7813    43.5043
O    47.9390    42.5348    42.7728
C    45.9599    45.4332    45.0770
O    50.8511    51.7856    42.7007
C    47.2412    43.4778    43.5023
O    48.7003    47.4200    43.4057
C    45.4628    44.1341    45.0311
O    47.0781    34.3862    47.2568
C    46.0298    43.1413    44.1908
O    44.2083    38.1350    48.1679
C    45.3960    41.8326    44.0793
O    47.9280    40.5069    44.7749
C    43.9575    41.7250    43.9501
O    50.0462    40.4400    46.2327
C    43.3378    40.5042    43.9624
O    49.6689    39.6294    50.9041
C    44.1492    39.3017    44.2925
C    41.8637    40.4096    43.7152
C    47.9567    49.3369    44.4650
C    48.9291    48.8103    43.5558
C    49.9013    49.5544    42.9467
C    49.9143    50.9353    43.2601
C    48.9736    51.5027    44.1546
C    47.9991    50.7151    44.7569
C    47.1286    48.2653    44.8728
C    47.5604    47.1071    44.2419
C    45.6291    36.2253    47.6989
C    46.5819    35.6233    46.8709
C    47.0256    36.2615    45.6850
C    46.4761    37.4914    45.3413
C    45.4901    38.1035    46.1382
C    45.1093    37.4736    47.3412
C    44.8586    39.4233    45.7281
C    45.7616    40.7138    45.7330
C    47.2083    40.5485    45.8407
C    47.8019    40.3143    47.1712
C    47.0339    40.1295    48.3491
C    49.2344    40.2500    47.3017
C    47.6251    39.9131    49.5858
C    49.8194    39.9841    48.5390
C    49.0328    39.8409    49.6825
C    51.3350    39.8629    48.6215
C    52.0833    41.1808    48.4611
C    52.8427    41.8156    49.3853
C    53.6198    43.0307    48.9466
C    52.9055    41.3540    50.8255
H    48.5976    45.0161    42.9072
H    45.4923    46.1805    45.7077
H    44.1680    44.4808    46.4602
H    47.9868    41.6873    43.2769
H    45.9648    41.1102    43.4744
H    43.3544    42.6260    43.8639
H    43.5361    38.4027    44.2855
H    44.9692    39.1736    43.5813
H    41.2961    40.7808    44.5801
H    41.5498    39.3799    43.5174
H    41.5724    41.0356    42.8639
H    50.6193    49.1034    42.2614
H    49.0553    52.5691    44.3399
H    47.2765    51.1491    45.4439
H    46.3017    48.3621    45.5606
H    51.4503    51.2964    42.1008
H    45.3334    35.6933    48.6009
H    47.7823    35.8035    45.0524
H    46.8331    38.0117    44.4534
H    47.7309    34.0581    46.6066
H    43.9676    37.5787    48.9353
H    44.0507    39.5944    46.4583
H    45.3622    41.4472    46.4222
H    45.9495    40.1464    48.2862
H    47.0042    39.8016    50.4713
H    49.4397    40.5155    45.4338
H    49.0101    39.5044    51.6157
H    51.5963    39.3845    49.5682
H    51.6275    39.2247    47.7775
H    51.9430    41.6431    47.4828
H    54.3687    43.3214    49.6891
H    52.9507    43.8866    48.7813
H    54.1239    42.8472    47.9903
H    53.5213    40.4497    50.9289
H    51.9042    41.1029    51.2002
H    53.3352    42.1240    51.4736
84
Frame 48: 48
C    47.0769    45.7772    44.2818
O    44.3843    43.7628    45.8342
C    47.7232    44.7819    43.5046
O    47.9395    42.5350    42.7729
C    45.9603    45.4333    45.0774
O    50.8512    51.7856    42.7007
C    47.2424    43.4789    43.5013
O    48.7003    47.4201    43.4057
C    45.4622    44.1349    45.0304
O    47.0783    34.3859    47.2568
C    46.0278    43.1434    44.1858
O    44.2083    38.1344    48.1684
C    45.3888    41.8456    44.0533
O    47.9258    40.5072    44.7756
C    43.9564    41.7281    43.9489
O    50.0462    40.4400    46.2326
C    43.3385    40.5044    43.9621
O    49.6694    39.6293    50.9045
C    44.1519    39.3041    44.2916
C    41.8643    40.4090    43.7162
C    47.9567    49.3370    44.4650
C    48.9292    48.8103    43.5558
C    49.9014    49.5545    42.9467
C    49.9144    50.9353    43.2601
C    48.9736    51.5028    44.1546
C    47.9992    50.7152    44.7569
C    47.1286    48.2655    44.8729
C    47.5604    47.1073    44.2421
C    45.6293    36.2245    47.6994
C    46.5821    35.6230    46.8710
C    47.0257    36.2612    45.6850
C    46.4757    37.4907    45.3414
C    45.4892    38.1010    46.1386
C    45.1091    37.4724    47.3419
C    44.8577    39.4208    45.7310
C    45.7632    40.7031    45.7491
C    47.2081    40.5458    45.8433
C    47.8034    40.3139    47.1729
C    47.0346    40.1291    48.3502
C    49.2350    40.2499    47.3023
C    47.6257    39.9130    49.5867
C    49.8200    39.9840    48.5395
C    49.0333    39.8408    49.6830
C    51.3354    39.8628    48.6217
C    52.0835    41.1808    48.4611
C    52.8428    41.8157    49.3853
C    53.6198    43.0308    48.9466
C    52.9055    41.3541    50.8255
H    48.5994    45.0171    42.9084
H    45.4931    46.1804    45.7088
H    44.1698    44.4797    46.4619
H    47.9829    41.6872    43.2768
H    45.9624    41.1104    43.4758
H    43.3491    42.6272    43.8753
H    43.5407    38.4037    44.2818
H    44.9738    39.1795    43.5822
H    41.2971    40.7806    44.5812
H    41.5504    39.3791    43.5190
H    41.5720    41.0348    42.8649
H    50.6194    49.1034    42.2614
H    49.0553    52.5692    44.3398
H    47.2766    51.1492    45.4439
H    46.3017    48.3623    45.5606
H    51.4504    51.2964    42.1008
H    45.3340    35.6924    48.6014
H    47.7827    35.8034    45.0525
H    46.8320    38.0119    44.4536
H    47.7311    34.0578    46.6065
H    43.9679    37.5786    48.9363
H    44.0469    39.5909    46.4583
H    45.3623    41.4479    46.4230
H    45.9503    40.1453    48.2878
H    47.0049    39.8014    50.4724
H    49.4389    40.5156    45.4343
H    49.0106    39.5043    51.6161
H    51.5970    39.3845    49.5683
H    51.6278    39.2247    47.7776
H    51.9430    41.6431    47.4828
H    54.3687    43.3215    49.6891
H    52.9507    43.8866    48.7813
H    54.1239    42.8472    47.9903
H    53.5213    40.4498    50.9290
H    51.9043    41.1030    51.2003
H    53.3352    42.1241    51.4736
84
Frame 49: 49
C    47.0772    45.7774    44.2820
O    44.3845    43.7627    45.8342
C    47.7244    44.7825    43.5049
O    47.9400    42.5353    42.7731
C    45.9606    45.4334    45.0779
O    50.8512    51.7857    42.7007
C    47.2436    43.4800    43.5002
O    48.7004    47.4202    43.4057
C    45.4617    44.1357    45.0298
O    47.0785    34.3855    47.2568
C    46.0258    43.1454    44.1809
O    44.2082    38.1338    48.1689
C    45.3815    41.8586    44.0273
O    47.9236    40.5076    44.7763
C    43.9553    41.7311    43.9477
O    50.0461    40.4400    46.2325
C    43.3392    40.5046    43.9619
O    49.6698    39.6292    50.9048
C    44.1546    39.3065    44.2907
C    41.8649    40.4084    43.7171
C    47.9567    49.3371    44.4650
C    48.9292    48.8104    43.5558
C    49.9014    49.5545    42.9467
C    49.9144    50.9353    43.2601
C    48.9737    51.5028    44.1546
C    47.9992    50.7153    44.7569
C    47.1286    48.2656    44.8729
C    47.5605    47.1074    44.2422
C    45.6295    36.2238    47.6999
C    46.5822    35.6226    46.8711
C    47.0258    36.2608    45.6851
C    46.4753    37.4901    45.3414
C    45.4882    38.0984    46.1389
C    45.1089    37.4712    47.3425
C    44.8568    39.4184    45.7338
C    45.7647    40.6924    45.7652
C    47.2079    40.5430    45.8459
C    47.8048    40.3134    47.1746
C    47.0353    40.1287    48.3514
C    49.2357    40.2498    47.3029
C    47.6262    39.9128    49.5877
C    49.8206    39.9839    48.5399
C    49.0338    39.8407    49.6834
C    51.3358    39.8627    48.6219
C    52.0836    41.1808    48.4611
C    52.8429    41.8157    49.3854
C    53.6198    43.0308    48.9466
C    52.9056    41.3541    50.8255
H    48.6011    45.0180    42.9096
H    45.4939    46.1803    45.7100
H    44.1716    44.4787    46.4636
H    47.9789    41.6871    43.2767
H    45.9599    41.1106    43.4772
H    43.3438    42.6284    43.8867
H    43.5454    38.4047    44.2780
H    44.9784    39.1853    43.5830
H    41.2981    40.7804    44.5824
H    41.5510    39.3783    43.5206
H    41.5716    41.0339    42.8659
H    50.6194    49.1034    42.2614
H    49.0553    52.5692    44.3398
H    47.2766    51.1493    45.4439
H    46.3017    48.3624    45.5606
H    51.4504    51.2965    42.1008
H    45.3346    35.6915    48.6020
H    47.7830    35.8032    45.0526
H    46.8309    38.0120    44.4539
H    47.7313    34.0576    46.6064
H    43.9683    37.5785    48.9372
H    44.0432    39.5874    46.4582
H    45.3625    41.4486    46.4238
H    45.9510    40.1442    48.2895
H    47.0055    39.8013    50.4735
H    49.4382    40.5156    45.4347
H    49.0111    39.5041    51.6165
H    51.5976    39.3844    49.5685
H    51.6281    39.2246    47.7777
H    51.9430    41.6431    47.4828
H    54.3687    43.3216    49.6891
H    52.9507    43.8866    48.7813
H    54.1239    42.8473    47.9903
H    53.5214    40.4498    50.9290
H    51.9044    41.1031    51.2003
H    53.3353    42.1241    51.4737
84
Frame 50: 50
C    47.0776    45.7777    44.2823
O    44.3848    43.7626    45.8342
C    47.7256    44.7831    43.5052
O    47.9404    42.5356    42.7732
C    45.9609    45.4334    45.0783
O    50.8512    51.7857    42.7007
C    47.2448    43.4811    43.4992
O    48.7004    47.4203    43.4058
C    45.4612    44.1364    45.0291
O    47.0788    34.3852    47.2568
C    46.0238    43.1475    44.1759
O    44.2082    38.1331    48.1693
C    45.3743    41.8716    44.0014
O    47.9214    40.5079    44.7770
C    43.9541    41.7342    43.9466
O    50.0460    40.4399    46.2324
C    43.3399    40.5049    43.9616
O    49.6703    39.6292    50.9052
C    44.1573    39.3088    44.2898
C    41.8656    40.4078    43.7181
C    47.9567    49.3372    44.4650
C    48.9292    48.8104    43.5558
C    49.9014    49.5546    42.9467
C    49.9144    50.9354    43.2601
C    48.9737    51.5029    44.1546
C    47.9992    50.7153    44.7569
C    47.1286    48.2658    44.8730
C    47.5605    47.1076    44.2423
C    45.6298    36.2230    47.7005
C    46.5824    35.6223    46.8712
C    47.0260    36.2605    45.6851
C    46.4749    37.4895    45.3415
C    45.4873    38.0959    46.1393
C    45.1088    37.4701    47.3432
C    44.8559    39.4159    45.7367
C    45.7663    40.6816    45.7813
C    47.2078    40.5403    45.8485
C    47.8062    40.3130    47.1763
C    47.0360    40.1282    48.3525
C    49.2363    40.2498    47.3034
C    47.6268    39.9127    49.5887
C    49.8212    39.9838    48.5404
C    49.0343    39.8407    49.6839
C    51.3362    39.8626    48.6220
C    52.0838    41.1808    48.4612
C    52.8429    41.8158    49.3854
C    53.6199    43.0309    48.9466
C    52.9056    41.3542    50.8256
H    48.6029    45.0189    42.9107
H    45.4947    46.1801    45.7111
H    44.1734    44.4776    46.4653
H    47.9750    41.6871    43.2765
H    45.9575    41.1108    43.4787
H    43.3384    42.6296    43.8982
H    43.5500    38.4056    44.2743
H    44.9831    39.1912    43.5838
H    41.2992    40.7802    44.5835
H    41.5517    39.3775    43.5221
H    41.5711    41.0330    42.8668
H    50.6194    49.1035    42.2614
H    49.0554    52.5693    44.3398
H    47.2766    51.1493    45.4439
H    46.3016    48.3626    45.5606
H    51.4504    51.2965    42.1008
H    45.3353    35.6906    48.6025
H    47.7833    35.8030    45.0528
H    46.8299    38.0122    44.4541
H    47.7315    34.0573    46.6064
H    43.9686    37.5783    48.9381
H    44.0394    39.5838    46.4582
H    45.3626    41.4492    46.4246
H    45.9518    40.1432    48.2911
H    47.0062    39.8011    50.4746
H    49.4374    40.5157    45.4352
H    49.0115    39.5040    51.6169
H    51.5983    39.3843    49.5686
H    51.6285    39.2246    47.7778
H    51.9430    41.6430    47.4829
H    54.3688    43.3216    49.6891
H    52.9507    43.8867    48.7813
H    54.1240    42.8473    47.9903
H    53.5214    40.4499    50.9291
H    51.9044    41.1031    51.2004
H    53.3353    42.1242    51.4737
84
Frame 51: 51
C    47.0779    45.7779    44.2825
O    44.3850    43.7625    45.8342
C    47.7268    44.7837    43.5055
O    47.9409    42.5359    42.7734
C    45.9612    45.4335    45.0787
O    50.8512    51.7857    42.7007
C    47.2460    43.4822    43.4982
O    48.7004    47.4204    43.4058
C    45.4607    44.1372    45.0284
O    47.0790    34.3849    47.2568
C    46.0218    43.1495    44.1710
O    44.2082    38.1325    48.1698
C    45.3671    41.8846    43.9754
O    47.9192    40.5082    44.7777
C    43.9530    41.7372    43.9454
O    50.0459    40.4399    46.2323
C    43.3406    40.5051    43.9613
O    49.6707    39.6291    50.9056
C    44.1600    39.3112    44.2889
C    41.8662    40.4072    43.7190
C    47.9567    49.3373    44.4650
C    48.9292    48.8105    43.5558
C    49.9014    49.5546    42.9467
C    49.9144    50.9354    43.2601
C    48.9737    51.5029    44.1546
C    47.9992    50.7154    44.7569
C    47.1286    48.2659    44.8730
C    47.5606    47.1077    44.2424
C    45.6300    36.2222    47.7010
C    46.5825    35.6219    46.8713
C    47.0261    36.2601    45.6851
C    46.4745    37.4889    45.3416
C    45.4864    38.0933    46.1396
C    45.1086    37.4689    47.3438
C    44.8550    39.4134    45.7395
C    45.7678    40.6709    45.7974
C    47.2076    40.5376    45.8511
C    47.8076    40.3125    47.1780
C    47.0367    40.1278    48.3536
C    49.2370    40.2497    47.3040
C    47.6273    39.9125    49.5897
C    49.8218    39.9837    48.5408
C    49.0348    39.8406    49.6843
C    51.3366    39.8625    48.6222
C    52.0839    41.1808    48.4612
C    52.8430    41.8158    49.3854
C    53.6199    43.0309    48.9466
C    52.9057    41.3542    50.8256
H    48.6046    45.0198    42.9119
H    45.4955    46.1800    45.7122
H    44.1752    44.4766    46.4670
H    47.9710    41.6870    43.2764
H    45.9550    41.1110    43.4801
H    43.3331    42.6308    43.9096
H    43.5547    38.4066    44.2705
H    44.9877    39.1970    43.5846
H    41.3002    40.7800    44.5846
H    41.5523    39.3767    43.5237
H    41.5707    41.0321    42.8678
H    50.6194    49.1035    42.2614
H    49.0554    52.5693    44.3398
H    47.2766    51.1494    45.4439
H    46.3016    48.3627    45.5606
H    51.4504    51.2965    42.1008
H    45.3359    35.6897    48.6031
H    47.7836    35.8028    45.0529
H    46.8288    38.0123    44.4544
H    47.7317    34.0570    46.6063
H    43.9689    37.5782    48.9390
H    44.0357    39.5803    46.4581
H    45.3627    41.4499    46.4254
H    45.9526    40.1421    48.2927
H    47.0069    39.8010    50.4757
H    49.4366    40.5157    45.4356
H    49.0120    39.5039    51.6173
H    51.5989    39.3842    49.5687
H    51.6288    39.2245    47.7779
H    51.9430    41.6430    47.4829
H    54.3688    43.3217    49.6891
H    52.9507    43.8867    48.7813
H    54.1240    42.8474    47.9903
H    53.5215    40.4499    50.9291
H    51.9045    41.1032    51.2004
H    53.3354    42.1242    51.4737
