22
Frame 1: 1
C    -0.9017    -1.3835     0.1473
C     1.2073     0.1117     0.1648
C    -0.7571     2.1264     0.8879
C     1.9287    -0.4957     1.3850
C     2.1679     0.5669    -0.9441
N     0.1963    -0.8513    -0.4410
N    -1.8902    -1.8674    -0.6056
O    -1.6211     1.8189    -0.1036
H    -2.0395     0.9379     0.0113
H     0.1429    -0.8899    -1.4587
H    -1.0290    -1.4321     1.2314
H     0.6108     1.0028     0.5325
H    -2.7196    -2.2334    -0.1578
H    -1.8261    -1.8808    -1.6179
H    -0.2413     3.0768     0.7809
H    -0.8581     1.6719     1.8718
H     2.6503     0.2236     1.7782
H     1.6162     1.0567    -1.7499
H     2.4725    -1.4059     1.1187
H     1.2277    -0.7265     2.1877
H     2.9003     1.2759    -0.5554
H     2.7042    -0.2886    -1.3633
22
Frame 2: 2
C    -0.9011    -1.3828     0.1474
C     1.2122     0.1080     0.1641
C    -0.7724     2.1403     0.8924
C     1.9325    -0.5006     1.3839
C     2.1711     0.5634    -0.9458
N     0.1966    -0.8509    -0.4412
N    -1.8897    -1.8674    -0.6054
O    -1.6210     1.8182    -0.1043
H    -2.0381     0.9359     0.0116
H     0.1447    -0.8929    -1.4587
H    -1.0289    -1.4306     1.2316
H     0.6278     0.9922     0.5331
H    -2.7194    -2.2326    -0.1574
H    -1.8258    -1.8808    -1.6177
H    -0.2587     3.0914     0.7861
H    -0.8585     1.6709     1.8702
H     2.6552     0.2175     1.7774
H     1.6184     1.0543    -1.7502
H     2.4749    -1.4119     1.1186
H     1.2311    -0.7301     2.1867
H     2.9047     1.2717    -0.5580
H     2.7063    -0.2918    -1.3671
22
Frame 3: 3
C    -0.9005    -1.3821     0.1474
C     1.2171     0.1044     0.1634
C    -0.7877     2.1541     0.8969
C     1.9362    -0.5054     1.3829
C     2.1743     0.5598    -0.9474
N     0.1969    -0.8505    -0.4413
N    -1.8893    -1.8673    -0.6052
O    -1.6209     1.8175    -0.1050
H    -2.0367     0.9339     0.0119
H     0.1465    -0.8959    -1.4587
H    -1.0289    -1.4291     1.2317
H     0.6449     0.9817     0.5337
H    -2.7192    -2.2317    -0.1570
H    -1.8255    -1.8808    -1.6175
H    -0.2761     3.1061     0.7912
H    -0.8589     1.6698     1.8686
H     2.6601     0.2114     1.7766
H     1.6207     1.0519    -1.7506
H     2.4773    -1.4180     1.1185
H     1.2344    -0.7336     2.1858
H     2.9091     1.2674    -0.5605
H     2.7083    -0.2950    -1.3710
22
Frame 4: 4
C    -0.9000    -1.3813     0.1475
C     1.2220     0.1007     0.1628
C    -0.8030     2.1680     0.9014
C     1.9400    -0.5103     1.3818
C     2.1775     0.5563    -0.9491
N     0.1972    -0.8501    -0.4415
N    -1.8888    -1.8673    -0.6049
O    -1.6208     1.8168    -0.1057
H    -2.0354     0.9319     0.0122
H     0.1483    -0.8989    -1.4587
H    -1.0288    -1.4276     1.2319
H     0.6619     0.9711     0.5343
H    -2.7190    -2.2309    -0.1566
H    -1.8251    -1.8808    -1.6173
H    -0.2935     3.1207     0.7964
H    -0.8593     1.6688     1.8669
H     2.6649     0.2053     1.7759
H     1.6229     1.0494    -1.7509
H     2.4797    -1.4240     1.1184
H     1.2378    -0.7372     2.1848
H     2.9135     1.2632    -0.5631
H     2.7104    -0.2982    -1.3748
22
Frame 5: 5
C    -0.8994    -1.3806     0.1475
C     1.2269     0.0970     0.1621
C    -0.8184     2.1818     0.9059
C     1.9437    -0.5151     1.3807
C     2.1807     0.5528    -0.9507
N     0.1975    -0.8497    -0.4417
N    -1.8884    -1.8673    -0.6047
O    -1.6207     1.8162    -0.1064
H    -2.0340     0.9300     0.0125
H     0.1501    -0.9019    -1.4587
H    -1.0287    -1.4261     1.2320
H     0.6789     0.9605     0.5350
H    -2.7188    -2.2301    -0.1562
H    -1.8248    -1.8809    -1.6171
H    -0.3110     3.1353     0.8015
H    -0.8598     1.6678     1.8653
H     2.6698     0.1992     1.7751
H     1.6251     1.0470    -1.7512
H     2.4821    -1.4300     1.1183
H     1.2412    -0.7408     2.1838
H     2.9179     1.2590    -0.5657
H     2.7124    -0.3014    -1.3786
22
Frame 6: 6
C    -0.8988    -1.3799     0.1476
C     1.2318     0.0934     0.1614
C    -0.8337     2.1957     0.9104
C     1.9475    -0.5200     1.3797
C     2.1839     0.5493    -0.9524
N     0.1977    -0.8493    -0.4419
N    -1.8879    -1.8672    -0.6045
O    -1.6206     1.8155    -0.1071
H    -2.0326     0.9280     0.0128
H     0.1519    -0.9050    -1.4587
H    -1.0286    -1.4246     1.2322
H     0.6959     0.9500     0.5356
H    -2.7186    -2.2292    -0.1558
H    -1.8245    -1.8809    -1.6169
H    -0.3284     3.1500     0.8067
H    -0.8602     1.6667     1.8637
H     2.6747     0.1930     1.7743
H     1.6274     1.0446    -1.7516
H     2.4845    -1.4361     1.1182
H     1.2446    -0.7443     2.1828
H     2.9223     1.2547    -0.5682
H     2.7145    -0.3046    -1.3825
22
Frame 7: 7
C    -0.8982    -1.3792     0.1476
C     1.2367     0.0897     0.1607
C    -0.8490     2.2096     0.9150
C     1.9512    -0.5249     1.3786
C     2.1871     0.5457    -0.9540
N     0.1980    -0.8489    -0.4420
N    -1.8874    -1.8672    -0.6043
O    -1.6205     1.8148    -0.1078
H    -2.0312     0.9260     0.0132
H     0.1537    -0.9080    -1.4586
H    -1.0286    -1.4231     1.2324
H     0.7130     0.9394     0.5362
H    -2.7184    -2.2284    -0.1554
H    -1.8242    -1.8809    -1.6167
H    -0.3458     3.1646     0.8118
H    -0.8606     1.6657     1.8621
H     2.6796     0.1869     1.7735
H     1.6296     1.0422    -1.7519
H     2.4869    -1.4421     1.1181
H     1.2479    -0.7479     2.1819
H     2.9267     1.2505    -0.5708
H     2.7165    -0.3078    -1.3863
22
Frame 8: 8
C    -0.8976    -1.3785     0.1477
C     1.2416     0.0860     0.1600
C    -0.8643     2.2234     0.9195
C     1.9550    -0.5297     1.3775
C     2.1903     0.5422    -0.9557
N     0.1983    -0.8485    -0.4422
N    -1.8870    -1.8671    -0.6040
O    -1.6204     1.8141    -0.1085
H    -2.0299     0.9240     0.0135
H     0.1556    -0.9110    -1.4586
H    -1.0285    -1.4216     1.2325
H     0.7300     0.9288     0.5368
H    -2.7181    -2.2275    -0.1550
H    -1.8238    -1.8809    -1.6165
H    -0.3632     3.1793     0.8170
H    -0.8610     1.6647     1.8604
H     2.6845     0.1808     1.7728
H     1.6318     1.0398    -1.7522
H     2.4893    -1.4482     1.1180
H     1.2513    -0.7515     2.1809
H     2.9311     1.2463    -0.5734
H     2.7186    -0.3111    -1.3901
22
Frame 9: 9
C    -0.8970    -1.3778     0.1478
C     1.2465     0.0824     0.1594
C    -0.8796     2.2373     0.9240
C     1.9587    -0.5346     1.3765
C     2.1935     0.5387    -0.9573
N     0.1986    -0.8481    -0.4424
N    -1.8865    -1.8671    -0.6038
O    -1.6203     1.8134    -0.1093
H    -2.0285     0.9220     0.0138
H     0.1574    -0.9140    -1.4586
H    -1.0284    -1.4201     1.2327
H     0.7470     0.9182     0.5374
H    -2.7179    -2.2267    -0.1546
H    -1.8235    -1.8809    -1.6163
H    -0.3806     3.1939     0.8221
H    -0.8614     1.6636     1.8588
H     2.6894     0.1747     1.7720
H     1.6340     1.0373    -1.7525
H     2.4917    -1.4542     1.1179
H     1.2547    -0.7550     2.1799
H     2.9355     1.2420    -0.5759
H     2.7206    -0.3143    -1.3939
22
Frame 10: 10
C    -0.8965    -1.3770     0.1478
C     1.2514     0.0787     0.1587
C    -0.8949     2.2511     0.9285
C     1.9625    -0.5395     1.3754
C     2.1966     0.5352    -0.9590
N     0.1989    -0.8477    -0.4426
N    -1.8861    -1.8671    -0.6036
O    -1.6202     1.8127    -0.1100
H    -2.0271     0.9200     0.0141
H     0.1592    -0.9170    -1.4586
H    -1.0284    -1.4186     1.2328
H     0.7641     0.9077     0.5380
H    -2.7177    -2.2259    -0.1542
H    -1.8232    -1.8809    -1.6161
H    -0.3980     3.2085     0.8273
H    -0.8618     1.6626     1.8572
H     2.6942     0.1686     1.7712
H     1.6363     1.0349    -1.7529
H     2.4941    -1.4602     1.1179
H     1.2581    -0.7586     2.1789
H     2.9399     1.2378    -0.5785
H     2.7227    -0.3175    -1.3978
22
Frame 11: 11
C    -0.8959    -1.3763     0.1479
C     1.2563     0.0751     0.1580
C    -0.9103     2.2650     0.9330
C     1.9662    -0.5443     1.3743
C     2.1998     0.5316    -0.9606
N     0.1992    -0.8473    -0.4427
N    -1.8856    -1.8670    -0.6034
O    -1.6201     1.8120    -0.1107
H    -2.0257     0.9181     0.0144
H     0.1610    -0.9200    -1.4586
H    -1.0283    -1.4171     1.2330
H     0.7811     0.8971     0.5386
H    -2.7175    -2.2250    -0.1538
H    -1.8229    -1.8810    -1.6159
H    -0.4154     3.2232     0.8324
H    -0.8623     1.6615     1.8556
H     2.6991     0.1625     1.7704
H     1.6385     1.0325    -1.7532
H     2.4965    -1.4663     1.1178
H     1.2614    -0.7622     2.1780
H     2.9443     1.2335    -0.5811
H     2.7248    -0.3207    -1.4016
22
Frame 12: 12
C    -0.8953    -1.3756     0.1479
C     1.2612     0.0714     0.1573
C    -0.9256     2.2789     0.9375
C     1.9700    -0.5492     1.3733
C     2.2030     0.5281    -0.9623
N     0.1995    -0.8469    -0.4429
N    -1.8852    -1.8670    -0.6031
O    -1.6200     1.8113    -0.1114
H    -2.0243     0.9161     0.0147
H     0.1628    -0.9230    -1.4586
H    -1.0282    -1.4156     1.2331
H     0.7981     0.8865     0.5393
H    -2.7173    -2.2242    -0.1534
H    -1.8225    -1.8810    -1.6157
H    -0.4328     3.2378     0.8376
H    -0.8627     1.6605     1.8540
H     2.7040     0.1564     1.7697
H     1.6407     1.0301    -1.7535
H     2.4989    -1.4723     1.1177
H     1.2648    -0.7657     2.1770
H     2.9487     1.2293    -0.5836
H     2.7268    -0.3239    -1.4054
22
Frame 13: 13
C    -0.8947    -1.3749     0.1480
C     1.2661     0.0677     0.1567
C    -0.9409     2.2927     0.9420
C     1.9737    -0.5540     1.3722
C     2.2062     0.5246    -0.9640
N     0.1998    -0.8465    -0.4431
N    -1.8847    -1.8670    -0.6029
O    -1.6199     1.8107    -0.1121
H    -2.0230     0.9141     0.0150
H     0.1646    -0.9260    -1.4586
H    -1.0282    -1.4141     1.2333
H     0.8151     0.8760     0.5399
H    -2.7171    -2.2234    -0.1530
H    -1.8222    -1.8810    -1.6155
H    -0.4503     3.2524     0.8427
H    -0.8631     1.6595     1.8523
H     2.7089     0.1503     1.7689
H     1.6430     1.0277    -1.7539
H     2.5012    -1.4783     1.1176
H     1.2682    -0.7693     2.1760
H     2.9531     1.2251    -0.5862
H     2.7289    -0.3271    -1.4093
22
Frame 14: 14
C    -0.8941    -1.3742     0.1480
C     1.2710     0.0641     0.1560
C    -0.9562     2.3066     0.9465
C     1.9775    -0.5589     1.3711
C     2.2094     0.5211    -0.9656
N     0.2001    -0.8461    -0.4433
N    -1.8842    -1.8669    -0.6027
O    -1.6198     1.8100    -0.1128
H    -2.0216     0.9121     0.0153
H     0.1664    -0.9290    -1.4586
H    -1.0281    -1.4126     1.2335
H     0.8322     0.8654     0.5405
H    -2.7169    -2.2225    -0.1526
H    -1.8219    -1.8810    -1.6153
H    -0.4677     3.2671     0.8479
H    -0.8635     1.6584     1.8507
H     2.7138     0.1441     1.7681
H     1.6452     1.0252    -1.7542
H     2.5036    -1.4844     1.1175
H     1.2716    -0.7729     2.1750
H     2.9576     1.2208    -0.5888
H     2.7309    -0.3303    -1.4131
22
Frame 15: 15
C    -0.8935    -1.3735     0.1481
C     1.2759     0.0604     0.1553
C    -0.9715     2.3205     0.9510
C     1.9812    -0.5638     1.3700
C     2.2126     0.5175    -0.9673
N     0.2004    -0.8457    -0.4434
N    -1.8838    -1.8669    -0.6025
O    -1.6196     1.8093    -0.1135
H    -2.0202     0.9101     0.0156
H     0.1682    -0.9320    -1.4586
H    -1.0280    -1.4111     1.2336
H     0.8492     0.8548     0.5411
H    -2.7167    -2.2217    -0.1522
H    -1.8216    -1.8810    -1.6151
H    -0.4851     3.2817     0.8530
H    -0.8639     1.6574     1.8491
H     2.7186     0.1380     1.7673
H     1.6474     1.0228    -1.7545
H     2.5060    -1.4904     1.1174
H     1.2749    -0.7764     2.1741
H     2.9620     1.2166    -0.5913
H     2.7330    -0.3335    -1.4169
22
Frame 16: 16
C    -0.8930    -1.3727     0.1482
C     1.2808     0.0567     0.1546
C    -0.9868     2.3343     0.9555
C     1.9850    -0.5686     1.3690
C     2.2158     0.5140    -0.9689
N     0.2006    -0.8454    -0.4436
N    -1.8833    -1.8669    -0.6023
O    -1.6195     1.8086    -0.1142
H    -2.0188     0.9081     0.0159
H     0.1700    -0.9351    -1.4586
H    -1.0279    -1.4096     1.2338
H     0.8662     0.8443     0.5417
H    -2.7165    -2.2209    -0.1518
H    -1.8212    -1.8810    -1.6149
H    -0.5025     3.2963     0.8582
H    -0.8643     1.6564     1.8475
H     2.7235     0.1319     1.7665
H     1.6497     1.0204    -1.7549
H     2.5084    -1.4965     1.1173
H     1.2783    -0.7800     2.1731
H     2.9664     1.2124    -0.5939
H     2.7350    -0.3367    -1.4208
22
Frame 17: 17
C    -0.8924    -1.3720     0.1482
C     1.2857     0.0531     0.1539
C    -1.0021     2.3482     0.9601
C     1.9887    -0.5735     1.3679
C     2.2190     0.5105    -0.9706
N     0.2009    -0.8450    -0.4438
N    -1.8829    -1.8668    -0.6020
O    -1.6194     1.8079    -0.1149
H    -2.0174     0.9062     0.0163
H     0.1718    -0.9381    -1.4586
H    -1.0279    -1.4081     1.2339
H     0.8833     0.8337     0.5423
H    -2.7163    -2.2200    -0.1514
H    -1.8209    -1.8810    -1.6147
H    -0.5199     3.3110     0.8633
H    -0.8648     1.6553     1.8459
H     2.7284     0.1258     1.7658
H     1.6519     1.0180    -1.7552
H     2.5108    -1.5025     1.1172
H     1.2817    -0.7836     2.1721
H     2.9708     1.2081    -0.5964
H     2.7371    -0.3399    -1.4246
22
Frame 18: 18
C    -0.8918    -1.3713     0.1483
C     1.2906     0.0494     0.1533
C    -1.0175     2.3620     0.9646
C     1.9925    -0.5783     1.3668
C     2.2222     0.5070    -0.9722
N     0.2012    -0.8446    -0.4440
N    -1.8824    -1.8668    -0.6018
O    -1.6193     1.8072    -0.1156
H    -2.0161     0.9042     0.0166
H     0.1736    -0.9411    -1.4586
H    -1.0278    -1.4066     1.2341
H     0.9003     0.8231     0.5429
H    -2.7161    -2.2192    -0.1510
H    -1.8206    -1.8811    -1.6145
H    -0.5373     3.3256     0.8685
H    -0.8652     1.6543     1.8442
H     2.7333     0.1197     1.7650
H     1.6541     1.0156    -1.7555
H     2.5132    -1.5085     1.1171
H     1.2851    -0.7871     2.1711
H     2.9752     1.2039    -0.5990
H     2.7391    -0.3431    -1.4284
22
Frame 19: 19
C    -0.8912    -1.3706     0.1483
C     1.2955     0.0457     0.1526
C    -1.0328     2.3759     0.9691
C     1.9962    -0.5832     1.3658
C     2.2254     0.5034    -0.9739
N     0.2015    -0.8442    -0.4441
N    -1.8819    -1.8668    -0.6016
O    -1.6192     1.8065    -0.1163
H    -2.0147     0.9022     0.0169
H     0.1754    -0.9441    -1.4585
H    -1.0277    -1.4051     1.2343
H     0.9173     0.8126     0.5436
H    -2.7159    -2.2183    -0.1506
H    -1.8203    -1.8811    -1.6143
H    -0.5547     3.3403     0.8736
H    -0.8656     1.6533     1.8426
H     2.7382     0.1136     1.7642
H     1.6563     1.0131    -1.7558
H     2.5156    -1.5146     1.1170
H     1.2884    -0.7907     2.1702
H     2.9796     1.1997    -0.6016
H     2.7412    -0.3463    -1.4323
22
Frame 20: 20
C    -0.8906    -1.3699     0.1484
C     1.3004     0.0421     0.1519
C    -1.0481     2.3898     0.9736
C     2.0000    -0.5881     1.3647
C     2.2286     0.4999    -0.9755
N     0.2018    -0.8438    -0.4443
N    -1.8815    -1.8667    -0.6014
O    -1.6191     1.8059    -0.1170
H    -2.0133     0.9002     0.0172
H     0.1772    -0.9471    -1.4585
H    -1.0277    -1.4036     1.2344
H     0.9343     0.8020     0.5442
H    -2.7156    -2.2175    -0.1502
H    -1.8199    -1.8811    -1.6141
H    -0.5722     3.3549     0.8788
H    -0.8660     1.6522     1.8410
H     2.7430     0.1075     1.7634
H     1.6586     1.0107    -1.7562
H     2.5180    -1.5206     1.1169
H     1.2918    -0.7943     2.1692
H     2.9840     1.1954    -0.6041
H     2.7433    -0.3495    -1.4361
22
Frame 21: 21
C    -0.8900    -1.3692     0.1485
C     1.3053     0.0384     0.1512
C    -1.0634     2.4036     0.9781
C     2.0037    -0.5929     1.3636
C     2.2318     0.4964    -0.9772
N     0.2021    -0.8434    -0.4445
N    -1.8810    -1.8667    -0.6011
O    -1.6190     1.8052    -0.1177
H    -2.0119     0.8982     0.0175
H     0.1791    -0.9501    -1.4585
H    -1.0276    -1.4021     1.2346
H     0.9514     0.7914     0.5448
H    -2.7154    -2.2167    -0.1498
H    -1.8196    -1.8811    -1.6139
H    -0.5896     3.3695     0.8839
H    -0.8664     1.6512     1.8394
H     2.7479     0.1014     1.7627
H     1.6608     1.0083    -1.7565
H     2.5204    -1.5266     1.1168
H     1.2952    -0.7978     2.1682
H     2.9884     1.1912    -0.6067
H     2.7453    -0.3528    -1.4399
22
Frame 22: 22
C    -0.8895    -1.3684     0.1485
C     1.3102     0.0347     0.1505
C    -1.0787     2.4175     0.9826
C     2.0075    -0.5978     1.3626
C     2.2350     0.4929    -0.9789
N     0.2024    -0.8430    -0.4447
N    -1.8806    -1.8666    -0.6009
O    -1.6189     1.8045    -0.1184
H    -2.0106     0.8962     0.0178
H     0.1809    -0.9531    -1.4585
H    -1.0275    -1.4006     1.2347
H     0.9684     0.7808     0.5454
H    -2.7152    -2.2158    -0.1494
H    -1.8193    -1.8811    -1.6137
H    -0.6070     3.3842     0.8891
H    -0.8668     1.6502     1.8377
H     2.7528     0.0953     1.7619
H     1.6630     1.0059    -1.7568
H     2.5228    -1.5327     1.1167
H     1.2985    -0.8014     2.1672
H     2.9928     1.1870    -0.6093
H     2.7474    -0.3560    -1.4437
22
Frame 23: 23
C    -0.8889    -1.3677     0.1486
C     1.3151     0.0311     0.1499
C    -1.0940     2.4313     0.9871
C     2.0112    -0.6026     1.3615
C     2.2382     0.4893    -0.9805
N     0.2027    -0.8426    -0.4448
N    -1.8801    -1.8666    -0.6007
O    -1.6188     1.8038    -0.1191
H    -2.0092     0.8943     0.0181
H     0.1827    -0.9561    -1.4585
H    -1.0274    -1.3991     1.2349
H     0.9854     0.7703     0.5460
H    -2.7150    -2.2150    -0.1489
H    -1.8190    -1.8811    -1.6135
H    -0.6244     3.3988     0.8942
H    -0.8673     1.6491     1.8361
H     2.7577     0.0891     1.7611
H     1.6653     1.0035    -1.7572
H     2.5252    -1.5387     1.1166
H     1.3019    -0.8050     2.1663
H     2.9972     1.1827    -0.6118
H     2.7494    -0.3592    -1.4476
22
Frame 24: 24
C    -0.8883    -1.3670     0.1486
C     1.3200     0.0274     0.1492
C    -1.1093     2.4452     0.9916
C     2.0150    -0.6075     1.3604
C     2.2414     0.4858    -0.9822
N     0.2030    -0.8422    -0.4450
N    -1.8796    -1.8666    -0.6005
O    -1.6187     1.8031    -0.1199
H    -2.0078     0.8923     0.0184
H     0.1845    -0.9591    -1.4585
H    -1.0274    -1.3976     1.2350
H     1.0025     0.7597     0.5466
H    -2.7148    -2.2142    -0.1485
H    -1.8186    -1.8812    -1.6133
H    -0.6418     3.4134     0.8994
H    -0.8677     1.6481     1.8345
H     2.7626     0.0830     1.7603
H     1.6675     1.0010    -1.7575
H     2.5276    -1.5447     1.1165
H     1.3053    -0.8085     2.1653
H     3.0016     1.1785    -0.6144
H     2.7515    -0.3624    -1.4514
22
Frame 25: 25
C    -0.8877    -1.3663     0.1487
C     1.3249     0.0238     0.1485
C    -1.1247     2.4591     0.9961
C     2.0187    -0.6124     1.3594
C     2.2446     0.4823    -0.9838
N     0.2033    -0.8418    -0.4452
N    -1.8792    -1.8665    -0.6003
O    -1.6186     1.8024    -0.1206
H    -2.0064     0.8903     0.0187
H     0.1863    -0.9622    -1.4585
H    -1.0273    -1.3961     1.2352
H     1.0195     0.7491     0.5472
H    -2.7146    -2.2133    -0.1481
H    -1.8183    -1.8812    -1.6131
H    -0.6592     3.4281     0.9045
H    -0.8681     1.6471     1.8329
H     2.7675     0.0769     1.7596
H     1.6697     0.9986    -1.7578
H     2.5300    -1.5508     1.1164
H     1.3087    -0.8121     2.1643
H     3.0060     1.1742    -0.6170
H     2.7535    -0.3656    -1.4552
22
Frame 26: 26
C    -0.8877    -1.3663     0.1487
C     1.3249     0.0238     0.1485
C    -1.1247     2.4591     0.9961
C     2.0187    -0.6124     1.3594
C     2.2446     0.4823    -0.9838
N     0.2033    -0.8418    -0.4452
N    -1.8792    -1.8665    -0.6003
O    -1.6186     1.8024    -0.1206
H    -2.0064     0.8903     0.0187
H     0.1863    -0.9622    -1.4585
H    -1.0273    -1.3961     1.2352
H     1.0195     0.7491     0.5472
H    -2.7146    -2.2133    -0.1481
H    -1.8183    -1.8812    -1.6131
H    -0.6592     3.4281     0.9045
H    -0.8681     1.6471     1.8329
H     2.7675     0.0769     1.7596
H     1.6697     0.9986    -1.7578
H     2.5300    -1.5508     1.1164
H     1.3087    -0.8121     2.1643
H     3.0060     1.1742    -0.6170
H     2.7535    -0.3656    -1.4552
22
Frame 27: 27
C    -0.8877    -1.3663     0.1487
C     1.3249     0.0238     0.1485
C    -1.1247     2.4591     0.9961
C     2.0187    -0.6124     1.3594
C     2.2446     0.4823    -0.9838
N     0.2033    -0.8418    -0.4452
N    -1.8792    -1.8665    -0.6003
O    -1.6186     1.8024    -0.1206
H    -2.0064     0.8903     0.0187
H     0.1863    -0.9622    -1.4585
H    -1.0273    -1.3961     1.2352
H     1.0195     0.7491     0.5472
H    -2.7146    -2.2133    -0.1481
H    -1.8183    -1.8812    -1.6131
H    -0.6592     3.4281     0.9045
H    -0.8681     1.6471     1.8329
H     2.7675     0.0769     1.7596
H     1.6697     0.9986    -1.7578
H     2.5300    -1.5508     1.1164
H     1.3087    -0.8121     2.1643
H     3.0060     1.1742    -0.6170
H     2.7535    -0.3656    -1.4552
22
Frame 28: 28
C    -0.8883    -1.3670     0.1486
C     1.3200     0.0274     0.1492
C    -1.1093     2.4452     0.9916
C     2.0150    -0.6075     1.3604
C     2.2414     0.4858    -0.9822
N     0.2030    -0.8422    -0.4450
N    -1.8796    -1.8666    -0.6005
O    -1.6187     1.8031    -0.1199
H    -2.0078     0.8923     0.0184
H     0.1845    -0.9591    -1.4585
H    -1.0274    -1.3976     1.2350
H     1.0025     0.7597     0.5466
H    -2.7148    -2.2142    -0.1485
H    -1.8186    -1.8812    -1.6133
H    -0.6418     3.4134     0.8994
H    -0.8677     1.6481     1.8345
H     2.7626     0.0830     1.7603
H     1.6675     1.0010    -1.7575
H     2.5276    -1.5447     1.1165
H     1.3053    -0.8085     2.1653
H     3.0016     1.1785    -0.6144
H     2.7515    -0.3624    -1.4514
22
Frame 29: 29
C    -0.8889    -1.3677     0.1486
C     1.3151     0.0311     0.1499
C    -1.0940     2.4313     0.9871
C     2.0112    -0.6026     1.3615
C     2.2382     0.4893    -0.9805
N     0.2027    -0.8426    -0.4448
N    -1.8801    -1.8666    -0.6007
O    -1.6188     1.8038    -0.1191
H    -2.0092     0.8943     0.0181
H     0.1827    -0.9561    -1.4585
H    -1.0274    -1.3991     1.2349
H     0.9854     0.7703     0.5460
H    -2.7150    -2.2150    -0.1489
H    -1.8190    -1.8811    -1.6135
H    -0.6244     3.3988     0.8942
H    -0.8673     1.6491     1.8361
H     2.7577     0.0891     1.7611
H     1.6653     1.0035    -1.7572
H     2.5252    -1.5387     1.1166
H     1.3019    -0.8050     2.1663
H     2.9972     1.1827    -0.6118
H     2.7494    -0.3592    -1.4476
22
Frame 30: 30
C    -0.8895    -1.3684     0.1485
C     1.3102     0.0347     0.1505
C    -1.0787     2.4175     0.9826
C     2.0075    -0.5978     1.3626
C     2.2350     0.4929    -0.9789
N     0.2024    -0.8430    -0.4447
N    -1.8806    -1.8666    -0.6009
O    -1.6189     1.8045    -0.1184
H    -2.0106     0.8962     0.0178
H     0.1809    -0.9531    -1.4585
H    -1.0275    -1.4006     1.2347
H     0.9684     0.7808     0.5454
H    -2.7152    -2.2158    -0.1494
H    -1.8193    -1.8811    -1.6137
H    -0.6070     3.3842     0.8891
H    -0.8668     1.6502     1.8377
H     2.7528     0.0953     1.7619
H     1.6630     1.0059    -1.7568
H     2.5228    -1.5327     1.1167
H     1.2985    -0.8014     2.1672
H     2.9928     1.1870    -0.6093
H     2.7474    -0.3560    -1.4437
22
Frame 31: 31
C    -0.8900    -1.3692     0.1485
C     1.3053     0.0384     0.1512
C    -1.0634     2.4036     0.9781
C     2.0037    -0.5929     1.3636
C     2.2318     0.4964    -0.9772
N     0.2021    -0.8434    -0.4445
N    -1.8810    -1.8667    -0.6011
O    -1.6190     1.8052    -0.1177
H    -2.0119     0.8982     0.0175
H     0.1791    -0.9501    -1.4585
H    -1.0276    -1.4021     1.2346
H     0.9514     0.7914     0.5448
H    -2.7154    -2.2167    -0.1498
H    -1.8196    -1.8811    -1.6139
H    -0.5896     3.3695     0.8839
H    -0.8664     1.6512     1.8394
H     2.7479     0.1014     1.7627
H     1.6608     1.0083    -1.7565
H     2.5204    -1.5266     1.1168
H     1.2952    -0.7978     2.1682
H     2.9884     1.1912    -0.6067
H     2.7453    -0.3528    -1.4399
22
Frame 32: 32
C    -0.8906    -1.3699     0.1484
C     1.3004     0.0421     0.1519
C    -1.0481     2.3898     0.9736
C     2.0000    -0.5881     1.3647
C     2.2286     0.4999    -0.9755
N     0.2018    -0.8438    -0.4443
N    -1.8815    -1.8667    -0.6014
O    -1.6191     1.8059    -0.1170
H    -2.0133     0.9002     0.0172
H     0.1772    -0.9471    -1.4585
H    -1.0277    -1.4036     1.2344
H     0.9343     0.8020     0.5442
H    -2.7156    -2.2175    -0.1502
H    -1.8199    -1.8811    -1.6141
H    -0.5722     3.3549     0.8788
H    -0.8660     1.6522     1.8410
H     2.7430     0.1075     1.7634
H     1.6586     1.0107    -1.7562
H     2.5180    -1.5206     1.1169
H     1.2918    -0.7943     2.1692
H     2.9840     1.1954    -0.6041
H     2.7433    -0.3495    -1.4361
22
Frame 33: 33
C    -0.8912    -1.3706     0.1483
C     1.2955     0.0457     0.1526
C    -1.0328     2.3759     0.9691
C     1.9962    -0.5832     1.3658
C     2.2254     0.5034    -0.9739
N     0.2015    -0.8442    -0.4441
N    -1.8819    -1.8668    -0.6016
O    -1.6192     1.8065    -0.1163
H    -2.0147     0.9022     0.0169
H     0.1754    -0.9441    -1.4585
H    -1.0277    -1.4051     1.2343
H     0.9173     0.8126     0.5436
H    -2.7159    -2.2183    -0.1506
H    -1.8203    -1.8811    -1.6143
H    -0.5547     3.3403     0.8736
H    -0.8656     1.6533     1.8426
H     2.7382     0.1136     1.7642
H     1.6563     1.0131    -1.7558
H     2.5156    -1.5146     1.1170
H     1.2884    -0.7907     2.1702
H     2.9796     1.1997    -0.6016
H     2.7412    -0.3463    -1.4323
22
Frame 34: 34
C    -0.8918    -1.3713     0.1483
C     1.2906     0.0494     0.1533
C    -1.0175     2.3620     0.9646
C     1.9925    -0.5783     1.3668
C     2.2222     0.5070    -0.9722
N     0.2012    -0.8446    -0.4440
N    -1.8824    -1.8668    -0.6018
O    -1.6193     1.8072    -0.1156
H    -2.0161     0.9042     0.0166
H     0.1736    -0.9411    -1.4586
H    -1.0278    -1.4066     1.2341
H     0.9003     0.8231     0.5429
H    -2.7161    -2.2192    -0.1510
H    -1.8206    -1.8811    -1.6145
H    -0.5373     3.3256     0.8685
H    -0.8652     1.6543     1.8442
H     2.7333     0.1197     1.7650
H     1.6541     1.0156    -1.7555
H     2.5132    -1.5085     1.1171
H     1.2851    -0.7871     2.1711
H     2.9752     1.2039    -0.5990
H     2.7391    -0.3431    -1.4284
22
Frame 35: 35
C    -0.8924    -1.3720     0.1482
C     1.2857     0.0531     0.1539
C    -1.0021     2.3482     0.9601
C     1.9887    -0.5735     1.3679
C     2.2190     0.5105    -0.9706
N     0.2009    -0.8450    -0.4438
N    -1.8829    -1.8668    -0.6020
O    -1.6194     1.8079    -0.1149
H    -2.0174     0.9062     0.0163
H     0.1718    -0.9381    -1.4586
H    -1.0279    -1.4081     1.2339
H     0.8833     0.8337     0.5423
H    -2.7163    -2.2200    -0.1514
H    -1.8209    -1.8810    -1.6147
H    -0.5199     3.3110     0.8633
H    -0.8648     1.6553     1.8459
H     2.7284     0.1258     1.7658
H     1.6519     1.0180    -1.7552
H     2.5108    -1.5025     1.1172
H     1.2817    -0.7836     2.1721
H     2.9708     1.2081    -0.5964
H     2.7371    -0.3399    -1.4246
22
Frame 36: 36
C    -0.8930    -1.3727     0.1482
C     1.2808     0.0567     0.1546
C    -0.9868     2.3343     0.9555
C     1.9850    -0.5686     1.3690
C     2.2158     0.5140    -0.9689
N     0.2006    -0.8454    -0.4436
N    -1.8833    -1.8669    -0.6023
O    -1.6195     1.8086    -0.1142
H    -2.0188     0.9081     0.0159
H     0.1700    -0.9351    -1.4586
H    -1.0279    -1.4096     1.2338
H     0.8662     0.8443     0.5417
H    -2.7165    -2.2209    -0.1518
H    -1.8212    -1.8810    -1.6149
H    -0.5025     3.2963     0.8582
H    -0.8643     1.6564     1.8475
H     2.7235     0.1319     1.7665
H     1.6497     1.0204    -1.7549
H     2.5084    -1.4965     1.1173
H     1.2783    -0.7800     2.1731
H     2.9664     1.2124    -0.5939
H     2.7350    -0.3367    -1.4208
22
Frame 37: 37
C    -0.8935    -1.3735     0.1481
C     1.2759     0.0604     0.1553
C    -0.9715     2.3205     0.9510
C     1.9812    -0.5638     1.3700
C     2.2126     0.5175    -0.9673
N     0.2004    -0.8457    -0.4434
N    -1.8838    -1.8669    -0.6025
O    -1.6196     1.8093    -0.1135
H    -2.0202     0.9101     0.0156
H     0.1682    -0.9320    -1.4586
H    -1.0280    -1.4111     1.2336
H     0.8492     0.8548     0.5411
H    -2.7167    -2.2217    -0.1522
H    -1.8216    -1.8810    -1.6151
H    -0.4851     3.2817     0.8530
H    -0.8639     1.6574     1.8491
H     2.7186     0.1380     1.7673
H     1.6474     1.0228    -1.7545
H     2.5060    -1.4904     1.1174
H     1.2749    -0.7764     2.1741
H     2.9620     1.2166    -0.5913
H     2.7330    -0.3335    -1.4169
22
Frame 38: 38
C    -0.8941    -1.3742     0.1480
C     1.2710     0.0641     0.1560
C    -0.9562     2.3066     0.9465
C     1.9775    -0.5589     1.3711
C     2.2094     0.5211    -0.9656
N     0.2001    -0.8461    -0.4433
N    -1.8842    -1.8669    -0.6027
O    -1.6198     1.8100    -0.1128
H    -2.0216     0.9121     0.0153
H     0.1664    -0.9290    -1.4586
H    -1.0281    -1.4126     1.2335
H     0.8322     0.8654     0.5405
H    -2.7169    -2.2225    -0.1526
H    -1.8219    -1.8810    -1.6153
H    -0.4677     3.2671     0.8479
H    -0.8635     1.6584     1.8507
H     2.7138     0.1441     1.7681
H     1.6452     1.0252    -1.7542
H     2.5036    -1.4844     1.1175
H     1.2716    -0.7729     2.1750
H     2.9576     1.2208    -0.5888
H     2.7309    -0.3303    -1.4131
22
Frame 39: 39
C    -0.8947    -1.3749     0.1480
C     1.2661     0.0677     0.1567
C    -0.9409     2.2927     0.9420
C     1.9737    -0.5540     1.3722
C     2.2062     0.5246    -0.9640
N     0.1998    -0.8465    -0.4431
N    -1.8847    -1.8670    -0.6029
O    -1.6199     1.8107    -0.1121
H    -2.0230     0.9141     0.0150
H     0.1646    -0.9260    -1.4586
H    -1.0282    -1.4141     1.2333
H     0.8151     0.8760     0.5399
H    -2.7171    -2.2234    -0.1530
H    -1.8222    -1.8810    -1.6155
H    -0.4503     3.2524     0.8427
H    -0.8631     1.6595     1.8523
H     2.7089     0.1503     1.7689
H     1.6430     1.0277    -1.7539
H     2.5012    -1.4783     1.1176
H     1.2682    -0.7693     2.1760
H     2.9531     1.2251    -0.5862
H     2.7289    -0.3271    -1.4093
22
Frame 40: 40
C    -0.8953    -1.3756     0.1479
C     1.2612     0.0714     0.1573
C    -0.9256     2.2789     0.9375
C     1.9700    -0.5492     1.3733
C     2.2030     0.5281    -0.9623
N     0.1995    -0.8469    -0.4429
N    -1.8852    -1.8670    -0.6031
O    -1.6200     1.8113    -0.1114
H    -2.0243     0.9161     0.0147
H     0.1628    -0.9230    -1.4586
H    -1.0282    -1.4156     1.2331
H     0.7981     0.8865     0.5393
H    -2.7173    -2.2242    -0.1534
H    -1.8225    -1.8810    -1.6157
H    -0.4328     3.2378     0.8376
H    -0.8627     1.6605     1.8540
H     2.7040     0.1564     1.7697
H     1.6407     1.0301    -1.7535
H     2.4989    -1.4723     1.1177
H     1.2648    -0.7657     2.1770
H     2.9487     1.2293    -0.5836
H     2.7268    -0.3239    -1.4054
22
Frame 41: 41
C    -0.8959    -1.3763     0.1479
C     1.2563     0.0751     0.1580
C    -0.9103     2.2650     0.9330
C     1.9662    -0.5443     1.3743
C     2.1998     0.5316    -0.9606
N     0.1992    -0.8473    -0.4427
N    -1.8856    -1.8670    -0.6034
O    -1.6201     1.8120    -0.1107
H    -2.0257     0.9181     0.0144
H     0.1610    -0.9200    -1.4586
H    -1.0283    -1.4171     1.2330
H     0.7811     0.8971     0.5386
H    -2.7175    -2.2250    -0.1538
H    -1.8229    -1.8810    -1.6159
H    -0.4154     3.2232     0.8324
H    -0.8623     1.6615     1.8556
H     2.6991     0.1625     1.7704
H     1.6385     1.0325    -1.7532
H     2.4965    -1.4663     1.1178
H     1.2614    -0.7622     2.1780
H     2.9443     1.2335    -0.5811
H     2.7248    -0.3207    -1.4016
22
Frame 42: 42
C    -0.8965    -1.3770     0.1478
C     1.2514     0.0787     0.1587
C    -0.8949     2.2511     0.9285
C     1.9625    -0.5395     1.3754
C     2.1966     0.5352    -0.9590
N     0.1989    -0.8477    -0.4426
N    -1.8861    -1.8671    -0.6036
O    -1.6202     1.8127    -0.1100
H    -2.0271     0.9200     0.0141
H     0.1592    -0.9170    -1.4586
H    -1.0284    -1.4186     1.2328
H     0.7641     0.9077     0.5380
H    -2.7177    -2.2259    -0.1542
H    -1.8232    -1.8809    -1.6161
H    -0.3980     3.2085     0.8273
H    -0.8618     1.6626     1.8572
H     2.6942     0.1686     1.7712
H     1.6363     1.0349    -1.7529
H     2.4941    -1.4602     1.1179
H     1.2581    -0.7586     2.1789
H     2.9399     1.2378    -0.5785
H     2.7227    -0.3175    -1.3978
22
Frame 43: 43
C    -0.8970    -1.3778     0.1478
C     1.2465     0.0824     0.1594
C    -0.8796     2.2373     0.9240
C     1.9587    -0.5346     1.3765
C     2.1935     0.5387    -0.9573
N     0.1986    -0.8481    -0.4424
N    -1.8865    -1.8671    -0.6038
O    -1.6203     1.8134    -0.1093
H    -2.0285     0.9220     0.0138
H     0.1574    -0.9140    -1.4586
H    -1.0284    -1.4201     1.2327
H     0.7470     0.9182     0.5374
H    -2.7179    -2.2267    -0.1546
H    -1.8235    -1.8809    -1.6163
H    -0.3806     3.1939     0.8221
H    -0.8614     1.6636     1.8588
H     2.6894     0.1747     1.7720
H     1.6340     1.0373    -1.7525
H     2.4917    -1.4542     1.1179
H     1.2547    -0.7550     2.1799
H     2.9355     1.2420    -0.5759
H     2.7206    -0.3143    -1.3939
22
Frame 44: 44
C    -0.8976    -1.3785     0.1477
C     1.2416     0.0860     0.1600
C    -0.8643     2.2234     0.9195
C     1.9550    -0.5297     1.3775
C     2.1903     0.5422    -0.9557
N     0.1983    -0.8485    -0.4422
N    -1.8870    -1.8671    -0.6040
O    -1.6204     1.8141    -0.1085
H    -2.0299     0.9240     0.0135
H     0.1556    -0.9110    -1.4586
H    -1.0285    -1.4216     1.2325
H     0.7300     0.9288     0.5368
H    -2.7181    -2.2275    -0.1550
H    -1.8238    -1.8809    -1.6165
H    -0.3632     3.1793     0.8170
H    -0.8610     1.6647     1.8604
H     2.6845     0.1808     1.7728
H     1.6318     1.0398    -1.7522
H     2.4893    -1.4482     1.1180
H     1.2513    -0.7515     2.1809
H     2.9311     1.2463    -0.5734
H     2.7186    -0.3111    -1.3901
22
Frame 45: 45
C    -0.8982    -1.3792     0.1476
C     1.2367     0.0897     0.1607
C    -0.8490     2.2096     0.9150
C     1.9512    -0.5249     1.3786
C     2.1871     0.5457    -0.9540
N     0.1980    -0.8489    -0.4420
N    -1.8874    -1.8672    -0.6043
O    -1.6205     1.8148    -0.1078
H    -2.0312     0.9260     0.0132
H     0.1537    -0.9080    -1.4586
H    -1.0286    -1.4231     1.2324
H     0.7130     0.9394     0.5362
H    -2.7184    -2.2284    -0.1554
H    -1.8242    -1.8809    -1.6167
H    -0.3458     3.1646     0.8118
H    -0.8606     1.6657     1.8621
H     2.6796     0.1869     1.7735
H     1.6296     1.0422    -1.7519
H     2.4869    -1.4421     1.1181
H     1.2479    -0.7479     2.1819
H     2.9267     1.2505    -0.5708
H     2.7165    -0.3078    -1.3863
22
Frame 46: 46
C    -0.8988    -1.3799     0.1476
C     1.2318     0.0934     0.1614
C    -0.8337     2.1957     0.9104
C     1.9475    -0.5200     1.3797
C     2.1839     0.5493    -0.9524
N     0.1977    -0.8493    -0.4419
N    -1.8879    -1.8672    -0.6045
O    -1.6206     1.8155    -0.1071
H    -2.0326     0.9280     0.0128
H     0.1519    -0.9050    -1.4587
H    -1.0286    -1.4246     1.2322
H     0.6959     0.9500     0.5356
H    -2.7186    -2.2292    -0.1558
H    -1.8245    -1.8809    -1.6169
H    -0.3284     3.1500     0.8067
H    -0.8602     1.6667     1.8637
H     2.6747     0.1930     1.7743
H     1.6274     1.0446    -1.7516
H     2.4845    -1.4361     1.1182
H     1.2446    -0.7443     2.1828
H     2.9223     1.2547    -0.5682
H     2.7145    -0.3046    -1.3825
22
Frame 47: 47
C    -0.8994    -1.3806     0.1475
C     1.2269     0.0970     0.1621
C    -0.8184     2.1818     0.9059
C     1.9437    -0.5151     1.3807
C     2.1807     0.5528    -0.9507
N     0.1975    -0.8497    -0.4417
N    -1.8884    -1.8673    -0.6047
O    -1.6207     1.8162    -0.1064
H    -2.0340     0.9300     0.0125
H     0.1501    -0.9019    -1.4587
H    -1.0287    -1.4261     1.2320
H     0.6789     0.9605     0.5350
H    -2.7188    -2.2301    -0.1562
H    -1.8248    -1.8809    -1.6171
H    -0.3110     3.1353     0.8015
H    -0.8598     1.6678     1.8653
H     2.6698     0.1992     1.7751
H     1.6251     1.0470    -1.7512
H     2.4821    -1.4300     1.1183
H     1.2412    -0.7408     2.1838
H     2.9179     1.2590    -0.5657
H     2.7124    -0.3014    -1.3786
22
Frame 48: 48
C    -0.9000    -1.3813     0.1475
C     1.2220     0.1007     0.1628
C    -0.8030     2.1680     0.9014
C     1.9400    -0.5103     1.3818
C     2.1775     0.5563    -0.9491
N     0.1972    -0.8501    -0.4415
N    -1.8888    -1.8673    -0.6049
O    -1.6208     1.8168    -0.1057
H    -2.0354     0.9319     0.0122
H     0.1483    -0.8989    -1.4587
H    -1.0288    -1.4276     1.2319
H     0.6619     0.9711     0.5343
H    -2.7190    -2.2309    -0.1566
H    -1.8251    -1.8808    -1.6173
H    -0.2935     3.1207     0.7964
H    -0.8593     1.6688     1.8669
H     2.6649     0.2053     1.7759
H     1.6229     1.0494    -1.7509
H     2.4797    -1.4240     1.1184
H     1.2378    -0.7372     2.1848
H     2.9135     1.2632    -0.5631
H     2.7104    -0.2982    -1.3748
22
Frame 49: 49
C    -0.9005    -1.3821     0.1474
C     1.2171     0.1044     0.1634
C    -0.7877     2.1541     0.8969
C     1.9362    -0.5054     1.3829
C     2.1743     0.5598    -0.9474
N     0.1969    -0.8505    -0.4413
N    -1.8893    -1.8673    -0.6052
O    -1.6209     1.8175    -0.1050
H    -2.0367     0.9339     0.0119
H     0.1465    -0.8959    -1.4587
H    -1.0289    -1.4291     1.2317
H     0.6449     0.9817     0.5337
H    -2.7192    -2.2317    -0.1570
H    -1.8255    -1.8808    -1.6175
H    -0.2761     3.1061     0.7912
H    -0.8589     1.6698     1.8686
H     2.6601     0.2114     1.7766
H     1.6207     1.0519    -1.7506
H     2.4773    -1.4180     1.1185
H     1.2344    -0.7336     2.1858
H     2.9091     1.2674    -0.5605
H     2.7083    -0.2950    -1.3710
22
Frame 50: 50
C    -0.9011    -1.3828     0.1474
C     1.2122     0.1080     0.1641
C    -0.7724     2.1403     0.8924
C     1.9325    -0.5006     1.3839
C     2.1711     0.5634    -0.9458
N     0.1966    -0.8509    -0.4412
N    -1.8897    -1.8674    -0.6054
O    -1.6210     1.8182    -0.1043
H    -2.0381     0.9359     0.0116
H     0.1447    -0.8929    -1.4587
H    -1.0289    -1.4306     1.2316
H     0.6278     0.9922     0.5331
H    -2.7194    -2.2326    -0.1574
H    -1.8258    -1.8808    -1.6177
H    -0.2587     3.0914     0.7861
H    -0.8585     1.6709     1.8702
H     2.6552     0.2175     1.7774
H     1.6184     1.0543    -1.7502
H     2.4749    -1.4119     1.1186
H     1.2311    -0.7301     2.1867
H     2.9047     1.2717    -0.5580
H     2.7063    -0.2918    -1.3671
22
Frame 51: 51
C    -0.9017    -1.3835     0.1473
C     1.2073     0.1117     0.1648
C    -0.7571     2.1264     0.8879
C     1.9287    -0.4957     1.3850
C     2.1679     0.5669    -0.9441
N     0.1963    -0.8513    -0.4410
N    -1.8902    -1.8674    -0.6056
O    -1.6211     1.8189    -0.1036
H    -2.0395     0.9379     0.0113
H     0.1429    -0.8899    -1.4587
H    -1.0290    -1.4321     1.2314
H     0.6108     1.0028     0.5325
H    -2.7196    -2.2334    -0.1578
H    -1.8261    -1.8808    -1.6179
H    -0.2413     3.0768     0.7809
H    -0.8581     1.6719     1.8718
H     2.6503     0.2236     1.7782
H     1.6162     1.0567    -1.7499
H     2.4725    -1.4059     1.1187
H     1.2277    -0.7265     2.1877
H     2.9003     1.2759    -0.5554
H     2.7042    -0.2886    -1.3633
