22
Frame 1: 1
C   -0.8675   -1.1212   0.1451
C   1.2063   0.0888   0.0375
C   -0.8012   1.8039   0.7777
C   1.9270   -0.5238   1.2299
C   2.1735   0.5194   -1.0520
N   0.2436   -0.9006   -0.5570
N   -2.0080   -1.5937   -0.4191
O   -1.6073   1.4743   -0.2757
H   -1.9698   0.5875   -0.1411
H   0.0290   -0.6370   -1.5287
H   -0.8978   -0.8021   1.1842
H   0.5985   0.9809   0.3930
H   -2.6675   -1.9721   0.2647
H   -1.8829   -2.2545   -1.1927
H   -0.4288   2.8210   0.7145
H   -1.0181   1.4392   1.7832
H   2.6046   0.2089   1.6809
H   1.6503   1.0084   -1.8818
H   2.5096   -1.3982   0.9217
H   1.2101   -0.8363   1.9937
H   2.9111   1.2261   -0.6587
H   2.7050   -0.3554   -1.4408
22
Frame 2: 2
C   -0.8682   -1.1728   0.1608
C   1.2086   0.0881   0.0379
C   -0.7946   1.8368   0.7683
C   1.9318   -0.5220   1.2388
C   2.1753   0.5263   -1.0562
N   0.2292   -0.8850   -0.5532
N   -1.9986   -1.6379   -0.4239
O   -1.6097   1.5300   -0.2742
H   -2.0402   0.6665   -0.1455
H   0.0107   -0.6571   -1.5275
H   -0.8860   -0.9047   1.2147
H   0.5899   0.9921   0.3995
H   -2.6857   -1.9874   0.2435
H   -1.8767   -2.2687   -1.2196
H   -0.3941   2.8430   0.7197
H   -0.9864   1.4299   1.7644
H   2.6117   0.2116   1.6809
H   1.6449   1.0103   -1.8823
H   2.5152   -1.3968   0.9348
H   1.2223   -0.8298   2.0104
H   2.9094   1.2346   -0.6635
H   2.7109   -0.3436   -1.4493
22
Frame 3: 3
C   -0.8771   -1.2094   0.1905
C   1.2117   0.0869   0.0477
C   -0.8011   1.8818   0.7442
C   1.9419   -0.5127   1.2554
C   2.1723   0.5164   -1.0615
N   0.2154   -0.8862   -0.5240
N   -2.0001   -1.6679   -0.4121
O   -1.6144   1.5942   -0.2941
H   -2.0213   0.7071   -0.2162
H   -0.0018   -0.7007   -1.5046
H   -0.8932   -0.9939   1.2590
H   0.5965   0.9985   0.3989
H   -2.7142   -1.9987   0.2326
H   -1.8833   -2.2649   -1.2332
H   -0.3680   2.8747   0.7051
H   -0.9851   1.4482   1.7311
H   2.6255   0.2247   1.6834
H   1.6332   0.9938   -1.8847
H   2.5255   -1.3891   0.9574
H   1.2427   -0.8130   2.0387
H   2.9085   1.2275   -0.6799
H   2.7061   -0.3538   -1.4552
22
Frame 4: 4
C   -0.8850   -1.2471   0.2131
C   1.2168   0.0906   0.0542
C   -0.7910   1.9095   0.7345
C   1.9510   -0.4950   1.2678
C   2.1665   0.5093   -1.0696
N   0.2039   -0.8860   -0.4973
N   -1.9955   -1.7021   -0.4058
O   -1.6081   1.6224   -0.3007
H   -2.0306   0.7425   -0.2198
H   -0.0130   -0.7336   -1.4822
H   -0.9135   -1.0959   1.2963
H   0.6019   1.0100   0.3985
H   -2.7271   -2.0537   0.2057
H   -1.8922   -2.2078   -1.2930
H   -0.3402   2.8943   0.6889
H   -0.9726   1.4747   1.7202
H   2.6427   0.2450   1.6774
H   1.6184   0.9808   -1.8895
H   2.5277   -1.3793   0.9811
H   1.2575   -0.7760   2.0624
H   2.9054   1.2234   -0.7004
H   2.6970   -0.3625   -1.4632
22
Frame 5: 5
C   -0.8857   -1.2878   0.2067
C   1.2187   0.0932   0.0592
C   -0.7815   1.9262   0.7452
C   1.9645   -0.4857   1.2691
C   2.1583   0.5189   -1.0707
N   0.2048   -0.8933   -0.4874
N   -1.9812   -1.7273   -0.4360
O   -1.6244   1.6117   -0.2642
H   -2.0629   0.7444   -0.1375
H   -0.0112   -0.7509   -1.4742
H   -0.9447   -1.1903   1.2973
H   0.5970   1.0103   0.4054
H   -2.7465   -2.0548   0.1466
H   -1.8835   -2.1846   -1.3479
H   -0.3202   2.9044   0.6554
H   -0.9484   1.5270   1.7487
H   2.6587   0.2574   1.6682
H   1.6026   0.9899   -1.8854
H   2.5391   -1.3711   0.9827
H   1.2793   -0.7615   2.0719
H   2.8954   1.2358   -0.7044
H   2.6914   -0.3486   -1.4702
22
Frame 6: 6
C   -0.8774   -1.3156   0.1856
C   1.2215   0.0941   0.0582
C   -0.7835   1.9122   0.7705
C   1.9732   -0.4780   1.2683
C   2.1555   0.5389   -1.0699
N   0.2182   -0.9037   -0.4953
N   -1.9704   -1.7281   -0.4757
O   -1.6616   1.5800   -0.2042
H   -2.0992   0.7174   -0.0456
H   0.0093   -0.7654   -1.4845
H   -0.9457   -1.2412   1.2762
H   0.5867   1.0040   0.4090
H   -2.7695   -2.0105   0.0849
H   -1.8791   -2.1630   -1.3965
H   -0.3262   2.8891   0.6485
H   -0.9147   1.5258   1.7845
H   2.6650   0.2697   1.6623
H   1.5924   1.0107   -1.8790
H   2.5512   -1.3618   0.9846
H   1.2916   -0.7530   2.0743
H   2.8852   1.2610   -0.6995
H   2.6970   -0.3193   -1.4780
22
Frame 7: 7
C   -0.8856   -1.3305   0.1631
C   1.2175   0.0909   0.0618
C   -0.7598   1.9123   0.8068
C   1.9717   -0.4991   1.2620
C   2.1455   0.5598   -1.0618
N   0.2106   -0.8947   -0.5064
N   -1.9589   -1.7623   -0.5081
O   -1.6514   1.6060   -0.1683
H   -2.1134   0.7600   0.0002
H   0.0080   -0.7543   -1.4963
H   -0.9657   -1.2727   1.2527
H   0.5832   0.9992   0.4336
H   -2.7679   -2.0567   0.0289
H   -1.8724   -2.1083   -1.4681
H   -0.2894   2.8846   0.6966
H   -0.8948   1.5139   1.8150
H   2.6664   0.2426   1.6621
H   1.5764   1.0447   -1.8589
H   2.5468   -1.3810   0.9672
H   1.2912   -0.7803   2.0666
H   2.8737   1.2779   -0.6812
H   2.6881   -0.2884   -1.4892
22
Frame 8: 8
C   -0.8750   -1.3540   0.1365
C   1.2182   0.0922   0.0608
C   -0.7667   1.9009   0.8307
C   1.9751   -0.4965   1.2606
C   2.1447   0.5810   -1.0563
N   0.2240   -0.9016   -0.5197
N   -1.9519   -1.7539   -0.5491
O   -1.6859   1.5669   -0.1105
H   -2.1466   0.7284   0.0974
H   0.0315   -0.7621   -1.5121
H   -0.9545   -1.3254   1.2268
H   0.5735   0.9915   0.4384
H   -2.7757   -2.0305   -0.0263
H   -1.8704   -2.0710   -1.5176
H   -0.3044   2.8728   0.6846
H   -0.8664   1.5201   1.8503
H   2.6658   0.2484   1.6616
H   1.5722   1.0676   -1.8498
H   2.5552   -1.3750   0.9653
H   1.2961   -0.7817   2.0650
H   2.8645   1.3030   -0.6676
H   2.6965   -0.2576   -1.4906
22
Frame 9: 9
C   -0.8796   -1.3861   0.1345
C   1.2073   0.0885   0.0665
C   -0.7380   1.9430   0.8183
C   1.9637   -0.4967   1.2684
C   2.1313   0.5818   -1.0514
N   0.2129   -0.9029   -0.5152
N   -1.9358   -1.8190   -0.5564
O   -1.6761   1.5931   -0.1039
H   -2.1483   0.7735   0.1475
H   0.0235   -0.7688   -1.5087
H   -0.9620   -1.3840   1.2233
H   0.5660   0.9932   0.4457
H   -2.7614   -2.1154   -0.0500
H   -1.8636   -2.0441   -1.5521
H   -0.2618   2.9035   0.6421
H   -0.8289   1.5846   1.8458
H   2.6579   0.2485   1.6626
H   1.5548   1.0699   -1.8411
H   2.5402   -1.3796   0.9799
H   1.2837   -0.7708   2.0757
H   2.8499   1.3048   -0.6625
H   2.6839   -0.2534   -1.4907
22
Frame 10: 10
C   -0.8619   -1.4233   0.1353
C   1.2070   0.0825   0.0751
C   -0.7386   1.9513   0.7822
C   1.9621   -0.4966   1.2794
C   2.1311   0.5873   -1.0380
N   0.2212   -0.9143   -0.5139
N   -1.9366   -1.8101   -0.5558
O   -1.6856   1.5598   -0.1164
H   -2.1585   0.7552   0.1808
H   0.0070   -0.7311   -1.4964
H   -0.9184   -1.4886   1.2266
H   0.5571   0.9844   0.4481
H   -2.7593   -2.1139   -0.0500
H   -1.8904   -1.9772   -1.5643
H   -0.2588   2.9002   0.5547
H   -0.8230   1.6441   1.8277
H   2.6570   0.2505   1.6688
H   1.5539   1.0787   -1.8250
H   2.5382   -1.3815   0.9965
H   1.2823   -0.7635   2.0893
H   2.8453   1.3114   -0.6434
H   2.6886   -0.2418   -1.4828
22
Frame 11: 11
C   -0.8854   -1.3986   0.1190
C   1.2016   0.0838   0.0720
C   -0.7167   1.9639   0.8183
C   1.9595   -0.5153   1.2655
C   2.1226   0.5952   -1.0403
N   0.2050   -0.8976   -0.5232
N   -1.9315   -1.8422   -0.5837
O   -1.6777   1.5798   -0.0694
H   -2.1485   0.7754   0.2295
H   0.0032   -0.7263   -1.5104
H   -0.9729   -1.4103   1.2106
H   0.5614   0.9858   0.4631
H   -2.7515   -2.1654   -0.0845
H   -1.8563   -2.0447   -1.5848
H   -0.2314   2.9084   0.5834
H   -0.7926   1.6610   1.8658
H   2.6587   0.2240   1.6624
H   1.5434   1.0958   -1.8200
H   2.5311   -1.3986   0.9686
H   1.2814   -0.7907   2.0739
H   2.8417   1.3126   -0.6421
H   2.6746   -0.2322   -1.4952
22
Frame 12: 12
C   -0.8618   -1.4214   0.1023
C   1.2068   0.0852   0.0760
C   -0.7433   1.9347   0.8093
C   1.9620   -0.5018   1.2768
C   2.1297   0.6157   -1.0259
N   0.2320   -0.9126   -0.5306
N   -1.9199   -1.8220   -0.6087
O   -1.7143   1.5200   -0.0536
H   -2.1794   0.7251   0.2772
H   0.0274   -0.7239   -1.5139
H   -0.9422   -1.4704   1.1931
H   0.5470   0.9769   0.4606
H   -2.7561   -2.1154   -0.1184
H   -1.8564   -1.9918   -1.6149
H   -0.2759   2.8813   0.5491
H   -0.7933   1.6458   1.8614
H   2.6500   0.2462   1.6768
H   1.5493   1.1114   -1.8079
H   2.5452   -1.3799   0.9870
H   1.2806   -0.7816   2.0810
H   2.8336   1.3428   -0.6180
H   2.6987   -0.2006   -1.4801
22
Frame 13: 13
C   -0.8848   -1.4169   0.0957
C   1.1966   0.0793   0.0749
C   -0.6984   1.9622   0.8322
C   1.9478   -0.5269   1.2685
C   2.1203   0.6077   -1.0268
N   0.2036   -0.8953   -0.5349
N   -1.9260   -1.8503   -0.6185
O   -1.6871   1.5980   -0.0369
H   -2.1497   0.7913   0.2655
H   0.0024   -0.7083   -1.5182
H   -0.9670   -1.4712   1.1849
H   0.5524   0.9813   0.4724
H   -2.7512   -2.1803   -0.1321
H   -1.8614   -1.9891   -1.6271
H   -0.2082   2.9032   0.5949
H   -0.7545   1.6523   1.8771
H   2.6470   0.2095   1.6709
H   1.5417   1.1157   -1.8022
H   2.5188   -1.4105   0.9714
H   1.2654   -0.8022   2.0732
H   2.8336   1.3243   -0.6163
H   2.6785   -0.2108   -1.4900
22
Frame 14: 14
C   -0.9043   -1.3995   0.0688
C   1.1927   0.0791   0.0717
C   -0.6800   1.9607   0.8848
C   1.9467   -0.5517   1.2519
C   2.1130   0.6217   -1.0260
N   0.1913   -0.8794   -0.5487
N   -1.9289   -1.8489   -0.6590
O   -1.6875   1.6107   0.0342
H   -2.1268   0.7837   0.3171
H   0.0124   -0.7148   -1.5404
H   -1.0075   -1.4358   1.1563
H   0.5566   0.9776   0.4917
H   -2.7577   -2.1881   -0.1855
H   -1.8500   -1.9790   -1.6666
H   -0.1934   2.9035   0.6486
H   -0.7131   1.6378   1.9267
H   2.6487   0.1756   1.6659
H   1.5317   1.1439   -1.7900
H   2.5144   -1.4313   0.9369
H   1.2650   -0.8404   2.0526
H   2.8305   1.3292   -0.6075
H   2.6658   -0.1914   -1.5049
22
Frame 15: 15
C   -0.9003   -1.4213   0.0897
C   1.1859   0.0803   0.0767
C   -0.6663   1.9816   0.8523
C   1.9352   -0.5425   1.2628
C   2.1083   0.6097   -1.0253
N   0.1770   -0.8721   -0.5353
N   -1.9225   -1.8830   -0.6296
O   -1.6658   1.6580   -0.0185
H   -2.1085   0.8249   0.2385
H   -0.0192   -0.6901   -1.5203
H   -0.9864   -1.4836   1.1770
H   0.5537   0.9903   0.4873
H   -2.7282   -2.2688   -0.1507
H   -1.8637   -1.9675   -1.6423
H   -0.1635   2.9206   0.6371
H   -0.7255   1.6513   1.8899
H   2.6433   0.1844   1.6669
H   1.5297   1.1289   -1.7932
H   2.4967   -1.4297   0.9582
H   1.2531   -0.8156   2.0686
H   2.8297   1.3167   -0.6127
H   2.6569   -0.2093   -1.4986
22
Frame 16: 16
C   -0.9205   -1.3971   0.0773
C   1.1830   0.0792   0.0715
C   -0.6567   1.9787   0.8999
C   1.9441   -0.5526   1.2476
C   2.0940   0.6196   -1.0347
N   0.1723   -0.8731   -0.5382
N   -1.9249   -1.8827   -0.6514
O   -1.6694   1.6736   0.0406
H   -2.0894   0.8187   0.2637
H   0.0275   -0.7762   -1.5491
H   -1.0367   -1.4096   1.1637
H   0.5546   0.9815   0.5032
H   -2.7409   -2.2565   -0.1819
H   -1.8522   -1.9699   -1.6616
H   -0.1503   2.9161   0.6883
H   -0.7033   1.6374   1.9345
H   2.6501   0.1742   1.6552
H   1.5058   1.1408   -1.7938
H   2.5085   -1.4335   0.9306
H   1.2672   -0.8384   2.0533
H   2.8151   1.3273   -0.6233
H   2.6419   -0.1943   -1.5171
22
Frame 17: 17
C   -0.9291   -1.3972   0.0610
C   1.1798   0.0720   0.0634
C   -0.6284   1.9705   0.9513
C   1.9489   -0.5781   1.2246
C   2.0814   0.6274   -1.0428
N   0.1617   -0.8679   -0.5515
N   -1.9453   -1.8549   -0.6697
O   -1.6602   1.7096   0.0968
H   -2.0751   0.8443   0.2872
H   0.0265   -0.7822   -1.5635
H   -1.0335   -1.4367   1.1478
H   0.5580   0.9713   0.5170
H   -2.7608   -2.2307   -0.2018
H   -1.8856   -1.9122   -1.6828
H   -0.1123   2.9078   0.7632
H   -0.6688   1.6004   1.9764
H   2.6610   0.1409   1.6355
H   1.4865   1.1608   -1.7881
H   2.5071   -1.4571   0.8914
H   1.2777   -0.8716   2.0323
H   2.8072   1.3279   -0.6272
H   2.6234   -0.1801   -1.5424
22
Frame 18: 18
C   -0.9317   -1.3984   0.0397
C   1.1767   0.0713   0.0551
C   -0.6157   1.9540   1.0082
C   1.9584   -0.5962   1.1989
C   2.0657   0.6505   -1.0490
N   0.1575   -0.8616   -0.5674
N   -1.9522   -1.8399   -0.6944
O   -1.6653   1.7246   0.1650
H   -2.0722   0.8501   0.3284
H   0.0366   -0.7941   -1.5818
H   -1.0304   -1.4572   1.1259
H   0.5563   0.9597   0.5332
H   -2.7678   -2.2194   -0.2302
H   -1.9001   -1.8712   -1.7088
H   -0.0965   2.8928   0.8369
H   -0.6421   1.5578   2.0240
H   2.6710   0.1185   1.6161
H   1.4609   1.1932   -1.7799
H   2.5171   -1.4674   0.8459
H   1.2949   -0.9062   2.0068
H   2.7908   1.3483   -0.6276
H   2.6079   -0.1453   -1.5670
22
Frame 19: 19
C   -0.9360   -1.3913   0.0173
C   1.1759   0.0710   0.0509
C   -0.6081   1.9344   1.0579
C   1.9704   -0.6222   1.1714
C   2.0524   0.6797   -1.0477
N   0.1530   -0.8488   -0.5838
N   -1.9567   -1.8244   -0.7215
O   -1.6679   1.7187   0.2247
H   -2.0784   0.8453   0.3825
H   0.0414   -0.7871   -1.5986
H   -1.0347   -1.4594   1.1024
H   0.5580   0.9445   0.5578
H   -2.7720   -2.2097   -0.2620
H   -1.9067   -1.8377   -1.7361
H   -0.0855   2.8716   0.8899
H   -0.6234   1.5264   2.0690
H   2.6855   0.0841   1.5989
H   1.4385   1.2346   -1.7616
H   2.5275   -1.4836   0.7923
H   1.3151   -0.9531   1.9781
H   2.7765   1.3726   -0.6167
H   2.5950   -0.1016   -1.5872
22
Frame 20: 20
C   -0.9553   -1.4067   0.0360
C   1.1432   0.0782   0.0591
C   -0.6332   1.9504   1.0511
C   1.9347   -0.5971   1.1914
C   2.0215   0.6775   -1.0425
N   0.1268   -0.8530   -0.5689
N   -1.9853   -1.8246   -0.6975
O   -1.6913   1.7617   0.2062
H   -2.0968   0.8812   0.3349
H   0.0039   -0.7793   -1.5810
H   -1.0378   -1.5038   1.1205
H   0.5206   0.9596   0.5524
H   -2.7970   -2.2127   -0.2347
H   -1.9509   -1.8149   -1.7127
H   -0.1046   2.8889   0.9090
H   -0.6640   1.5251   2.0545
H   2.6471   0.1165   1.6110
H   1.4084   1.2248   -1.7628
H   2.4945   -1.4627   0.8264
H   1.2777   -0.9174   2.0007
H   2.7435   1.3756   -0.6164
H   2.5665   -0.1077   -1.5736
22
Frame 21: 21
C   -0.9712   -1.3797   0.0209
C   1.1438   0.0777   0.0585
C   -0.6265   1.9348   1.0928
C   1.9512   -0.6274   1.1632
C   2.0070   0.7040   -1.0404
N   0.1165   -0.8346   -0.5777
N   -1.9882   -1.8182   -0.7192
O   -1.6854   1.7479   0.2515
H   -2.0986   0.8718   0.3815
H   0.0189   -0.7950   -1.5942
H   -1.0725   -1.4441   1.1058
H   0.5282   0.9417   0.5852
H   -2.8055   -2.1999   -0.2612
H   -1.9440   -1.8132   -1.7334
H   -0.0906   2.8677   0.9436
H   -0.6539   1.5117   2.0969
H   2.6702   0.0748   1.5909
H   1.3834   1.2615   -1.7436
H   2.5050   -1.4842   0.7688
H   1.3048   -0.9676   1.9732
H   2.7293   1.3977   -0.6077
H   2.5509   -0.0677   -1.5922
22
Frame 22: 22
C   -0.9690   -1.4116   -0.0078
C   1.1300   0.0633   0.0225
C   -0.6033   1.9179   1.0442
C   1.9280   -0.6155   1.1459
C   1.9938   0.6923   -1.0705
N   0.1169   -0.8619   -0.6100
N   -1.9982   -1.8260   -0.7435
O   -1.6844   1.7669   0.2129
H   -2.0942   0.8885   0.3280
H   -0.0006   -0.7907   -1.6232
H   -1.0543   -1.5051   1.0766
H   0.4979   0.9453   0.5402
H   -2.8133   -2.2089   -0.2828
H   -1.9673   -1.8010   -1.7580
H   -0.0643   2.8511   0.9110
H   -0.6431   1.4974   2.0485
H   2.6366   0.0991   1.5706
H   1.3705   1.2415   -1.7806
H   2.4928   -1.4742   0.7714
H   1.2756   -0.9480   1.9541
H   2.7057   1.3953   -0.6350
H   2.5496   -0.0758   -1.6154
22
Frame 23: 23
C   -0.9484   -1.4512   0.0002
C   1.1286   0.0660   0.0273
C   -0.6215   1.9389   1.0362
C   1.9278   -0.6092   1.1530
C   1.9987   0.6841   -1.0702
N   0.1213   -0.8721   -0.6066
N   -2.0033   -1.8176   -0.7271
O   -1.6858   1.8096   0.1827
H   -2.1002   0.9284   0.2721
H   -0.0280   -0.7533   -1.6132
H   -0.9929   -1.6291   1.0821
H   0.5006   0.9429   0.5260
H   -2.8054   -2.2226   -0.2621
H   -1.9972   -1.7545   -1.7416
H   -0.0669   2.8673   0.9284
H   -0.6722   1.4834   2.0253
H   2.6399   0.1056   1.5714
H   1.3795   1.2328   -1.7842
H   2.4892   -1.4717   0.7825
H   1.2764   -0.9337   1.9651
H   2.7136   1.3860   -0.6380
H   2.5511   -0.0900   -1.6101
22
Frame 24: 24
C   -0.9639   -1.4297   0.0094
C   1.1321   0.0721   0.0278
C   -0.6133   1.9346   1.0263
C   1.9125   -0.6067   1.1621
C   2.0137   0.6640   -1.0729
N   0.0997   -0.8403   -0.5970
N   -2.0147   -1.8079   -0.7176
O   -1.6755   1.7746   0.1758
H   -2.0009   0.8450   0.2015
H   -0.0503   -0.7218   -1.6014
H   -1.0087   -1.6084   1.0882
H   0.5175   0.9749   0.5209
H   -2.8223   -2.1998   -0.2511
H   -2.0135   -1.7369   -1.7307
H   -0.0966   2.8871   0.9308
H   -0.6578   1.4840   2.0183
H   2.6325   0.1010   1.5788
H   1.4050   1.2168   -1.7926
H   2.4631   -1.4798   0.8014
H   1.2522   -0.9154   1.9732
H   2.7410   1.3569   -0.6467
H   2.5531   -0.1245   -1.6053
22
Frame 25: 25
C   -0.9504   -1.4376   -0.0116
C   1.1327   0.0841   0.0133
C   -0.6351   1.9313   1.0701
C   1.9120   -0.5883   1.1552
C   2.0225   0.6628   -1.0902
N   0.1116   -0.8446   -0.6150
N   -2.0009   -1.8155   -0.7379
O   -1.7124   1.7779   0.2443
H   -2.0626   0.8638   0.2844
H   -0.0252   -0.7484   -1.6225
H   -0.9923   -1.6210   1.0644
H   0.5185   0.9769   0.4947
H   -2.8023   -2.2220   -0.2737
H   -2.0127   -1.7106   -1.7474
H   -0.1356   2.8935   0.9880
H   -0.6321   1.4361   2.0433
H   2.6214   0.1267   1.5770
H   1.4173   1.2163   -1.8121
H   2.4727   -1.4567   0.8001
H   1.2473   -0.9017   1.9605
H   2.7566   1.3505   -0.6682
H   2.5540   -0.1337   -1.6177
22
Frame 26: 26
C   -0.9244   -1.4427   -0.0297
C   1.1493   0.0913   -0.0029
C   -0.6073   1.9314   1.0556
C   1.8976   -0.5591   1.1706
C   2.0627   0.6444   -1.0985
N   0.1355   -0.8414   -0.6323
N   -1.9807   -1.8047   -0.7547
O   -1.7004   1.7776   0.2480
H   -2.0572   0.8700   0.3045
H   -0.0256   -0.7010   -1.6318
H   -0.9588   -1.6451   1.0434
H   0.5305   1.0046   0.4499
H   -2.7744   -2.2298   -0.2938
H   -1.9991   -1.6850   -1.7618
H   -0.1268   2.9034   0.9829
H   -0.5824   1.4255   2.0209
H   2.5994   0.1625   1.5934
H   1.4753   1.1894   -1.8416
H   2.4622   -1.4381   0.8488
H   1.2110   -0.8493   1.9668
H   2.7943   1.3341   -0.6752
H   2.5975   -0.1652   -1.6026
22
Frame 27: 27
C   -0.9178   -1.4463   -0.0449
C   1.1500   0.0998   -0.0161
C   -0.6156   1.9333   1.0641
C   1.8782   -0.5397   1.1766
C   2.0900   0.6209   -1.1065
N   0.1401   -0.8390   -0.6472
N   -1.9836   -1.7880   -0.7660
O   -1.7371   1.7508   0.3040
H   -2.0796   0.8391   0.3852
H   -0.0376   -0.6667   -1.6384
H   -0.9416   -1.6729   1.0239
H   0.5312   1.0187   0.4089
H   -2.7722   -2.2234   -0.3060
H   -2.0091   -1.6563   -1.7715
H   -0.1602   2.9160   0.9686
H   -0.5321   1.4232   2.0257
H   2.5770   0.1840   1.6004
H   1.5272   1.1549   -1.8765
H   2.4438   -1.4245   0.8736
H   1.1801   -0.8180   1.9666
H   2.8204   1.3120   -0.6834
H   2.6271   -0.2055   -1.5808
22
Frame 28: 28
C   -0.9071   -1.4377   -0.0439
C   1.1568   0.1090   -0.0137
C   -0.6021   1.9404   1.0612
C   1.8904   -0.5313   1.1736
C   2.0885   0.6457   -1.1016
N   0.1505   -0.8299   -0.6469
N   -1.9739   -1.7777   -0.7636
O   -1.7242   1.7627   0.3007
H   -2.0752   0.8560   0.3902
H   -0.0297   -0.6530   -1.6357
H   -0.9291   -1.6656   1.0242
H   0.5324   1.0261   0.4207
H   -2.7604   -2.2170   -0.3038
H   -1.9995   -1.6475   -1.7692
H   -0.1416   2.9193   0.9608
H   -0.5309   1.4434   2.0288
H   2.5885   0.1931   1.5973
H   1.5184   1.1791   -1.8656
H   2.4574   -1.4131   0.8659
H   1.1960   -0.8144   1.9648
H   2.8134   1.3410   -0.6758
H   2.6319   -0.1719   -1.5828
22
Frame 29: 29
C   -0.8969   -1.4454   -0.0187
C   1.1608   0.0952   0.0133
C   -0.5504   1.9192   1.0657
C   1.8970   -0.5407   1.1958
C   2.0729   0.6723   -1.0650
N   0.1605   -0.8356   -0.6226
N   -1.9661   -1.7791   -0.7368
O   -1.6915   1.7614   0.3149
H   -2.0632   0.8674   0.4319
H   -0.0238   -0.6486   -1.6090
H   -0.9156   -1.6769   1.0484
H   0.5234   1.0229   0.4726
H   -2.7505   -2.2227   -0.2778
H   -1.9917   -1.6488   -1.7424
H   -0.0746   2.8884   0.9481
H   -0.5142   1.4678   2.0590
H   2.5877   0.1886   1.6237
H   1.4873   1.2209   -1.8072
H   2.4727   -1.4164   0.8857
H   1.2040   -0.8325   1.9852
H   2.7938   1.3653   -0.6279
H   2.6225   -0.1240   -1.5756
22
Frame 30: 30
C   -0.8960   -1.4420   -0.0253
C   1.1623   0.1094   0.0171
C   -0.5896   1.9430   1.0581
C   1.8804   -0.5141   1.2219
C   2.1092   0.6381   -1.0630
N   0.1719   -0.8459   -0.6234
N   -1.9655   -1.7660   -0.7486
O   -1.7258   1.7550   0.3231
H   -2.0855   0.8554   0.4480
H   -0.0078   -0.6585   -1.6103
H   -0.9236   -1.6736   1.0419
H   0.5350   1.0206   0.4256
H   -2.7557   -2.2028   -0.2926
H   -1.9827   -1.6438   -1.7555
H   -0.1159   2.9111   0.9261
H   -0.5026   1.4603   2.0344
H   2.5639   0.2210   1.6509
H   1.5495   1.1748   -1.8337
H   2.4600   -1.3943   0.9326
H   1.1741   -0.7946   2.0035
H   2.8340   1.3302   -0.6318
H   2.6541   -0.1841   -1.5379
22
Frame 31: 31
C   -0.8938   -1.4415   -0.0129
C   1.1655   0.1080   0.0220
C   -0.6007   1.9512   1.0436
C   1.8844   -0.5116   1.2280
C   2.1077   0.6374   -1.0593
N   0.1714   -0.8417   -0.6113
N   -1.9533   -1.7883   -0.7405
O   -1.7204   1.7613   0.2798
H   -2.0793   0.8609   0.3937
H   0.0012   -0.6746   -1.6039
H   -0.9276   -1.6571   1.0575
H   0.5314   1.0305   0.4368
H   -2.7439   -2.2243   -0.2848
H   -1.9658   -1.6739   -1.7483
H   -0.1360   2.9258   0.9249
H   -0.5394   1.4780   2.0237
H   2.5738   0.2216   1.6510
H   1.5445   1.1619   -1.8347
H   2.4590   -1.3956   0.9411
H   1.1801   -0.7860   2.0135
H   2.8254   1.3393   -0.6318
H   2.6596   -0.1825   -1.5267
22
Frame 32: 32
C   -0.9026   -1.4317   -0.0021
C   1.1681   0.1091   0.0211
C   -0.6082   1.9707   1.0436
C   1.8860   -0.5115   1.2297
C   2.1183   0.6128   -1.0687
N   0.1650   -0.8417   -0.6048
N   -1.9631   -1.7810   -0.7271
O   -1.7172   1.7762   0.2717
H   -2.0735   0.8726   0.3761
H   -0.0034   -0.6840   -1.5989
H   -0.9383   -1.6381   1.0701
H   0.5461   1.0319   0.4237
H   -2.7565   -2.2080   -0.2677
H   -1.9759   -1.6726   -1.7355
H   -0.1432   2.9461   0.9290
H   -0.5410   1.4830   2.0162
H   2.5831   0.2178   1.6465
H   1.5618   1.1308   -1.8531
H   2.4518   -1.4021   0.9457
H   1.1816   -0.7757   2.0186
H   2.8423   1.3137   -0.6507
H   2.6621   -0.2202   -1.5223
22
Frame 33: 33
C   -0.9107   -1.4344   -0.0061
C   1.1571   0.1060   0.0180
C   -0.6053   1.9624   1.0380
C   1.8769   -0.5144   1.2239
C   2.1005   0.6231   -1.0691
N   0.1557   -0.8418   -0.6090
N   -1.9713   -1.7834   -0.7306
O   -1.7207   1.7750   0.2695
H   -2.0787   0.8730   0.3759
H   -0.0138   -0.6818   -1.6026
H   -0.9448   -1.6422   1.0657
H   0.5299   1.0324   0.4303
H   -2.7639   -2.2120   -0.2713
H   -1.9853   -1.6729   -1.7388
H   -0.1385   2.9365   0.9220
H   -0.5481   1.4865   2.0171
H   2.5718   0.2163   1.6420
H   1.5387   1.1450   -1.8471
H   2.4455   -1.4026   0.9378
H   1.1737   -0.7822   2.0126
H   2.8223   1.3241   -0.6475
H   2.6471   -0.2030   -1.5316
22
Frame 34: 34
C   -0.9217   -1.4491   0.0171
C   1.1400   0.0823   0.0416
C   -0.5687   1.9333   1.0312
C   1.8598   -0.5295   1.2457
C   2.0642   0.6402   -1.0354
N   0.1459   -0.8567   -0.5868
N   -1.9834   -1.7934   -0.7068
O   -1.7048   1.7689   0.2707
H   -2.0857   0.8818   0.4062
H   -0.0255   -0.6898   -1.5792
H   -0.9543   -1.6573   1.0886
H   0.4966   1.0258   0.4792
H   -2.7751   -2.2243   -0.2483
H   -1.9959   -1.6848   -1.7152
H   -0.0860   2.8968   0.8977
H   -0.5547   1.5118   2.0389
H   2.5469   0.2073   1.6667
H   1.4873   1.1765   -1.7933
H   2.4376   -1.4126   0.9612
H   1.1565   -0.8032   2.0325
H   2.7808   1.3402   -0.6022
H   2.6190   -0.1650   -1.5263
22
Frame 35: 35
C   -0.9222   -1.4452   0.0179
C   1.1407   0.1023   0.0515
C   -0.6141   1.9626   1.0158
C   1.8466   -0.5006   1.2734
C   2.0989   0.6061   -1.0303
N   0.1531   -0.8627   -0.5794
N   -1.9806   -1.7897   -0.7123
O   -1.7324   1.7640   0.2552
H   -2.0962   0.8677   0.3894
H   -0.0119   -0.7011   -1.5734
H   -0.9657   -1.6485   1.0904
H   0.5127   1.0228   0.4359
H   -2.7777   -2.2139   -0.2566
H   -1.9844   -1.6911   -1.7219
H   -0.1302   2.9240   0.8741
H   -0.5602   1.5076   2.0072
H   2.5295   0.2399   1.6939
H   1.5477   1.1311   -1.8149
H   2.4252   -1.3881   1.0054
H   1.1328   -0.7637   2.0540
H   2.8236   1.3028   -0.6062
H   2.6436   -0.2272   -1.4853
22
Frame 36: 36
C   -0.9269   -1.4439   0.0321
C   1.1423   0.0843   0.0584
C   -0.5868   1.9626   0.9715
C   1.8350   -0.5038   1.2907
C   2.0930   0.6007   -1.0161
N   0.1511   -0.8650   -0.5651
N   -1.9739   -1.8086   -0.7040
O   -1.7025   1.7786   0.1893
H   -2.0761   0.8885   0.3232
H   -0.0008   -0.7236   -1.5649
H   -0.9804   -1.6264   1.1078
H   0.4984   1.0378   0.4551
H   -2.7754   -2.2261   -0.2501
H   -1.9689   -1.7206   -1.7146
H   -0.1050   2.9256   0.8337
H   -0.5843   1.5516   1.9830
H   2.5215   0.2370   1.7054
H   1.5370   1.1170   -1.8023
H   2.4095   -1.3987   1.0385
H   1.1153   -0.7516   2.0713
H   2.8069   1.3075   -0.5900
H   2.6498   -0.2239   -1.4695
22
Frame 37: 37
C   -0.9333   -1.4373   0.0399
C   1.1440   0.0837   0.0680
C   -0.6044   1.9899   0.9357
C   1.8179   -0.4855   1.3220
C   2.1181   0.5650   -1.0054
N   0.1587   -0.8799   -0.5521
N   -1.9726   -1.8076   -0.7044
O   -1.7077   1.7916   0.1453
H   -2.0835   0.9030   0.2873
H   0.0245   -0.7612   -1.5575
H   -1.0046   -1.5983   1.1183
H   0.5053   1.0376   0.4287
H   -2.7840   -2.2102   -0.2541
H   -1.9515   -1.7408   -1.7167
H   -0.1136   2.9469   0.7862
H   -0.5994   1.5790   1.9460
H   2.5011   0.2603   1.7329
H   1.5795   1.0659   -1.8138
H   2.3923   -1.3873   1.0943
H   1.0860   -0.7164   2.0965
H   2.8308   1.2764   -0.5853
H   2.6751   -0.2760   -1.4284
22
Frame 38: 38
C   -0.9168   -1.4123   0.0704
C   1.1610   0.1042   0.0964
C   -0.5775   2.0080   0.9635
C   1.8390   -0.4680   1.3456
C   2.1265   0.5982   -0.9773
N   0.1732   -0.8523   -0.5229
N   -1.9552   -1.7862   -0.6731
O   -1.6794   1.8182   0.1650
H   -2.0619   0.9328   0.3068
H   0.0393   -0.7357   -1.5285
H   -0.9871   -1.5712   1.1490
H   0.5198   1.0633   0.4698
H   -2.7656   -2.1900   -0.2222
H   -1.9347   -1.7194   -1.6852
H   -0.0837   2.9639   0.8180
H   -0.5899   1.6072   1.9778
H   2.5239   0.2764   1.7565
H   1.5812   1.1034   -1.7785
H   2.4126   -1.3690   1.1133
H   1.1099   -0.7013   2.1221
H   2.8388   1.3092   -0.5555
H   2.6846   -0.2369   -1.4104
22
Frame 39: 39
C   -0.9125   -1.4120   0.0676
C   1.1641   0.1131   0.0978
C   -0.6113   2.0267   0.9583
C   1.8321   -0.4505   1.3589
C   2.1499   0.5777   -0.9745
N   0.1826   -0.8593   -0.5223
N   -1.9507   -1.7822   -0.6783
O   -1.7049   1.8127   0.1649
H   -2.0803   0.9236   0.3117
H   0.0492   -0.7401   -1.5270
H   -0.9874   -1.5700   1.1458
H   0.5283   1.0611   0.4419
H   -2.7635   -2.1829   -0.2292
H   -1.9257   -1.7217   -1.6905
H   -0.1237   2.9849   0.8059
H   -0.5940   1.6033   1.9631
H   2.5131   0.2976   1.7692
H   1.6203   1.0709   -1.7932
H   2.4072   -1.3533   1.1389
H   1.0965   -0.6773   2.1307
H   2.8620   1.2910   -0.5568
H   2.7067   -0.2705   -1.3826
22
Frame 40: 40
C   -0.9145   -1.4070   0.0760
C   1.1672   0.1179   0.1094
C   -0.6382   2.0520   0.9223
C   1.8176   -0.4309   1.3889
C   2.1750   0.5483   -0.9600
N   0.1882   -0.8636   -0.5071
N   -1.9411   -1.7925   -0.6790
O   -1.7107   1.8176   0.1101
H   -2.0823   0.9260   0.2551
H   0.0713   -0.7663   -1.5165
H   -1.0060   -1.5461   1.1559
H   0.5342   1.0677   0.4223
H   -2.7607   -2.1848   -0.2349
H   -1.9019   -1.7476   -1.6919
H   -0.1559   3.0135   0.7688
H   -0.6242   1.6270   1.9259
H   2.4990   0.3188   1.7951
H   1.6629   1.0222   -1.8012
H   2.3893   -1.3407   1.1894
H   1.0719   -0.6418   2.1558
H   2.8841   1.2684   -0.5490
H   2.7329   -0.3143   -1.3355
22
Frame 41: 41
C   -0.8903   -1.4235   0.0803
C   1.1901   0.0999   0.1130
C   -0.6025   2.0309   0.9205
C   1.8407   -0.4473   1.3915
C   2.1933   0.5388   -0.9548
N   0.2117   -0.8785   -0.5032
N   -1.9160   -1.8108   -0.6742
O   -1.6787   1.8027   0.1085
H   -2.0507   0.9117   0.2527
H   0.0949   -0.7815   -1.5124
H   -0.9812   -1.5619   1.1600
H   0.5528   1.0555   0.4325
H   -2.7355   -2.2033   -0.2301
H   -1.8774   -1.7649   -1.6868
H   -0.1202   2.9923   0.7673
H   -0.6005   1.6181   1.9294
H   2.5213   0.3034   1.7974
H   1.6777   1.0138   -1.7925
H   2.4134   -1.3563   1.1922
H   1.0953   -0.6585   2.1583
H   2.9003   1.2600   -0.5420
H   2.7538   -0.3194   -1.3346
22
Frame 42: 42
C   -0.8936   -1.4229   0.0850
C   1.1888   0.0977   0.1266
C   -0.6130   2.0441   0.8739
C   1.8167   -0.4289   1.4255
C   2.2110   0.5163   -0.9316
N   0.2187   -0.8889   -0.4894
N   -1.9076   -1.8208   -0.6801
O   -1.6769   1.8050   0.0484
H   -2.0520   0.9165   0.2001
H   0.1184   -0.8078   -1.5020
H   -1.0023   -1.5440   1.1654
H   0.5479   1.0605   0.4194
H   -2.7350   -2.2047   -0.2430
H   -1.8527   -1.7907   -1.6927
H   -0.1278   3.0029   0.7142
H   -0.6280   1.6471   1.8894
H   2.4920   0.3273   1.8301
H   1.7106   0.9778   -1.7863
H   2.3908   -1.3425   1.2515
H   1.0579   -0.6254   2.1834
H   2.9124   1.2431   -0.5193
H   2.7762   -0.3497   -1.2871
22
Frame 43: 43
C   -0.8878   -1.4166   0.0792
C   1.1953   0.1235   0.1260
C   -0.6815   2.0698   0.9002
C   1.8205   -0.4095   1.4300
C   2.2414   0.4970   -0.9356
N   0.2219   -0.8765   -0.4907
N   -1.8963   -1.8251   -0.6892
O   -1.7166   1.7998   0.0636
H   -2.0593   0.8892   0.1812
H   0.1269   -0.8046   -1.5043
H   -1.0010   -1.5382   1.1594
H   0.5696   1.0626   0.3907
H   -2.7242   -2.2101   -0.2541
H   -1.8406   -1.7909   -1.7016
H   -0.2215   3.0464   0.7636
H   -0.6490   1.6056   1.8903
H   2.5013   0.3417   1.8341
H   1.7608   0.9371   -1.8130
H   2.3879   -1.3270   1.2563
H   1.0602   -0.6013   2.1872
H   2.9460   1.2268   -0.5350
H   2.7989   -0.3886   -1.2546
22
Frame 44: 44
C   -0.8936   -1.3977   0.0954
C   1.2052   0.1275   0.1362
C   -0.7421   2.1177   0.9037
C   1.8435   -0.4263   1.4280
C   2.2481   0.4874   -0.9367
N   0.2132   -0.8587   -0.4760
N   -1.8918   -1.8338   -0.6732
O   -1.7135   1.8075   0.0142
H   -2.0576   0.8936   0.1232
H   0.1342   -0.8227   -1.4933
H   -1.0157   -1.4975   1.1775
H   0.6093   1.0463   0.4066
H   -2.7215   -2.2141   -0.2375
H   -1.8320   -1.8084   -1.6856
H   -0.2892   3.0995   0.7798
H   -0.7022   1.6172   1.8733
H   2.5488   0.3054   1.8283
H   1.7680   0.9425   -1.8067
H   2.3902   -1.3542   1.2394
H   1.0932   -0.6101   2.1976
H   2.9763   1.1982   -0.5426
H   2.7820   -0.4082   -1.2683
22
Frame 45: 45
C   -0.8837   -1.3978   0.1051
C   1.2099   0.1248   0.1287
C   -0.7618   2.1024   0.9385
C   1.8735   -0.4373   1.4018
C   2.2246   0.5173   -0.9561
N   0.2150   -0.8560   -0.4778
N   -1.8856   -1.8435   -0.6528
O   -1.6917   1.7979   0.0033
H   -2.0641   0.8962   0.1157
H   0.1331   -0.8311   -1.4943
H   -0.9969   -1.4919   1.1882
H   0.6091   1.0383   0.4316
H   -2.7091   -2.2276   -0.2089
H   -1.8336   -1.8235   -1.6657
H   -0.2801   3.0694   0.8178
H   -0.7860   1.6277   1.9224
H   2.5782   0.2962   1.7991
H   1.7229   0.9826   -1.8081
H   2.4258   -1.3578   1.1947
H   1.1379   -0.6367   2.1817
H   2.9552   1.2273   -0.5656
H   2.7603   -0.3658   -1.3154
22
Frame 46: 46
C   -0.8882   -1.3930   0.1338
C   1.2101   0.1237   0.1360
C   -0.7651   2.1099   0.9240
C   1.9085   -0.4537   1.3843
C   2.1958   0.5358   -0.9684
N   0.2043   -0.8527   -0.4599
N   -1.8893   -1.8571   -0.6145
O   -1.6723   1.8053   -0.0313
H   -2.0588   0.9099   0.0819
H   0.1260   -0.8557   -1.4773
H   -0.9992   -1.4685   1.2187
H   0.6132   1.0294   0.4666
H   -2.7113   -2.2347   -0.1623
H   -1.8407   -1.8503   -1.6277
H   -0.2753   3.0734   0.8129
H   -0.8095   1.6348   1.9032
H   2.6264   0.2736   1.7697
H   1.6700   1.0072   -1.8023
H   2.4538   -1.3723   1.1507
H   1.1950   -0.6613   2.1825
H   2.9304   1.2466   -0.5870
H   2.7290   -0.3389   -1.3506
22
Frame 47: 47
C   -0.8965   -1.3858   0.1504
C   1.2100   0.1173   0.1542
C   -0.7641   2.1170   0.9042
C   1.9305   -0.4787   1.3821
C   2.1728   0.5563   -0.9608
N   0.1978   -0.8511   -0.4426
N   -1.8892   -1.8676   -0.5987
O   -1.6246   1.8180   -0.0969
H   -2.0384   0.9332   0.0088
H   0.1377   -0.8873   -1.4612
H   -1.0178   -1.4396   1.2355
H   0.6153   1.0147   0.5124
H   -2.7170   -2.2331   -0.1472
H   -1.8327   -1.8747   -1.6117
H   -0.2590   3.0754   0.8145
H   -0.8647   1.6471   1.8832
H   2.6554   0.2426   1.7658
H   1.6229   1.0406   -1.7724
H   2.4710   -1.3945   1.1265
H   1.2294   -0.6963   2.1889
H   2.9098   1.2651   -0.5805
H   2.7043   -0.3071   -1.3713
22
Frame 48: 48
C   -0.9006   -1.3836   0.1474
C   1.2085   0.1128   0.1601
C   -0.7569   2.1231   0.8928
C   1.9276   -0.4896   1.3841
C   2.1714   0.5605   -0.9500
N   0.1971   -0.8523   -0.4424
N   -1.8909   -1.8657   -0.6041
O   -1.6208   1.8207   -0.1008
H   -2.0376   0.9384   0.0087
H   0.1414   -0.8898   -1.4601
H   -1.0260   -1.4336   1.2317
H   0.6127   1.0068   0.5229
H   -2.7202   -2.2306   -0.1552
H   -1.8292   -1.8775   -1.6166
H   -0.2449   3.0764   0.7931
H   -0.8579   1.6625   1.8741
H   2.6501   0.2305   1.7743
H   1.6218   1.0473   -1.7590
H   2.4701   -1.4022   1.1231
H   1.2256   -0.7151   2.1874
H   2.9050   1.2698   -0.5642
H   2.7062   -0.2984   -1.3641
22
Frame 49: 49
C   -0.9017   -1.3835   0.1473
C   1.2073   0.1117   0.1648
C   -0.7571   2.1264   0.8879
C   1.9287   -0.4957   1.3850
C   2.1679   0.5669   -0.9441
N   0.1963   -0.8513   -0.4410
N   -1.8902   -1.8674   -0.6056
O   -1.6211   1.8189   -0.1036
H   -2.0395   0.9379   0.0113
H   0.1429   -0.8899   -1.4587
H   -1.0290   -1.4321   1.2314
H   0.6108   1.0028   0.5325
H   -2.7196   -2.2334   -0.1578
H   -1.8261   -1.8808   -1.6179
H   -0.2413   3.0768   0.7809
H   -0.8581   1.6719   1.8718
H   2.6503   0.2236   1.7782
H   1.6162   1.0567   -1.7499
H   2.4725   -1.4059   1.1187
H   1.2277   -0.7265   2.1877
H   2.9003   1.2759   -0.5554
H   2.7042   -0.2886   -1.3633
