22
Frame 1: 1
C   -0.8675   -1.1212   0.1451
C   1.2063   0.0888   0.0375
C   -0.8012   1.8039   0.7777
C   1.9270   -0.5238   1.2299
C   2.1735   0.5194   -1.0520
N   0.2436   -0.9006   -0.5570
N   -2.0080   -1.5937   -0.4191
O   -1.6073   1.4743   -0.2757
H   -1.9698   0.5875   -0.1411
H   0.0290   -0.6370   -1.5287
H   -0.8978   -0.8021   1.1842
H   0.5985   0.9809   0.3930
H   -2.6675   -1.9721   0.2647
H   -1.8829   -2.2545   -1.1927
H   -0.4288   2.8210   0.7145
H   -1.0181   1.4392   1.7832
H   2.6046   0.2089   1.6809
H   1.6503   1.0084   -1.8818
H   2.5096   -1.3982   0.9217
H   1.2101   -0.8363   1.9937
H   2.9111   1.2261   -0.6587
H   2.7050   -0.3554   -1.4408
22
Frame 2: 2
C   -0.8682   -1.1209   0.1378
C   1.2066   0.0885   0.0423
C   -0.8039   1.8031   0.7756
C   1.9213   -0.5263   1.2372
C   2.1792   0.5206   -1.0418
N   0.2464   -0.8995   -0.5585
N   -2.0061   -1.5920   -0.4327
O   -1.6049   1.4756   -0.2823
H   -1.9685   0.5887   -0.1509
H   0.0366   -0.6342   -1.5308
H   -0.9034   -0.8035   1.1773
H   0.5974   0.9803   0.3964
H   -2.6691   -1.9713   0.2473
H   -1.8775   -2.2516   -1.2068
H   -0.4308   2.8202   0.7159
H   -1.0259   1.4368   1.7794
H   2.5970   0.2054   1.6927
H   1.6603   1.0112   -1.8733
H   2.5050   -1.4004   0.9304
H   1.2005   -0.8398   1.9970
H   2.9152   1.2263   -0.6437
H   2.7123   -0.3538   -1.4295
22
Frame 3: 3
C   -0.8688   -1.1206   0.1307
C   1.2068   0.0883   0.0472
C   -0.8067   1.8024   0.7731
C   1.9155   -0.5286   1.2446
C   2.1850   0.5217   -1.0315
N   0.2493   -0.8985   -0.5599
N   -2.0041   -1.5905   -0.4462
O   -1.6026   1.4767   -0.2892
H   -1.9671   0.5898   -0.1610
H   0.0444   -0.6317   -1.5328
H   -0.9090   -0.8047   1.1704
H   0.5962   0.9797   0.3996
H   -2.6705   -1.9706   0.2300
H   -1.8719   -2.2489   -1.2206
H   -0.4330   2.8194   0.7169
H   -1.0338   1.4346   1.7753
H   2.5892   0.2022   1.7045
H   1.6702   1.0138   -1.8648
H   2.5004   -1.4025   0.9393
H   1.1909   -0.8430   2.0004
H   2.9192   1.2265   -0.6287
H   2.7196   -0.3523   -1.4179
22
Frame 4: 4
C   -0.8689   -1.1205   0.1289
C   1.2069   0.0882   0.0484
C   -0.8075   1.8022   0.7724
C   1.9140   -0.5291   1.2465
C   2.1864   0.5219   -1.0289
N   0.2500   -0.8983   -0.5602
N   -2.0035   -1.5902   -0.4495
O   -1.6021   1.4770   -0.2910
H   -1.9668   0.5900   -0.1635
H   0.0464   -0.6311   -1.5333
H   -0.9104   -0.8050   1.1687
H   0.5959   0.9796   0.4003
H   -2.6708   -1.9705   0.2257
H   -1.8704   -2.2484   -1.2240
H   -0.4336   2.8193   0.7170
H   -1.0358   1.4341   1.7742
H   2.5872   0.2015   1.7075
H   1.6727   1.0144   -1.8627
H   2.4993   -1.4029   0.9416
H   1.1885   -0.8437   2.0013
H   2.9202   1.2266   -0.6250
H   2.7214   -0.3519   -1.4150
22
Frame 5: 5
C   -0.8689   -1.1205   0.1284
C   1.2069   0.0882   0.0487
C   -0.8076   1.8022   0.7723
C   1.9136   -0.5292   1.2470
C   2.1867   0.5220   -1.0283
N   0.2502   -0.8983   -0.5603
N   -2.0034   -1.5901   -0.4503
O   -1.6020   1.4770   -0.2915
H   -1.9667   0.5901   -0.1642
H   0.0468   -0.6310   -1.5334
H   -0.9107   -0.8051   1.1683
H   0.5958   0.9795   0.4005
H   -2.6708   -1.9704   0.2247
H   -1.8700   -2.2482   -1.2248
H   -0.4338   2.8192   0.7170
H   -1.0363   1.4340   1.7739
H   2.5867   0.2013   1.7082
H   1.6733   1.0145   -1.8621
H   2.4990   -1.4030   0.9422
H   1.1879   -0.8439   2.0015
H   2.9205   1.2266   -0.6241
H   2.7219   -0.3518   -1.4143
22
Frame 6: 6
C   -0.8689   -1.1205   0.1283
C   1.2069   0.0882   0.0488
C   -0.8077   1.8022   0.7722
C   1.9135   -0.5293   1.2471
C   2.1868   0.5220   -1.0281
N   0.2503   -0.8982   -0.5603
N   -2.0033   -1.5901   -0.4506
O   -1.6019   1.4770   -0.2916
H   -1.9667   0.5901   -0.1644
H   0.0470   -0.6309   -1.5334
H   -0.9108   -0.8051   1.1682
H   0.5958   0.9795   0.4006
H   -2.6709   -1.9704   0.2243
H   -1.8699   -2.2482   -1.2251
H   -0.4338   2.8192   0.7170
H   -1.0364   1.4339   1.7738
H   2.5865   0.2012   1.7085
H   1.6735   1.0146   -1.8620
H   2.4989   -1.4030   0.9424
H   1.1877   -0.8440   2.0016
H   2.9205   1.2266   -0.6238
H   2.7220   -0.3518   -1.4141
22
Frame 7: 7
C   -0.8689   -1.1205   0.1282
C   1.2069   0.0882   0.0489
C   -0.8078   1.8021   0.7722
C   1.9134   -0.5293   1.2473
C   2.1870   0.5221   -1.0279
N   0.2504   -0.8982   -0.5603
N   -2.0033   -1.5901   -0.4509
O   -1.6019   1.4771   -0.2918
H   -1.9666   0.5901   -0.1646
H   0.0472   -0.6309   -1.5335
H   -0.9109   -0.8052   1.1680
H   0.5957   0.9795   0.4006
H   -2.6709   -1.9704   0.2240
H   -1.8698   -2.2481   -1.2254
H   -0.4339   2.8192   0.7170
H   -1.0366   1.4339   1.7737
H   2.5864   0.2012   1.7087
H   1.6737   1.0146   -1.8618
H   2.4988   -1.4031   0.9426
H   1.1875   -0.8440   2.0017
H   2.9206   1.2266   -0.6235
H   2.7222   -0.3518   -1.4138
22
Frame 8: 8
C   -0.8690   -1.1205   0.1280
C   1.2069   0.0882   0.0490
C   -0.8078   1.8021   0.7721
C   1.9133   -0.5293   1.2474
C   2.1871   0.5221   -1.0277
N   0.2504   -0.8982   -0.5603
N   -2.0032   -1.5900   -0.4511
O   -1.6018   1.4771   -0.2919
H   -1.9666   0.5901   -0.1648
H   0.0473   -0.6308   -1.5335
H   -0.9110   -0.8052   1.1679
H   0.5957   0.9795   0.4007
H   -2.6709   -1.9704   0.2236
H   -1.8697   -2.2481   -1.2257
H   -0.4339   2.8192   0.7171
H   -1.0368   1.4339   1.7737
H   2.5862   0.2011   1.7089
H   1.6739   1.0147   -1.8616
H   2.4987   -1.4031   0.9428
H   1.1873   -0.8441   2.0017
H   2.9207   1.2267   -0.6232
H   2.7223   -0.3517   -1.4136
22
Frame 9: 9
C   -0.8690   -1.1205   0.1279
C   1.2069   0.0882   0.0491
C   -0.8079   1.8021   0.7720
C   1.9132   -0.5294   1.2476
C   2.1872   0.5221   -1.0275
N   0.2505   -0.8982   -0.5604
N   -2.0032   -1.5900   -0.4514
O   -1.6018   1.4771   -0.2920
H   -1.9666   0.5901   -0.1650
H   0.0475   -0.6308   -1.5336
H   -0.9111   -0.8052   1.1677
H   0.5957   0.9795   0.4008
H   -2.6709   -1.9704   0.2233
H   -1.8696   -2.2480   -1.2259
H   -0.4340   2.8192   0.7171
H   -1.0369   1.4338   1.7736
H   2.5861   0.2011   1.7092
H   1.6741   1.0147   -1.8615
H   2.4987   -1.4031   0.9429
H   1.1871   -0.8441   2.0018
H   2.9208   1.2267   -0.6229
H   2.7224   -0.3517   -1.4133
22
Frame 10: 10
C   -0.8690   -1.1205   0.1277
C   1.2069   0.0882   0.0492
C   -0.8079   1.8021   0.7720
C   1.9131   -0.5294   1.2477
C   2.1873   0.5221   -1.0272
N   0.2505   -0.8982   -0.5604
N   -2.0031   -1.5900   -0.4517
O   -1.6017   1.4771   -0.2922
H   -1.9666   0.5901   -0.1652
H   0.0476   -0.6307   -1.5336
H   -0.9113   -0.8052   1.1676
H   0.5957   0.9795   0.4008
H   -2.6709   -1.9704   0.2229
H   -1.8694   -2.2480   -1.2262
H   -0.4340   2.8192   0.7171
H   -1.0371   1.4338   1.7735
H   2.5859   0.2010   1.7094
H   1.6743   1.0148   -1.8613
H   2.4986   -1.4032   0.9431
H   1.1869   -0.8442   2.0019
H   2.9208   1.2267   -0.6226
H   2.7226   -0.3517   -1.4131
22
Frame 11: 11
C   -0.8690   -1.1205   0.1276
C   1.2069   0.0882   0.0493
C   -0.8080   1.8021   0.7719
C   1.9129   -0.5295   1.2479
C   2.1874   0.5221   -1.0270
N   0.2506   -0.8981   -0.5604
N   -2.0031   -1.5900   -0.4519
O   -1.6017   1.4771   -0.2923
H   -1.9665   0.5902   -0.1654
H   0.0478   -0.6307   -1.5336
H   -0.9114   -0.8053   1.1675
H   0.5956   0.9795   0.4009
H   -2.6710   -1.9704   0.2226
H   -1.8693   -2.2480   -1.2265
H   -0.4341   2.8191   0.7171
H   -1.0372   1.4337   1.7734
H   2.5857   0.2010   1.7096
H   1.6745   1.0148   -1.8611
H   2.4985   -1.4032   0.9433
H   1.1868   -0.8442   2.0019
H   2.9209   1.2267   -0.6223
H   2.7227   -0.3516   -1.4129
22
Frame 12: 12
C   -0.8690   -1.1205   0.1274
C   1.2069   0.0882   0.0494
C   -0.8081   1.8021   0.7719
C   1.9128   -0.5295   1.2480
C   2.1875   0.5222   -1.0268
N   0.2507   -0.8981   -0.5604
N   -2.0030   -1.5899   -0.4522
O   -1.6016   1.4772   -0.2925
H   -1.9665   0.5902   -0.1656
H   0.0479   -0.6306   -1.5337
H   -0.9115   -0.8053   1.1673
H   0.5956   0.9795   0.4010
H   -2.6710   -1.9704   0.2223
H   -1.8692   -2.2479   -1.2267
H   -0.4341   2.8191   0.7171
H   -1.0374   1.4337   1.7733
H   2.5856   0.2009   1.7099
H   1.6747   1.0149   -1.8610
H   2.4984   -1.4032   0.9435
H   1.1866   -0.8443   2.0020
H   2.9210   1.2267   -0.6220
H   2.7229   -0.3516   -1.4126
22
Frame 13: 13
C   -0.8690   -1.1205   0.1273
C   1.2070   0.0882   0.0495
C   -0.8081   1.8021   0.7718
C   1.9127   -0.5295   1.2482
C   2.1876   0.5222   -1.0266
N   0.2507   -0.8981   -0.5605
N   -2.0030   -1.5899   -0.4525
O   -1.6016   1.4772   -0.2926
H   -1.9665   0.5902   -0.1658
H   0.0481   -0.6306   -1.5337
H   -0.9116   -0.8053   1.1672
H   0.5956   0.9794   0.4010
H   -2.6710   -1.9704   0.2219
H   -1.8691   -2.2479   -1.2270
H   -0.4342   2.8191   0.7171
H   -1.0376   1.4337   1.7732
H   2.5854   0.2009   1.7101
H   1.6749   1.0149   -1.8608
H   2.4983   -1.4033   0.9437
H   1.1864   -0.8443   2.0021
H   2.9211   1.2267   -0.6217
H   2.7230   -0.3516   -1.4124
22
Frame 14: 14
C   -0.8690   -1.1205   0.1272
C   1.2070   0.0882   0.0496
C   -0.8082   1.8020   0.7718
C   1.9126   -0.5296   1.2483
C   2.1877   0.5222   -1.0264
N   0.2508   -0.8981   -0.5605
N   -2.0029   -1.5899   -0.4527
O   -1.6015   1.4772   -0.2928
H   -1.9665   0.5902   -0.1660
H   0.0483   -0.6306   -1.5337
H   -0.9117   -0.8053   1.1671
H   0.5956   0.9794   0.4011
H   -2.6710   -1.9703   0.2216
H   -1.8690   -2.2478   -1.2273
H   -0.4342   2.8191   0.7171
H   -1.0377   1.4336   1.7731
H   2.5853   0.2008   1.7104
H   1.6751   1.0150   -1.8606
H   2.4982   -1.4033   0.9439
H   1.1862   -0.8444   2.0021
H   2.9212   1.2267   -0.6214
H   2.7232   -0.3515   -1.4122
22
Frame 15: 15
C   -0.8690   -1.1205   0.1270
C   1.2070   0.0882   0.0496
C   -0.8082   1.8020   0.7717
C   1.9125   -0.5296   1.2485
C   2.1879   0.5222   -1.0262
N   0.2508   -0.8981   -0.5605
N   -2.0029   -1.5898   -0.4530
O   -1.6015   1.4772   -0.2929
H   -1.9664   0.5902   -0.1662
H   0.0484   -0.6305   -1.5338
H   -0.9118   -0.8054   1.1669
H   0.5955   0.9794   0.4011
H   -2.6711   -1.9703   0.2212
H   -1.8688   -2.2478   -1.2276
H   -0.4343   2.8191   0.7171
H   -1.0379   1.4336   1.7730
H   2.5851   0.2007   1.7106
H   1.6753   1.0150   -1.8605
H   2.4981   -1.4033   0.9440
H   1.1860   -0.8445   2.0022
H   2.9212   1.2267   -0.6211
H   2.7233   -0.3515   -1.4119
22
Frame 16: 16
C   -0.8690   -1.1205   0.1269
C   1.2070   0.0882   0.0497
C   -0.8083   1.8020   0.7717
C   1.9124   -0.5297   1.2486
C   2.1880   0.5223   -1.0260
N   0.2509   -0.8981   -0.5605
N   -2.0029   -1.5898   -0.4533
O   -1.6015   1.4772   -0.2931
H   -1.9664   0.5902   -0.1664
H   0.0486   -0.6305   -1.5338
H   -0.9119   -0.8054   1.1668
H   0.5955   0.9794   0.4012
H   -2.6711   -1.9703   0.2209
H   -1.8687   -2.2477   -1.2278
H   -0.4343   2.8191   0.7171
H   -1.0380   1.4335   1.7729
H   2.5850   0.2007   1.7108
H   1.6755   1.0151   -1.8603
H   2.4980   -1.4034   0.9442
H   1.1858   -0.8445   2.0023
H   2.9213   1.2267   -0.6208
H   2.7235   -0.3515   -1.4117
22
Frame 17: 17
C   -0.8690   -1.1205   0.1267
C   1.2070   0.0882   0.0498
C   -0.8084   1.8020   0.7716
C   1.9122   -0.5297   1.2488
C   2.1881   0.5223   -1.0258
N   0.2510   -0.8980   -0.5606
N   -2.0028   -1.5898   -0.4535
O   -1.6014   1.4773   -0.2932
H   -1.9664   0.5903   -0.1666
H   0.0487   -0.6304   -1.5339
H   -0.9120   -0.8054   1.1666
H   0.5955   0.9794   0.4013
H   -2.6711   -1.9703   0.2205
H   -1.8686   -2.2477   -1.2281
H   -0.4344   2.8191   0.7171
H   -1.0382   1.4335   1.7729
H   2.5848   0.2006   1.7111
H   1.6757   1.0151   -1.8601
H   2.4979   -1.4034   0.9444
H   1.1856   -0.8446   2.0024
H   2.9214   1.2267   -0.6205
H   2.7236   -0.3515   -1.4115
22
Frame 18: 18
C   -0.8690   -1.1205   0.1266
C   1.2070   0.0882   0.0499
C   -0.8084   1.8020   0.7715
C   1.9121   -0.5297   1.2489
C   2.1882   0.5223   -1.0256
N   0.2510   -0.8980   -0.5606
N   -2.0028   -1.5898   -0.4538
O   -1.6014   1.4773   -0.2933
H   -1.9663   0.5903   -0.1668
H   0.0489   -0.6304   -1.5339
H   -0.9121   -0.8054   1.1665
H   0.5955   0.9794   0.4013
H   -2.6711   -1.9703   0.2202
H   -1.8685   -2.2476   -1.2284
H   -0.4344   2.8190   0.7172
H   -1.0384   1.4335   1.7728
H   2.5846   0.2006   1.7113
H   1.6759   1.0151   -1.8599
H   2.4978   -1.4034   0.9446
H   1.1854   -0.8446   2.0024
H   2.9215   1.2267   -0.6202
H   2.7238   -0.3514   -1.4112
22
Frame 19: 19
C   -0.8690   -1.1205   0.1265
C   1.2070   0.0882   0.0500
C   -0.8085   1.8020   0.7715
C   1.9120   -0.5298   1.2491
C   2.1883   0.5223   -1.0254
N   0.2511   -0.8980   -0.5606
N   -2.0027   -1.5897   -0.4541
O   -1.6013   1.4773   -0.2935
H   -1.9663   0.5903   -0.1670
H   0.0491   -0.6303   -1.5339
H   -0.9123   -0.8055   1.1664
H   0.5954   0.9794   0.4014
H   -2.6711   -1.9703   0.2199
H   -1.8684   -2.2476   -1.2286
H   -0.4345   2.8190   0.7172
H   -1.0385   1.4334   1.7727
H   2.5845   0.2005   1.7115
H   1.6761   1.0152   -1.8598
H   2.4977   -1.4035   0.9448
H   1.1852   -0.8447   2.0025
H   2.9215   1.2267   -0.6199
H   2.7239   -0.3514   -1.4110
22
Frame 20: 20
C   -0.8691   -1.1205   0.1263
C   1.2070   0.0882   0.0501
C   -0.8085   1.8020   0.7714
C   1.9119   -0.5298   1.2492
C   2.1884   0.5223   -1.0252
N   0.2511   -0.8980   -0.5606
N   -2.0027   -1.5897   -0.4543
O   -1.6013   1.4773   -0.2936
H   -1.9663   0.5903   -0.1672
H   0.0492   -0.6303   -1.5340
H   -0.9124   -0.8055   1.1662
H   0.5954   0.9794   0.4014
H   -2.6712   -1.9703   0.2195
H   -1.8682   -2.2475   -1.2289
H   -0.4345   2.8190   0.7172
H   -1.0387   1.4334   1.7726
H   2.5843   0.2005   1.7118
H   1.6763   1.0152   -1.8596
H   2.4977   -1.4035   0.9450
H   1.1850   -0.8447   2.0026
H   2.9216   1.2267   -0.6196
H   2.7241   -0.3514   -1.4108
22
Frame 21: 21
C   -0.8691   -1.1205   0.1262
C   1.2070   0.0882   0.0502
C   -0.8086   1.8020   0.7714
C   1.9118   -0.5299   1.2494
C   2.1885   0.5224   -1.0250
N   0.2512   -0.8980   -0.5607
N   -2.0026   -1.5897   -0.4546
O   -1.6012   1.4773   -0.2938
H   -1.9663   0.5903   -0.1674
H   0.0494   -0.6302   -1.5340
H   -0.9125   -0.8055   1.1661
H   0.5954   0.9794   0.4015
H   -2.6712   -1.9703   0.2192
H   -1.8681   -2.2475   -1.2292
H   -0.4346   2.8190   0.7172
H   -1.0388   1.4333   1.7725
H   2.5842   0.2004   1.7120
H   1.6765   1.0153   -1.8594
H   2.4976   -1.4035   0.9452
H   1.1848   -0.8448   2.0026
H   2.9217   1.2267   -0.6193
H   2.7242   -0.3513   -1.4105
22
Frame 22: 22
C   -0.8691   -1.1205   0.1260
C   1.2070   0.0882   0.0503
C   -0.8087   1.8019   0.7713
C   1.9117   -0.5299   1.2495
C   2.1887   0.5224   -1.0248
N   0.2513   -0.8979   -0.5607
N   -2.0026   -1.5897   -0.4548
O   -1.6012   1.4773   -0.2939
H   -1.9662   0.5904   -0.1676
H   0.0495   -0.6302   -1.5340
H   -0.9126   -0.8055   1.1660
H   0.5954   0.9794   0.4016
H   -2.6712   -1.9703   0.2188
H   -1.8680   -2.2474   -1.2295
H   -0.4346   2.8190   0.7172
H   -1.0390   1.4333   1.7724
H   2.5840   0.2004   1.7122
H   1.6767   1.0153   -1.8593
H   2.4975   -1.4036   0.9453
H   1.1846   -0.8449   2.0027
H   2.9218   1.2267   -0.6190
H   2.7243   -0.3513   -1.4103
22
Frame 23: 23
C   -0.8691   -1.1204   0.1259
C   1.2070   0.0882   0.0504
C   -0.8087   1.8019   0.7713
C   1.9115   -0.5299   1.2497
C   2.1888   0.5224   -1.0246
N   0.2513   -0.8979   -0.5607
N   -2.0025   -1.5896   -0.4551
O   -1.6011   1.4774   -0.2941
H   -1.9662   0.5904   -0.1678
H   0.0497   -0.6301   -1.5341
H   -0.9127   -0.8055   1.1658
H   0.5953   0.9793   0.4016
H   -2.6712   -1.9703   0.2185
H   -1.8679   -2.2474   -1.2297
H   -0.4347   2.8190   0.7172
H   -1.0392   1.4333   1.7723
H   2.5838   0.2003   1.7125
H   1.6769   1.0154   -1.8591
H   2.4974   -1.4036   0.9455
H   1.1844   -0.8449   2.0028
H   2.9218   1.2267   -0.6187
H   2.7245   -0.3513   -1.4101
22
Frame 24: 24
C   -0.8691   -1.1204   0.1257
C   1.2070   0.0882   0.0505
C   -0.8088   1.8019   0.7712
C   1.9114   -0.5300   1.2498
C   2.1889   0.5224   -1.0244
N   0.2514   -0.8979   -0.5607
N   -2.0025   -1.5896   -0.4554
O   -1.6011   1.4774   -0.2942
H   -1.9662   0.5904   -0.1680
H   0.0498   -0.6301   -1.5341
H   -0.9128   -0.8056   1.1657
H   0.5953   0.9793   0.4017
H   -2.6713   -1.9702   0.2181
H   -1.8678   -2.2474   -1.2300
H   -0.4347   2.8190   0.7172
H   -1.0393   1.4332   1.7722
H   2.5837   0.2002   1.7127
H   1.6771   1.0154   -1.8589
H   2.4973   -1.4036   0.9457
H   1.1842   -0.8450   2.0028
H   2.9219   1.2268   -0.6184
H   2.7246   -0.3512   -1.4098
22
Frame 25: 25
C   -0.8691   -1.1204   0.1256
C   1.2070   0.0882   0.0506
C   -0.8088   1.8019   0.7712
C   1.9113   -0.5300   1.2500
C   2.1890   0.5225   -1.0242
N   0.2514   -0.8979   -0.5608
N   -2.0024   -1.5896   -0.4556
O   -1.6011   1.4774   -0.2943
H   -1.9661   0.5904   -0.1682
H   0.0500   -0.6300   -1.5342
H   -0.9129   -0.8056   1.1655
H   0.5953   0.9793   0.4017
H   -2.6713   -1.9702   0.2178
H   -1.8676   -2.2473   -1.2303
H   -0.4348   2.8189   0.7172
H   -1.0395   1.4332   1.7721
H   2.5835   0.2002   1.7130
H   1.6773   1.0155   -1.8588
H   2.4972   -1.4037   0.9459
H   1.1840   -0.8450   2.0029
H   2.9220   1.2268   -0.6181
H   2.7248   -0.3512   -1.4096
22
Frame 26: 26
C   -0.8691   -1.1204   0.1255
C   1.2070   0.0882   0.0507
C   -0.8089   1.8019   0.7711
C   1.9112   -0.5301   1.2501
C   2.1891   0.5225   -1.0239
N   0.2515   -0.8979   -0.5608
N   -2.0024   -1.5896   -0.4559
O   -1.6010   1.4774   -0.2945
H   -1.9661   0.5904   -0.1685
H   0.0502   -0.6300   -1.5342
H   -0.9130   -0.8056   1.1654
H   0.5952   0.9793   0.4018
H   -2.6713   -1.9702   0.2175
H   -1.8675   -2.2473   -1.2305
H   -0.4348   2.8189   0.7172
H   -1.0396   1.4331   1.7721
H   2.5834   0.2001   1.7132
H   1.6775   1.0155   -1.8586
H   2.4971   -1.4037   0.9461
H   1.1839   -0.8451   2.0030
H   2.9221   1.2268   -0.6178
H   2.7249   -0.3512   -1.4094
22
Frame 27: 27
C   -0.8691   -1.1204   0.1253
C   1.2070   0.0882   0.0508
C   -0.8089   1.8019   0.7710
C   1.9111   -0.5301   1.2503
C   2.1892   0.5225   -1.0237
N   0.2516   -0.8979   -0.5608
N   -2.0023   -1.5895   -0.4562
O   -1.6010   1.4774   -0.2946
H   -1.9661   0.5904   -0.1687
H   0.0503   -0.6300   -1.5342
H   -0.9131   -0.8056   1.1653
H   0.5952   0.9793   0.4019
H   -2.6713   -1.9702   0.2171
H   -1.8674   -2.2472   -1.2308
H   -0.4349   2.8189   0.7172
H   -1.0398   1.4331   1.7720
H   2.5832   0.2001   1.7134
H   1.6777   1.0156   -1.8584
H   2.4970   -1.4037   0.9463
H   1.1837   -0.8451   2.0031
H   2.9221   1.2268   -0.6175
H   2.7251   -0.3512   -1.4091
22
Frame 28: 28
C   -0.8691   -1.1204   0.1252
C   1.2070   0.0882   0.0509
C   -0.8090   1.8019   0.7710
C   1.9109   -0.5301   1.2504
C   2.1893   0.5225   -1.0235
N   0.2516   -0.8978   -0.5608
N   -2.0023   -1.5895   -0.4564
O   -1.6009   1.4775   -0.2948
H   -1.9661   0.5905   -0.1689
H   0.0505   -0.6299   -1.5343
H   -0.9132   -0.8057   1.1651
H   0.5952   0.9793   0.4019
H   -2.6713   -1.9702   0.2168
H   -1.8673   -2.2472   -1.2311
H   -0.4349   2.8189   0.7172
H   -1.0400   1.4331   1.7719
H   2.5830   0.2000   1.7137
H   1.6779   1.0156   -1.8582
H   2.4969   -1.4038   0.9464
H   1.1835   -0.8452   2.0031
H   2.9222   1.2268   -0.6172
H   2.7252   -0.3511   -1.4089
22
Frame 29: 29
C   -0.8691   -1.1204   0.1250
C   1.2070   0.0882   0.0510
C   -0.8091   1.8018   0.7709
C   1.9108   -0.5302   1.2506
C   2.1894   0.5225   -1.0233
N   0.2517   -0.8978   -0.5609
N   -2.0022   -1.5895   -0.4567
O   -1.6009   1.4775   -0.2949
H   -1.9660   0.5905   -0.1691
H   0.0506   -0.6299   -1.5343
H   -0.9133   -0.8057   1.1650
H   0.5952   0.9793   0.4020
H   -2.6714   -1.9702   0.2164
H   -1.8672   -2.2471   -1.2313
H   -0.4350   2.8189   0.7173
H   -1.0401   1.4330   1.7718
H   2.5829   0.2000   1.7139
H   1.6781   1.0157   -1.8581
H   2.4968   -1.4038   0.9466
H   1.1833   -0.8452   2.0032
H   2.9223   1.2268   -0.6169
H   2.7254   -0.3511   -1.4087
22
Frame 30: 30
C   -0.8691   -1.1204   0.1249
C   1.2070   0.0882   0.0511
C   -0.8091   1.8018   0.7709
C   1.9107   -0.5302   1.2507
C   2.1896   0.5226   -1.0231
N   0.2517   -0.8978   -0.5609
N   -2.0022   -1.5895   -0.4570
O   -1.6008   1.4775   -0.2951
H   -1.9660   0.5905   -0.1693
H   0.0508   -0.6298   -1.5343
H   -0.9135   -0.8057   1.1649
H   0.5951   0.9793   0.4021
H   -2.6714   -1.9702   0.2161
H   -1.8670   -2.2471   -1.2316
H   -0.4350   2.8189   0.7173
H   -1.0403   1.4330   1.7717
H   2.5827   0.1999   1.7141
H   1.6783   1.0157   -1.8579
H   2.4967   -1.4038   0.9468
H   1.1831   -0.8453   2.0033
H   2.9224   1.2268   -0.6166
H   2.7255   -0.3511   -1.4084
22
Frame 31: 31
C   -0.8692   -1.1204   0.1248
C   1.2070   0.0882   0.0512
C   -0.8092   1.8018   0.7708
C   1.9106   -0.5303   1.2509
C   2.1897   0.5226   -1.0229
N   0.2518   -0.8978   -0.5609
N   -2.0022   -1.5894   -0.4572
O   -1.6008   1.4775   -0.2952
H   -1.9660   0.5905   -0.1695
H   0.0509   -0.6298   -1.5344
H   -0.9136   -0.8057   1.1647
H   0.5951   0.9793   0.4021
H   -2.6714   -1.9702   0.2157
H   -1.8669   -2.2470   -1.2319
H   -0.4351   2.8189   0.7173
H   -1.0405   1.4329   1.7716
H   2.5826   0.1999   1.7144
H   1.6785   1.0158   -1.8577
H   2.4966   -1.4039   0.9470
H   1.1829   -0.8454   2.0033
H   2.9225   1.2268   -0.6163
H   2.7257   -0.3510   -1.4082
22
Frame 32: 32
C   -0.8692   -1.1204   0.1246
C   1.2070   0.0882   0.0513
C   -0.8092   1.8018   0.7708
C   1.9105   -0.5303   1.2510
C   2.1898   0.5226   -1.0227
N   0.2519   -0.8978   -0.5609
N   -2.0021   -1.5894   -0.4575
O   -1.6007   1.4775   -0.2953
H   -1.9660   0.5905   -0.1697
H   0.0511   -0.6297   -1.5344
H   -0.9137   -0.8058   1.1646
H   0.5951   0.9793   0.4022
H   -2.6714   -1.9702   0.2154
H   -1.8668   -2.2470   -1.2322
H   -0.4351   2.8188   0.7173
H   -1.0406   1.4329   1.7715
H   2.5824   0.1998   1.7146
H   1.6787   1.0158   -1.8576
H   2.4965   -1.4039   0.9472
H   1.1827   -0.8454   2.0034
H   2.9225   1.2268   -0.6160
H   2.7258   -0.3510   -1.4080
22
Frame 33: 33
C   -0.8692   -1.1204   0.1245
C   1.2070   0.0881   0.0514
C   -0.8093   1.8018   0.7707
C   1.9104   -0.5303   1.2512
C   2.1899   0.5226   -1.0225
N   0.2519   -0.8977   -0.5610
N   -2.0021   -1.5894   -0.4578
O   -1.6007   1.4776   -0.2955
H   -1.9659   0.5906   -0.1699
H   0.0513   -0.6297   -1.5345
H   -0.9138   -0.8058   1.1644
H   0.5951   0.9792   0.4022
H   -2.6714   -1.9702   0.2151
H   -1.8667   -2.2469   -1.2324
H   -0.4352   2.8188   0.7173
H   -1.0408   1.4329   1.7714
H   2.5822   0.1997   1.7148
H   1.6789   1.0159   -1.8574
H   2.4965   -1.4039   0.9474
H   1.1825   -0.8455   2.0035
H   2.9226   1.2268   -0.6157
H   2.7260   -0.3510   -1.4077
22
Frame 34: 34
C   -0.8692   -1.1204   0.1243
C   1.2070   0.0881   0.0515
C   -0.8094   1.8018   0.7706
C   1.9102   -0.5304   1.2513
C   2.1900   0.5226   -1.0223
N   0.2520   -0.8977   -0.5610
N   -2.0020   -1.5894   -0.4580
O   -1.6006   1.4776   -0.2956
H   -1.9659   0.5906   -0.1701
H   0.0514   -0.6296   -1.5345
H   -0.9139   -0.8058   1.1643
H   0.5950   0.9792   0.4023
H   -2.6715   -1.9701   0.2147
H   -1.8666   -2.2469   -1.2327
H   -0.4352   2.8188   0.7173
H   -1.0409   1.4328   1.7713
H   2.5821   0.1997   1.7151
H   1.6791   1.0159   -1.8572
H   2.4964   -1.4040   0.9475
H   1.1823   -0.8455   2.0035
H   2.9227   1.2268   -0.6154
H   2.7261   -0.3510   -1.4075
22
Frame 35: 35
C   -0.8692   -1.1204   0.1242
C   1.2070   0.0881   0.0516
C   -0.8094   1.8018   0.7706
C   1.9101   -0.5304   1.2515
C   2.1901   0.5227   -1.0221
N   0.2520   -0.8977   -0.5610
N   -2.0020   -1.5893   -0.4583
O   -1.6006   1.4776   -0.2958
H   -1.9659   0.5906   -0.1703
H   0.0516   -0.6296   -1.5345
H   -0.9140   -0.8058   1.1642
H   0.5950   0.9792   0.4024
H   -2.6715   -1.9701   0.2144
H   -1.8664   -2.2468   -1.2330
H   -0.4353   2.8188   0.7173
H   -1.0411   1.4328   1.7713
H   2.5819   0.1996   1.7153
H   1.6793   1.0160   -1.8571
H   2.4963   -1.4040   0.9477
H   1.1821   -0.8456   2.0036
H   2.9228   1.2268   -0.6151
H   2.7262   -0.3509   -1.4072
22
Frame 36: 36
C   -0.8692   -1.1204   0.1240
C   1.2071   0.0881   0.0517
C   -0.8095   1.8017   0.7705
C   1.9100   -0.5305   1.2516
C   2.1902   0.5227   -1.0219
N   0.2521   -0.8977   -0.5610
N   -2.0019   -1.5893   -0.4586
O   -1.6006   1.4776   -0.2959
H   -1.9658   0.5906   -0.1705
H   0.0517   -0.6295   -1.5346
H   -0.9141   -0.8059   1.1640
H   0.5950   0.9792   0.4024
H   -2.6715   -1.9701   0.2140
H   -1.8663   -2.2468   -1.2332
H   -0.4353   2.8188   0.7173
H   -1.0413   1.4327   1.7712
H   2.5818   0.1996   1.7155
H   1.6795   1.0160   -1.8569
H   2.4962   -1.4040   0.9479
H   1.1819   -0.8456   2.0037
H   2.9228   1.2268   -0.6148
H   2.7264   -0.3509   -1.4070
22
Frame 37: 37
C   -0.8692   -1.1204   0.1239
C   1.2071   0.0881   0.0518
C   -0.8095   1.8017   0.7705
C   1.9099   -0.5305   1.2518
C   2.1903   0.5227   -1.0217
N   0.2522   -0.8977   -0.5611
N   -2.0019   -1.5893   -0.4588
O   -1.6005   1.4776   -0.2961
H   -1.9658   0.5906   -0.1707
H   0.0519   -0.6295   -1.5346
H   -0.9142   -0.8059   1.1639
H   0.5950   0.9792   0.4025
H   -2.6715   -1.9701   0.2137
H   -1.8662   -2.2468   -1.2335
H   -0.4354   2.8188   0.7173
H   -1.0414   1.4327   1.7711
H   2.5816   0.1995   1.7158
H   1.6797   1.0161   -1.8567
H   2.4961   -1.4041   0.9481
H   1.1817   -0.8457   2.0037
H   2.9229   1.2268   -0.6145
H   2.7265   -0.3509   -1.4068
22
Frame 38: 38
C   -0.8692   -1.1204   0.1238
C   1.2071   0.0881   0.0519
C   -0.8096   1.8017   0.7704
C   1.9098   -0.5305   1.2519
C   2.1905   0.5227   -1.0215
N   0.2522   -0.8977   -0.5611
N   -2.0018   -1.5893   -0.4591
O   -1.6005   1.4777   -0.2962
H   -1.9658   0.5906   -0.1709
H   0.0520   -0.6294   -1.5346
H   -0.9143   -0.8059   1.1638
H   0.5949   0.9792   0.4025
H   -2.6716   -1.9701   0.2133
H   -1.8661   -2.2467   -1.2338
H   -0.4354   2.8188   0.7173
H   -1.0416   1.4327   1.7710
H   2.5814   0.1995   1.7160
H   1.6799   1.0161   -1.8566
H   2.4960   -1.4041   0.9483
H   1.1815   -0.8458   2.0038
H   2.9230   1.2268   -0.6142
H   2.7267   -0.3508   -1.4065
22
Frame 39: 39
C   -0.8692   -1.1204   0.1236
C   1.2071   0.0881   0.0520
C   -0.8097   1.8017   0.7704
C   1.9097   -0.5306   1.2521
C   2.1906   0.5228   -1.0213
N   0.2523   -0.8976   -0.5611
N   -2.0018   -1.5892   -0.4594
O   -1.6004   1.4777   -0.2964
H   -1.9658   0.5907   -0.1711
H   0.0522   -0.6294   -1.5347
H   -0.9144   -0.8059   1.1636
H   0.5949   0.9792   0.4026
H   -2.6716   -1.9701   0.2130
H   -1.8660   -2.2467   -1.2341
H   -0.4355   2.8187   0.7173
H   -1.0417   1.4326   1.7709
H   2.5813   0.1994   1.7163
H   1.6801   1.0161   -1.8564
H   2.4959   -1.4042   0.9485
H   1.1813   -0.8458   2.0039
H   2.9231   1.2268   -0.6139
H   2.7268   -0.3508   -1.4063
22
Frame 40: 40
C   -0.8692   -1.1204   0.1235
C   1.2071   0.0881   0.0521
C   -0.8097   1.8017   0.7703
C   1.9095   -0.5306   1.2522
C   2.1907   0.5228   -1.0211
N   0.2523   -0.8976   -0.5611
N   -2.0017   -1.5892   -0.4596
O   -1.6004   1.4777   -0.2965
H   -1.9657   0.5907   -0.1713
H   0.0524   -0.6294   -1.5347
H   -0.9146   -0.8060   1.1635
H   0.5949   0.9792   0.4027
H   -2.6716   -1.9701   0.2127
H   -1.8658   -2.2466   -1.2343
H   -0.4355   2.8187   0.7174
H   -1.0419   1.4326   1.7708
H   2.5811   0.1994   1.7165
H   1.6803   1.0162   -1.8562
H   2.4958   -1.4042   0.9486
H   1.1811   -0.8459   2.0039
H   2.9231   1.2268   -0.6136
H   2.7270   -0.3508   -1.4061
22
Frame 41: 41
C   -0.8692   -1.1204   0.1233
C   1.2071   0.0881   0.0522
C   -0.8098   1.8017   0.7703
C   1.9094   -0.5307   1.2524
C   2.1908   0.5228   -1.0209
N   0.2524   -0.8976   -0.5612
N   -2.0017   -1.5892   -0.4599
O   -1.6003   1.4777   -0.2966
H   -1.9657   0.5907   -0.1715
H   0.0525   -0.6293   -1.5347
H   -0.9147   -0.8060   1.1633
H   0.5949   0.9792   0.4027
H   -2.6716   -1.9701   0.2123
H   -1.8657   -2.2466   -1.2346
H   -0.4356   2.8187   0.7174
H   -1.0421   1.4325   1.7707
H   2.5810   0.1993   1.7167
H   1.6805   1.0162   -1.8560
H   2.4957   -1.4042   0.9488
H   1.1810   -0.8459   2.0040
H   2.9232   1.2269   -0.6133
H   2.7271   -0.3507   -1.4058
22
Frame 42: 42
C   -0.8692   -1.1204   0.1232
C   1.2071   0.0881   0.0523
C   -0.8098   1.8017   0.7702
C   1.9093   -0.5307   1.2525
C   2.1909   0.5228   -1.0206
N   0.2525   -0.8976   -0.5612
N   -2.0016   -1.5892   -0.4602
O   -1.6003   1.4777   -0.2968
H   -1.9657   0.5907   -0.1717
H   0.0527   -0.6293   -1.5348
H   -0.9148   -0.8060   1.1632
H   0.5948   0.9792   0.4028
H   -2.6716   -1.9701   0.2120
H   -1.8656   -2.2465   -1.2349
H   -0.4356   2.8187   0.7174
H   -1.0422   1.4325   1.7706
H   2.5808   0.1992   1.7170
H   1.6807   1.0163   -1.8559
H   2.4956   -1.4043   0.9490
H   1.1808   -0.8460   2.0041
H   2.9233   1.2269   -0.6130
H   2.7273   -0.3507   -1.4056
22
Frame 43: 43
C   -0.8693   -1.1204   0.1231
C   1.2071   0.0881   0.0524
C   -0.8099   1.8016   0.7701
C   1.9092   -0.5307   1.2527
C   2.1910   0.5228   -1.0204
N   0.2525   -0.8976   -0.5612
N   -2.0016   -1.5891   -0.4604
O   -1.6002   1.4778   -0.2969
H   -1.9656   0.5907   -0.1719
H   0.0528   -0.6292   -1.5348
H   -0.9149   -0.8060   1.1631
H   0.5948   0.9791   0.4028
H   -2.6717   -1.9700   0.2116
H   -1.8655   -2.2465   -1.2351
H   -0.4357   2.8187   0.7174
H   -1.0424   1.4325   1.7705
H   2.5806   0.1992   1.7172
H   1.6809   1.0163   -1.8557
H   2.4955   -1.4043   0.9492
H   1.1806   -0.8460   2.0042
H   2.9234   1.2269   -0.6127
H   2.7274   -0.3507   -1.4054
22
Frame 44: 44
C   -0.8693   -1.1204   0.1229
C   1.2071   0.0881   0.0525
C   -0.8100   1.8016   0.7701
C   1.9091   -0.5308   1.2528
C   2.1911   0.5229   -1.0202
N   0.2526   -0.8975   -0.5612
N   -2.0015   -1.5891   -0.4607
O   -1.6002   1.4778   -0.2971
H   -1.9656   0.5907   -0.1721
H   0.0530   -0.6292   -1.5349
H   -0.9150   -0.8060   1.1629
H   0.5948   0.9791   0.4029
H   -2.6717   -1.9700   0.2113
H   -1.8654   -2.2464   -1.2354
H   -0.4357   2.8187   0.7174
H   -1.0425   1.4324   1.7704
H   2.5805   0.1991   1.7174
H   1.6811   1.0164   -1.8555
H   2.4954   -1.4043   0.9494
H   1.1804   -0.8461   2.0042
H   2.9234   1.2269   -0.6124
H   2.7276   -0.3507   -1.4051
22
Frame 45: 45
C   -0.8693   -1.1203   0.1228
C   1.2071   0.0881   0.0526
C   -0.8100   1.8016   0.7700
C   1.9090   -0.5308   1.2530
C   2.1912   0.5229   -1.0200
N   0.2526   -0.8975   -0.5613
N   -2.0015   -1.5891   -0.4610
O   -1.6001   1.4778   -0.2972
H   -1.9656   0.5908   -0.1723
H   0.0532   -0.6291   -1.5349
H   -0.9151   -0.8061   1.1628
H   0.5947   0.9791   0.4030
H   -2.6717   -1.9700   0.2109
H   -1.8652   -2.2464   -1.2357
H   -0.4358   2.8187   0.7174
H   -1.0427   1.4324   1.7704
H   2.5803   0.1991   1.7177
H   1.6812   1.0164   -1.8554
H   2.4954   -1.4044   0.9496
H   1.1802   -0.8461   2.0043
H   2.9235   1.2269   -0.6121
H   2.7277   -0.3506   -1.4049
22
Frame 46: 46
C   -0.8693   -1.1203   0.1226
C   1.2071   0.0881   0.0527
C   -0.8101   1.8016   0.7700
C   1.9088   -0.5309   1.2531
C   2.1914   0.5229   -1.0198
N   0.2527   -0.8975   -0.5613
N   -2.0015   -1.5891   -0.4612
O   -1.6001   1.4778   -0.2974
H   -1.9656   0.5908   -0.1725
H   0.0533   -0.6291   -1.5349
H   -0.9152   -0.8061   1.1627
H   0.5947   0.9791   0.4030
H   -2.6717   -1.9700   0.2106
H   -1.8651   -2.2463   -1.2360
H   -0.4358   2.8186   0.7174
H   -1.0429   1.4323   1.7703
H   2.5802   0.1990   1.7179
H   1.6814   1.0165   -1.8552
H   2.4953   -1.4044   0.9497
H   1.1800   -0.8462   2.0044
H   2.9236   1.2269   -0.6118
H   2.7278   -0.3506   -1.4047
22
Frame 47: 47
C   -0.8693   -1.1203   0.1225
C   1.2071   0.0881   0.0528
C   -0.8101   1.8016   0.7699
C   1.9087   -0.5309   1.2532
C   2.1915   0.5229   -1.0196
N   0.2528   -0.8975   -0.5613
N   -2.0014   -1.5890   -0.4615
O   -1.6001   1.4778   -0.2975
H   -1.9655   0.5908   -0.1727
H   0.0535   -0.6290   -1.5350
H   -0.9153   -0.8061   1.1625
H   0.5947   0.9791   0.4031
H   -2.6717   -1.9700   0.2103
H   -1.8650   -2.2463   -1.2362
H   -0.4359   2.8186   0.7174
H   -1.0430   1.4323   1.7702
H   2.5800   0.1990   1.7181
H   1.6816   1.0165   -1.8550
H   2.4952   -1.4044   0.9499
H   1.1798   -0.8463   2.0044
H   2.9237   1.2269   -0.6115
H   2.7280   -0.3506   -1.4044
22
Frame 48: 48
C   -0.8693   -1.1203   0.1223
C   1.2071   0.0881   0.0528
C   -0.8102   1.8016   0.7699
C   1.9086   -0.5309   1.2534
C   2.1916   0.5229   -1.0194
N   0.2528   -0.8975   -0.5613
N   -2.0014   -1.5890   -0.4618
O   -1.6000   1.4778   -0.2977
H   -1.9655   0.5908   -0.1729
H   0.0536   -0.6290   -1.5350
H   -0.9154   -0.8061   1.1624
H   0.5947   0.9791   0.4031
H   -2.6718   -1.9700   0.2099
H   -1.8649   -2.2462   -1.2365
H   -0.4359   2.8186   0.7174
H   -1.0432   1.4323   1.7701
H   2.5798   0.1989   1.7184
H   1.6818   1.0166   -1.8549
H   2.4951   -1.4045   0.9501
H   1.1796   -0.8463   2.0045
H   2.9237   1.2269   -0.6112
H   2.7281   -0.3505   -1.4042
22
Frame 49: 49
C   -0.8693   -1.1203   0.1222
C   1.2071   0.0881   0.0529
C   -0.8103   1.8016   0.7698
C   1.9085   -0.5310   1.2535
C   2.1917   0.5230   -1.0192
N   0.2529   -0.8975   -0.5614
N   -2.0013   -1.5890   -0.4620
O   -1.6000   1.4779   -0.2978
H   -1.9655   0.5908   -0.1732
H   0.0538   -0.6289   -1.5350
H   -0.9155   -0.8062   1.1622
H   0.5946   0.9791   0.4032
H   -2.6718   -1.9700   0.2096
H   -1.8647   -2.2462   -1.2368
H   -0.4360   2.8186   0.7174
H   -1.0433   1.4322   1.7700
H   2.5797   0.1989   1.7186
H   1.6820   1.0166   -1.8547
H   2.4950   -1.4045   0.9503
H   1.1794   -0.8464   2.0046
H   2.9238   1.2269   -0.6109
H   2.7283   -0.3505   -1.4040
22
Frame 50: 50
C   -0.8693   -1.1203   0.1221
C   1.2071   0.0881   0.0530
C   -0.8103   1.8015   0.7697
C   1.9084   -0.5310   1.2537
C   2.1918   0.5230   -1.0190
N   0.2529   -0.8974   -0.5614
N   -2.0013   -1.5890   -0.4623
O   -1.5999   1.4779   -0.2979
H   -1.9654   0.5908   -0.1734
H   0.0539   -0.6289   -1.5351
H   -0.9156   -0.8062   1.1621
H   0.5946   0.9791   0.4033
H   -2.6718   -1.9700   0.2092
H   -1.8646   -2.2462   -1.2370
H   -0.4360   2.8186   0.7174
H   -1.0435   1.4322   1.7699
H   2.5795   0.1988   1.7188
H   1.6822   1.0167   -1.8545
H   2.4949   -1.4045   0.9505
H   1.1792   -0.8464   2.0046
H   2.9239   1.2269   -0.6107
H   2.7284   -0.3505   -1.4037
22
Frame 51: 51
C   -0.8693   -1.1203   0.1219
C   1.2071   0.0881   0.0531
C   -0.8104   1.8015   0.7697
C   1.9082   -0.5310   1.2538
C   2.1919   0.5230   -1.0188
N   0.2530   -0.8974   -0.5614
N   -2.0012   -1.5889   -0.4626
O   -1.5999   1.4779   -0.2981
H   -1.9654   0.5909   -0.1736
H   0.0541   -0.6289   -1.5351
H   -0.9158   -0.8062   1.1620
H   0.5946   0.9791   0.4033
H   -2.6718   -1.9700   0.2089
H   -1.8645   -2.2461   -1.2373
H   -0.4361   2.8186   0.7175
H   -1.0437   1.4321   1.7698
H   2.5794   0.1987   1.7191
H   1.6824   1.0167   -1.8543
H   2.4948   -1.4046   0.9507
H   1.1790   -0.8465   2.0047
H   2.9240   1.2269   -0.6104
H   2.7286   -0.3505   -1.4035
22
Frame 52: 52
C   -0.8693   -1.1203   0.1218
C   1.2071   0.0881   0.0532
C   -0.8104   1.8015   0.7696
C   1.9081   -0.5311   1.2540
C   2.1920   0.5230   -1.0186
N   0.2531   -0.8974   -0.5614
N   -2.0012   -1.5889   -0.4628
O   -1.5998   1.4779   -0.2982
H   -1.9654   0.5909   -0.1738
H   0.0543   -0.6288   -1.5352
H   -0.9159   -0.8062   1.1618
H   0.5946   0.9791   0.4034
H   -2.6718   -1.9700   0.2085
H   -1.8644   -2.2461   -1.2376
H   -0.4361   2.8186   0.7175
H   -1.0438   1.4321   1.7697
H   2.5792   0.1987   1.7193
H   1.6826   1.0168   -1.8542
H   2.4947   -1.4046   0.9508
H   1.1788   -0.8465   2.0048
H   2.9241   1.2269   -0.6101
H   2.7287   -0.3504   -1.4033
22
Frame 53: 53
C   -0.8693   -1.1203   0.1216
C   1.2071   0.0881   0.0533
C   -0.8105   1.8015   0.7696
C   1.9080   -0.5311   1.2541
C   2.1921   0.5231   -1.0184
N   0.2531   -0.8974   -0.5615
N   -2.0011   -1.5889   -0.4631
O   -1.5998   1.4779   -0.2984
H   -1.9654   0.5909   -0.1740
H   0.0544   -0.6288   -1.5352
H   -0.9160   -0.8063   1.1617
H   0.5945   0.9790   0.4035
H   -2.6719   -1.9699   0.2082
H   -1.8643   -2.2460   -1.2379
H   -0.4362   2.8185   0.7175
H   -1.0440   1.4320   1.7696
H   2.5790   0.1986   1.7196
H   1.6828   1.0168   -1.8540
H   2.4946   -1.4046   0.9510
H   1.1786   -0.8466   2.0048
H   2.9241   1.2269   -0.6098
H   2.7289   -0.3504   -1.4030
