7
Iter 0 Point 0  Energy = -153.9020912252
C   0.8549809932  0.5115467156 -0.1288594569
H   0.4347730737  1.2252510431 -0.9033913776
O   0.5766268032  1.0419557361  1.1237265445
C   1.4177987432 -0.5509157015 -0.4282879621
H   0.9453474834  0.4027794495  1.7467635263
H   1.5768503507 -0.8946630142 -1.4621860183
H   1.7948671457 -1.2455592139  0.3461821503
7
Iter 0 Point 1  Energy = -153.9123889352
C   0.8225140897  0.5826508368 -0.1244976190
H   0.4475113125  1.1993259726 -0.8805676780
O   0.5822756105  1.0282394065  1.1134141623
C   1.4370564346 -0.5906442266 -0.4389935225
H   0.9423562352  0.4079963237  1.7440596114
H   1.5777388065 -0.8965758912 -1.4595835206
H   1.7917921053 -1.2405974059  0.3401159730
7
Iter 0 Point 2  Energy = -153.9014915556
C   0.8474819452  0.5438383254 -0.1184325276
H   0.4491105973  1.1933125932 -0.8779869388
O   0.5795648354  1.0308665349  1.1109953857
C   1.4068459688 -0.5374985870 -0.4883520601
H   0.9412041608  0.4099182249  1.7392508207
H   1.5760803717 -0.8925028959 -1.4319459545
H   1.8009567160 -1.2575391836  0.3604186809
7
Iter 0 Point 3  Energy = -153.9154256400
C   0.8223430085  0.5509437037 -0.1355804015
H   0.4428432782  1.2245368785 -0.8935555435
O   0.5878006432  1.0322031472  1.1141201600
C   1.4322208985 -0.5885811111 -0.4305668383
H   0.9418954354  0.4005780216  1.7450553945
H   1.5727764702 -0.8875115027 -1.4564025019
H   1.8013630841 -1.2417802562  0.3508694959
7
Iter 0 Point 4  Energy = -153.8995554864
C   0.7972144966  0.5580448998 -0.1527335709
H   0.4365735873  1.2557680696 -0.9091283201
O   0.5960414277  1.0335253381  1.1172528734
C   1.4575924657 -0.6396611117 -0.3727733221
H   0.9425812494  0.3912466861  1.7508503458
H   1.5694735470 -0.8825253146 -1.4808473318
H   1.8017679543 -1.2260195026  0.3413178471
7
Iter 0 Point 5  Energy = -153.9136044696
C   0.8142354268  0.5338790358 -0.1426508904
H   0.4378083721  1.2511785804 -0.9072038250
O   0.5944858795  1.0342958810  1.1139510022
C   1.4262194971 -0.5869385117 -0.4271178187
H   0.9416771542  0.3927675576  1.7467923134
H   1.5698542528 -0.8826503172 -1.4630205769
H   1.8169641438 -1.2521531615  0.3731883155
7
Iter 0 Point 6  Energy = -153.9017166116
C   0.7910536989  0.5948678789 -0.1419902128
H   0.4488382514  1.2236399994 -0.8851517047
O   0.5976405494  1.0227080988  1.1104797255
C   1.4511594632 -0.6351246333 -0.4282326975
H   0.9382021431  0.3991542513  1.7411023978
H   1.5695799805 -0.8825097833 -1.4523343929
H   1.8047706371 -1.2323567458  0.3500654076
