7
Iteration 1  Energy = -153.8233087290
C   0.8097706054  0.7172678927 -0.1266685704
H   0.5977944450  1.3569081639 -0.9759500955
O   0.4796701854  1.0787741390  1.0688017573
C   1.3069627641 -0.5684263379 -0.1897664414
H   0.8694928576 -0.1140580610  1.4164123477
H   1.2490360338 -1.0009458317 -1.1735907635
H   2.2258418328 -0.8571973817  0.3122349464
7
Iteration 2  Energy = -153.8218903022
C   0.8031973305  0.7282632434 -0.1372855009
H   0.5542588369  1.3832981162 -0.9659311627
O   0.4921149776  1.0681883092  1.0654631367
C   1.3024189832 -0.5703974140 -0.1820506127
H   0.8380303525 -0.1633332975  1.3911744193
H   1.2781092977 -1.0356280689 -1.1581782039
H   2.2067099083 -0.7391413515  0.3995999848
7
Iteration 3  Energy = -153.8200300919
C   0.7914777782  0.7352126009 -0.1502300847
H   0.5435712226  1.3899779167 -0.9754426743
O   0.5056960432  1.0580787066  1.0657010891
C   1.2971342663 -0.5596781209 -0.1768840038
H   0.8322166539 -0.2124000998  1.3484937981
H   1.3354647154 -1.0995182596 -1.1101328416
H   2.1529142328 -0.6829379884  0.4926495214
7
Iteration 4  Energy = -153.8201450113
C   0.7887292444  0.7374888242 -0.1518733769
H   0.5401261539  1.3897262777 -0.9765018991
O   0.5082935180  1.0557181673  1.0654075005
C   1.2972292026 -0.5575328653 -0.1732866923
H   0.8183187391 -0.2145417502  1.3125814131
H   1.3408542306 -1.1102051432 -1.0951260295
H   2.1552599217 -0.6850761269  0.4959907983
7
Iteration 5  Energy = -153.8207116896
C   0.7860198736  0.7408843908 -0.1559104031
H   0.5351063375  1.3893791042 -0.9809677768
O   0.5123132555  1.0502775493  1.0657639269
C   1.2959695848 -0.5536679224 -0.1654819981
H   0.8063964366 -0.2032009340  1.2323372747
H   1.3442209441 -1.1296324033 -1.0732396304
H   2.1523271864 -0.6768027424  0.5082629089
7
Iteration 6  Energy = -153.8208646245
C   0.7827803479  0.7382280475 -0.1557817401
H   0.5206170532  1.3822870747 -0.9838827497
O   0.5124994389  1.0530370686  1.0650382170
C   1.3046766862 -0.5518092857 -0.1626899786
H   0.7693750124 -0.2023577037  1.1681183776
H   1.3371732769 -1.1685744433 -1.0467014839
H   2.1427808479 -0.6659054004  0.5255749871
7
Iteration 7  Energy = -153.8210449638
C   0.7826833712  0.7353365484 -0.1528439173
H   0.5185716768  1.3826808684 -0.9810298895
O   0.5112534760  1.0560737121  1.0664592517
C   1.3078081068 -0.5530623685 -0.1646495734
H   0.7648135724 -0.1888755659  1.1297815501
H   1.3283809281 -1.1749971592 -1.0436064825
H   2.1417983742 -0.6721707818  0.5237529391
7
Iteration 8  Energy = -153.8210810101
C   0.7840577511  0.7346550523 -0.1507604147
H   0.5157714379  1.3827818323 -0.9770089946
O   0.5041241599  1.0544256268  1.0682731889
C   1.3164792447 -0.5498027421 -0.1690116258
H   0.7583137693 -0.1918686904  1.1242084951
H   1.3293949691 -1.1741869875 -1.0457179106
H   2.1435497323 -0.6746452308  0.5257328575
7
Iteration 9  Energy = -153.8210810487
C   0.7879980807  0.7364818531 -0.1499572558
H   0.5271453446  1.3875716475 -0.9762631444
O   0.4960030112  1.0512816343  1.0675955193
C   1.3215816717 -0.5474735474 -0.1680366872
H   0.7505933015 -0.1950909818  1.1211719709
H   1.3431058175 -1.1686502789 -1.0468784217
H   2.1419673424 -0.6744884619  0.5342130992
7
Iteration 10  Energy = -153.8210810955
C   0.7859816759  0.7333788311 -0.1497890515
H   0.5250554167  1.3844443943 -0.9760521268
O   0.4940510115  1.0481889617  1.0677055153
C   1.3196194243 -0.5505535576 -0.1678664219
H   0.7487163927 -0.1981656859  1.1212961778
H   1.3411332195 -1.1717387057 -1.0466517165
H   2.1400138871 -0.6775366991  0.5343040889
7
Iteration 11  Energy = -153.8210810267
C   0.7860657258  0.7333429964 -0.1497550812
H   0.5252876482  1.3845011099 -0.9759920760
O   0.4939455202  1.0480323334  1.0677252975
C   1.3196769335 -0.5505996665 -0.1678806300
H   0.7485733021 -0.1983339118  1.1212265357
H   1.3413182085 -1.1716934233 -1.0467273480
H   2.1399552841 -0.6776747217  0.5344090106
7
Iteration 1  Energy = -153.8233087834
C   0.8097706251  0.7172678879 -0.1266685758
H   0.5977946403  1.3569081731 -0.9759500937
O   0.4796701952  1.0787740885  1.0688017659
C   1.3069627060 -0.5684262971 -0.1897664914
H   0.8694928846 -0.1140579017  1.4164125536
H   1.2490360126 -1.0009458652 -1.1735907247
H   2.2258418797 -0.8571972798  0.3122350288
7
Iteration 2  Energy = -153.8218903375
C   0.8031973355  0.7282632670 -0.1372854769
H   0.5542590254  1.3832981153 -0.9659310997
O   0.4921149893  1.0681882366  1.0654631311
C   1.3024189116 -0.5703973897 -0.1820505364
H   0.8380302420 -0.1633330322  1.3911747249
H   1.2781090377 -1.0356281511 -1.1581780822
H   2.2067103287 -0.7391409796  0.3995996472
7
Iteration 3  Energy = -153.8200301160
C   0.7914777898  0.7352125712 -0.1502300020
H   0.5435712939  1.3899779152 -0.9754426617
O   0.5056960646  1.0580786869  1.0657010807
C   1.2971342022 -0.5596781445 -0.1768839269
H   0.8322166746 -0.2123998708  1.3484941541
H   1.3354646878 -1.0995181839 -1.1101328030
H   2.1529143183 -0.6829374990  0.4926492145
7
Iteration 4  Energy = -153.8201450155
C   0.7887292360  0.7374888184 -0.1518733162
H   0.5401261225  1.3897263487 -0.9765018196
O   0.5082935367  1.0557181677  1.0654074995
C   1.2972291700 -0.5575329299 -0.1732866335
H   0.8183187112 -0.2145415987  1.3125818017
H   1.3408541568 -1.1102050857 -1.0951259988
H   2.1552600957 -0.6850757544  0.4959907114
7
Iteration 5  Energy = -153.8207116343
C   0.7860198391  0.7408844014 -0.1559104035
H   0.5351063003  1.3893791101 -0.9809676928
O   0.5123132928  1.0502775330  1.0657639194
C   1.2959695574 -0.5536679123 -0.1654819064
H   0.8063963215 -0.2032011618  1.2323378640
H   1.3442208627 -1.1296324902 -1.0732394133
H   2.1523272762 -0.6768025577  0.5082628936
7
Iteration 6  Energy = -153.8208646180
C   0.7827802876  0.7382279722 -0.1557816501
H   0.5206172026  1.3822870140 -0.9838827655
O   0.5124995584  1.0530370719  1.0650382560
C   1.3046764722 -0.5518094075 -0.1626899050
H   0.7693752959 -0.2023572973  1.1681182379
H   1.3371732379 -1.1685744363 -1.0467015623
H   2.1427807123 -0.6659056893  0.5255751235
7
Iteration 7  Energy = -153.8210449735
C   0.7826832965  0.7353364918 -0.1528438403
H   0.5185717261  1.3826808662 -0.9810296509
O   0.5112536011  1.0560737414  1.0664592888
C   1.3078079740 -0.5530625455 -0.1646494941
H   0.7648137011 -0.1888753669  1.1297814839
H   1.3283806781 -1.1749970004 -1.0436065576
H   2.1417979942 -0.6721709943  0.5237529569
7
Iteration 8  Energy = -153.8210809983
C   0.7840573103  0.7346564239 -0.1507583090
H   0.5157705803  1.3827862802 -0.9770043143
O   0.5041262703  1.0544230575  1.0682769811
C   1.3164771356 -0.5498021168 -0.1690145179
H   0.7583145146 -0.1918715285  1.1242075513
H   1.3293898916 -1.1741838702 -1.0457226844
H   2.1435484377 -0.6746482343  0.5257280559
7
Iteration 9  Energy = -153.8210810226
C   0.7882677999  0.7367422374 -0.1503947205
H   0.5272719231  1.3878800021 -0.9766165897
O   0.4963692503  1.0514108237  1.0672145438
C   1.3219648977 -0.5471634996 -0.1686404947
H   0.7510773566 -0.1949438294  1.1206569400
H   1.3434551674 -1.1682627894 -1.0475379301
H   2.1424331302 -0.6741646196  0.5335134786
7
Iteration 10  Energy = -153.8210810592
C   0.7910924526  0.7434123622 -0.1492244083
H   0.5301333098  1.3945311740 -0.9754352369
O   0.4991803528  1.0581287994  1.0682989701
C   1.3247596195 -0.5405063885 -0.1674050059
H   0.7538754047 -0.1882238962  1.1217947680
H   1.3462687145 -1.1616279212 -1.0462353860
H   2.1451718883 -0.6675209011  0.5347388843
7
Iteration 11  Energy = -153.8210810649
C   0.7911735303  0.7433503389 -0.1493478448
H   0.5303742612  1.3946003947 -0.9755056527
O   0.4991494055  1.0579384144  1.0681818339
C   1.3247184517 -0.5406177676 -0.1676305615
H   0.7537177043 -0.1884456505  1.1215476769
H   1.3462700860 -1.1616288634 -1.0465379174
H   2.1450366991 -0.6678012780  0.5345926788
7
Iteration 1  Energy = -153.8247808061
C   0.8100968533  0.7182002049 -0.1265604849
H   0.5999575418  1.3575586286 -0.9758647878
O   0.4805978474  1.0757351138  1.0695777663
C   1.3069946468 -0.5693880291 -0.1874776857
H   0.8626783958 -0.1030529217  1.4120507536
H   1.2419874841 -0.9998837089 -1.1715195502
H   2.2386134921 -0.8589774701  0.2938093402
7
Iteration 2  Energy = -153.8240883419
C   0.8041464228  0.7333443985 -0.1383418436
H   0.5517697594  1.3916540368 -0.9626264747
O   0.4923761276  1.0626282853  1.0644483054
C   1.3040063853 -0.5745780794 -0.1737389621
H   0.8152975598 -0.1352777124  1.3811927180
H   1.2508294964 -1.0313749679 -1.1537774701
H   2.2449052983 -0.7399352529  0.3517797975
7
Iteration 3  Energy = -153.8225021255
C   0.7954116729  0.7459810528 -0.1547072563
H   0.5354597479  1.4112156032 -0.9672412135
O   0.5055608184  1.0472136720  1.0631422661
C   1.2990915380 -0.5667010388 -0.1613755193
H   0.7863535864 -0.1710779093  1.3376581655
H   1.2798652315 -1.0963244280 -1.1049949085
H   2.2144997675 -0.6585202498  0.4195622072
7
Iteration 4  Energy = -153.8215148987
C   0.7876875228  0.7521011292 -0.1697731994
H   0.5301518883  1.4145095968 -0.9810569520
O   0.5176861007  1.0354536421  1.0632908085
C   1.2920447510 -0.5516632569 -0.1518413969
H   0.7909610525 -0.1892174326  1.2637880498
H   1.3153872279 -1.1671796218 -1.0373530333
H   2.1632311880 -0.6382742863  0.5031642067
7
Iteration 5  Energy = -153.8204873059
C   0.7891732692  0.7377481523 -0.1668343093
H   0.5338515149  1.3724752878 -1.0025610443
O   0.4994481106  1.0533403466  1.0501448788
C   1.3154317069 -0.5534207087 -0.1378539143
H   0.7509240810 -0.2067213499  1.1996407923
H   1.3518330179 -1.2002897053 -0.9974723328
H   2.1562200057 -0.6375592955  0.5558988345
7
Iteration 6  Energy = -153.8210577041
C   0.7860853007  0.7154724768 -0.1628868398
H   0.5257086464  1.3268958491 -1.0201013043
O   0.4994991868  1.0841206660  1.0402681752
C   1.3203598492 -0.5686853823 -0.1256545197
H   0.7531993323 -0.1564208331  1.1426149082
H   1.3441140272 -1.2277229439 -0.9778390997
H   2.1470768964 -0.6560959040  0.5751755224
7
Iteration 7  Energy = -153.8210807075
C   0.7730518969  0.7096823887 -0.1645291038
H   0.4820933524  1.3104300909 -1.0190523158
O   0.4982872060  1.0834296147  1.0402633797
C   1.3337447877 -0.5625390598 -0.1250057266
H   0.7813984017 -0.1526760926  1.1550348722
H   1.3509289921 -1.2294517937 -0.9698105884
H   2.1707218910 -0.6349787537  0.5655585968
7
Iteration 8  Energy = -153.8210810011
C   0.7685651392  0.7085612573 -0.1647859550
H   0.4776665902  1.3088999646 -1.0189812069
O   0.4941744431  1.0824716657  1.0400058297
C   1.3287348928 -0.5635400882 -0.1254693810
H   0.7761102838 -0.1538483679  1.1546889783
H   1.3459858790 -1.2305244927 -0.9701181915
H   2.1653469578 -0.6361271124  0.5652015942
7
Iteration 9  Energy = -153.8210810252
C   0.7622085475  0.7069689126 -0.1638602638
H   0.4573857936  1.3015178470 -1.0173834911
O   0.4964110914  1.0828486565  1.0422772271
C   1.3342813780 -0.5599178917 -0.1254110180
H   0.7906769153 -0.1504952869  1.1587276867
H   1.3491721659 -1.2298671941 -0.9677668638
H   2.1784167596 -0.6223812673  0.5572111840
7
Iteration 10  Energy = -153.8210810453
C   0.7650268755  0.7052121470 -0.1622110085
H   0.4602315310  1.2997316723 -1.0156311616
O   0.4992126630  1.0810776130  1.0438944264
C   1.3370896263 -0.5616160352 -0.1238807632
H   0.7934902993 -0.1522078556  1.1602266728
H   1.3520209495 -1.2315355228 -0.9662478007
H   2.1811348249 -0.6240772198  0.5586889538
7
Iteration 11  Energy = -153.8210810560
C   0.7646106576  0.7053692473 -0.1619472184
H   0.4590152485  1.2991513624 -1.0155952104
O   0.4989883323  1.0817388553  1.0440432592
C   1.3376669955 -0.5609944409 -0.1231004897
H   0.7942649265 -0.1512512127  1.1609835915
H   1.3527793159 -1.2313977493 -0.9650796794
H   2.1820332346 -0.6224023890  0.5591686820
7
Iteration 1  Energy = -153.7978758235
C   0.8063683715  0.7013990219 -0.1129089931
H   0.6267521855  1.3002205300 -0.9954077606
O   0.4289720624  1.1750973818  1.0206998527
C   1.3429645460 -0.5567235625 -0.2073469223
H   0.9412780907 -0.1556885281  1.4611407997
H   1.2826981103 -0.9973844185 -1.1791700699
H   2.2071465318 -0.9252320240  0.2587236399
7
Iteration 2  Energy = -153.8020856774
C   0.7971400907  0.7236355859 -0.1270464213
H   0.5769536665  1.3127166725 -1.0170108987
O   0.4400441871  1.1629323441  1.0195416490
C   1.3420213887 -0.5630768999 -0.1915278703
H   0.8944295613 -0.2216383579  1.4182335141
H   1.2730501748 -1.0116353551 -1.1706576455
H   2.2589039982 -0.8537030265  0.3130672023
7
Iteration 3  Energy = -153.8061734571
C   0.7897947551  0.7439400285 -0.1379642197
H   0.5506787118  1.3349317340 -1.0221913164
O   0.4506418150  1.1492049632  1.0162760207
C   1.3409145113 -0.5641741434 -0.1733050099
H   0.8407406549 -0.2799008339  1.3365304582
H   1.2530205549 -1.0553020594 -1.1350193902
H   2.2914054253 -0.7849741059  0.3290999939
7
Iteration 4  Energy = -153.8243984844
C   0.7877302567  0.7489793181 -0.1295869067
H   0.5588080819  1.3343066575 -1.0221766349
O   0.4499155838  1.1532387096  1.0118809256
C   1.3389746875 -0.5671646735 -0.1625757928
H   0.8840420949 -0.3687997546  1.1794952345
H   1.2420427819 -1.0750065169 -1.1181779436
H   2.3101933538 -0.7641816981  0.3113709230
7
Iteration 5  Energy = -153.8497592573
C   0.7834827961  0.7510807877 -0.1157907950
H   0.5604842774  1.3288091329 -1.0234754696
O   0.4479006532  1.1670888898  0.9992783883
C   1.3399715022 -0.5769981716 -0.1534794006
H   0.9315745834 -0.5145830955  1.1146792161
H   1.2505718548 -1.0831002881 -1.1095177503
H   2.3231700102 -0.7325050373  0.2960741188
7
Iteration 6  Energy = -153.8745631142
C   0.7737600826  0.7480821220 -0.1131115080
H   0.5510165883  1.3095208067 -1.0349907402
O   0.4458956329  1.1803397794  0.9873553253
C   1.3465481628 -0.5807449231 -0.1370121642
H   0.9644380715 -0.6608272232  1.0839030388
H   1.2725228279 -1.1031030426 -1.0880596249
H   2.3471343534 -0.6769117198  0.2780065788
7
Iteration 7  Energy = -153.8978258456
C   0.7728159511  0.7544244002 -0.1114147291
H   0.5539731779  1.3200776541 -1.0387046689
O   0.4453201313  1.1844842932  0.9849986531
C   1.3497850532 -0.5821415376 -0.1255839641
H   0.9364747248 -0.8040733999  1.0031105457
H   1.2475284733 -1.1359128378 -1.0597280016
H   2.3789500756 -0.6361253491  0.2151935685
7
Iteration 8  Energy = -153.9104842245
C   0.7708922655  0.7588829181 -0.1046601823
H   0.5675555632  1.3190866331 -1.0363470128
O   0.4441713077  1.1901736447  0.9812968943
C   1.3578211332 -0.5835183340 -0.1199416286
H   0.8791974101 -0.9370500706  0.9466480935
H   1.2071504430 -1.1768366745 -1.0246263294
H   2.4084238737 -0.5882561052  0.1452339244
7
Iteration 9  Energy = -153.9150593842
C   0.7684075245  0.7613912182 -0.0962907386
H   0.5915869932  1.3149267791 -1.0362290078
O   0.4410235836  1.2011384712  0.9784757057
C   1.3656793881 -0.5898892413 -0.1164998628
H   0.8480432442 -1.0799706888  0.8970100922
H   1.1699677809 -1.2015826677 -0.9989402294
H   2.4386610594 -0.5444380934  0.0731072972
7
Iteration 10  Energy = -153.9119877635
C   0.7696798240  0.7509898084 -0.0817006039
H   0.6336048638  1.3059765556 -1.0299039551
O   0.4323437185  1.2258761506  0.9755503601
C   1.3706936211 -0.6047047612 -0.1202130851
H   0.8622092703 -1.1954204587  0.9013928766
H   1.1608370625 -1.1741356706 -1.0263484984
H   2.4544667381 -0.5396450193  0.0066332379
7
Iteration 11  Energy = -153.9197210169
C   0.7720983496  0.7206959163 -0.0665361441
H   0.6919010561  1.2558553501 -1.0334866610
O   0.4342265914  1.2281246112  0.9688752888
C   1.3620850480 -0.5829988430 -0.1225163310
H   0.8985891553 -1.1286373494  0.8417606161
H   1.1238279242 -1.1385822266 -1.0258696363
H   2.4406735827 -0.5252164453  0.0220656461
7
Iteration 12  Energy = -153.9180128884
C   0.7782420924  0.7356796534 -0.0649695539
H   0.6927867585  1.2843546885 -1.0237456849
O   0.4245080623  1.2452980729  0.9687262402
C   1.3657058529 -0.6126477725 -0.1200635590
H   0.9230983886 -1.2476850031  0.8600781053
H   1.1243657128 -1.1376154489 -1.0438370766
H   2.4526421238 -0.5334661647 -0.0335531607
7
Iteration 13  Energy = -153.9125825423
C   0.7984765722  0.7379694086 -0.0606692880
H   0.7603151161  1.2978557611 -1.0210432397
O   0.4145438399  1.2675447736  0.9613097950
C   1.3553031896 -0.6341595558 -0.1143784973
H   0.9331370103 -1.3372699485  0.8827855720
H   1.0949658462 -1.1429199089 -1.0411156166
H   2.4454738484 -0.5761388549 -0.0629544702
7
Iteration 14  Energy = -153.9060443729
C   0.8201836531  0.7388622545 -0.0596797541
H   0.8293238550  1.3065124414 -1.0161606109
O   0.4138960731  1.2863187602  0.9499932910
C   1.3334132871 -0.6490087437 -0.1026287959
H   0.9338373876 -1.4149220256  0.9066512878
H   1.0577219075 -1.1549819474 -1.0261760244
H   2.4254657103 -0.6267612955 -0.0788131527
7
Iteration 15  Energy = -153.9115010762
C   0.8234716099  0.7596178423 -0.0572569526
H   0.8358275226  1.2486887380 -1.0598192321
O   0.4159226003  1.2763357699  0.9458296843
C   1.3235846606 -0.6575933617 -0.0908997027
H   1.0181260888 -1.4646143756  0.8411302878
H   1.0238552409 -1.1145618647 -1.0326141319
H   2.4143113089 -0.5462405391 -0.0657404658
7
Iteration 16  Energy = -153.9133444826
C   0.8276358643  0.7279268315 -0.0695438705
H   0.8383239328  1.3014461381 -1.0243666935
O   0.4079523900  1.2916519543  0.9610104670
C   1.3300260535 -0.6535125707 -0.0973684912
H   0.9765592979 -1.3932506719  0.8516622672
H   1.0557655702 -1.1208893407 -1.0418728867
H   2.4216014531 -0.5781385525 -0.1199289913
7
Iteration 17  Energy = -153.9085883882
C   0.8297852659  0.7163734927 -0.0644661252
H   0.8293742093  1.3536870054 -0.9738804578
O   0.4025080453  1.2785486119  0.9747540157
C   1.3393764974 -0.6395575547 -0.1200889102
H   0.9371005041 -1.3067563946  0.8860175896
H   1.0434805292 -1.0836931174 -1.0724111541
H   2.4316832761 -0.5747135474 -0.1821038174
7
Iteration 18  Energy = -153.9157820581
C   0.8338002440  0.7103701146 -0.0712488298
H   0.8213300140  1.3660443942 -0.9617152361
O   0.4010285279  1.2804870303  0.9777906618
C   1.3357736591 -0.6368840366 -0.1150815770
H   0.9797701612 -1.2953839695  0.8160137673
H   1.0320339085 -1.0893188834 -1.0595634964
H   2.4270764255 -0.5839067035 -0.1641558628
7
Iteration 19  Energy = -153.9223636654
C   0.8335327784  0.7101580924 -0.0684342309
H   0.8163290079  1.3705719544 -0.9501099885
O   0.4019670398  1.2792817098  0.9747544020
C   1.3325950600 -0.6351757069 -0.1110027958
H   1.0216702761 -1.2702467150  0.7399505686
H   1.0252488717 -1.1027112724 -1.0457643442
H   2.4231284660 -0.5988777938 -0.1474448002
7
Iteration 20  Energy = -153.9221922412
C   0.8357539440  0.7126571243 -0.0635387550
H   0.8112611106  1.3818642807 -0.9355323834
O   0.4022281161  1.2760516909  0.9712840327
C   1.3305433630 -0.6279436395 -0.1146030922
H   1.0608244175 -1.2768127222  0.7098895464
H   0.9866495027 -1.1324796042 -1.0177345896
H   2.4214778463 -0.6385212249 -0.1203410597
7
Iteration 21  Energy = -153.9195772480
C   0.8448818414  0.7094801418 -0.0721000447
H   0.8298156671  1.3844637281 -0.9376656280
O   0.3986098757  1.2785651909  0.9776868057
C   1.3269356517 -0.6291533020 -0.1142869784
H   1.0741789126 -1.2461918869  0.7400092676
H   0.9514631110 -1.1442090013 -0.9984415029
H   2.4164077461 -0.6476364965 -0.1709997901
7
Iteration 22  Energy = -153.9199130464
C   0.8438221299  0.7089376406 -0.0652983029
H   0.8234750883  1.3938164274 -0.9231363019
O   0.4006359850  1.2764813890  0.9716970803
C   1.3254733390 -0.6241541696 -0.1149074905
H   1.0804043126 -1.2551876502  0.7315558605
H   0.9517877605 -1.1564296056 -0.9883663034
H   2.4140914427 -0.6558024599 -0.1657353908
7
Iteration 23  Energy = -153.9184198099
C   0.8481084906  0.7044967582 -0.0643157434
H   0.8291952605  1.3991576705 -0.9134780197
O   0.3997573985  1.2760425062  0.9708781561
C   1.3227245017 -0.6201334225 -0.1145859386
H   1.0872565010 -1.2416836213  0.7402217539
H   0.9402377975 -1.1604960283 -0.9782897885
H   2.4086937676 -0.6586100781 -0.1966780538
7
Iteration 24  Energy = -153.9175743492
C   0.8501215958  0.7015607042 -0.0585340470
H   0.8345435808  1.3971460969 -0.9059042596
O   0.4003736271  1.2739670168  0.9671473488
C   1.3197139642 -0.6130018020 -0.1156978893
H   1.0980041685 -1.2387067155  0.7397529318
H   0.9316618356 -1.1700827687 -0.9655637207
H   2.4032776496 -0.6670387426 -0.2129373548
7
Iteration 25  Energy = -153.9166454929
C   0.8541250262  0.6984722257 -0.0593745779
H   0.8487054350  1.3848808946 -0.9125045462
O   0.3988630991  1.2740581924  0.9688284603
C   1.3170087497 -0.6098898461 -0.1153245624
H   1.1047178294 -1.2230469684  0.7506585193
H   0.9257201794 -1.1712467338 -0.9600923995
H   2.3968508971 -0.6709972308 -0.2438288805
7
Iteration 26  Energy = -153.9125808866
C   0.8565925204  0.6912522523 -0.0577769659
H   0.8471744629  1.3839432058 -0.9040728092
O   0.3991336686  1.2737705792  0.9672397414
C   1.3136217344 -0.6003388106 -0.1155363258
H   1.1121508353 -1.2265534072  0.7438879465
H   0.9317977181 -1.1781024365 -0.9532005599
H   2.3915335835 -0.6829086494 -0.2436790334
7
Iteration 27  Energy = -153.9116314353
C   0.8568076745  0.6878990201 -0.0512284116
H   0.8554056476  1.3666651635 -0.9076486618
O   0.4007041301  1.2710752518  0.9633244613
C   1.3103387068 -0.5924113659 -0.1169288450
H   1.1200085845 -1.2194495229  0.7429734308
H   0.9318841692 -1.1767753654 -0.9503034042
H   2.3869876333 -0.6857860439 -0.2413801537
7
Iteration 28  Energy = -153.9058288671
C   0.8611079416  0.6784018711 -0.0548943254
H   0.8572369829  1.3622481159 -0.9056889723
O   0.3996084920  1.2722507676  0.9656203409
C   1.3078957831 -0.5849245930 -0.1168474654
H   1.1211481748 -1.2169354052  0.7380673638
H   0.9270605287 -1.1736931816 -0.9446339825
H   2.3840988739 -0.6816681239 -0.2378313010
7
Iteration 29  Energy = -153.9047246789
C   0.8610112583  0.6759347394 -0.0485688908
H   0.8634849070  1.3497147880 -0.9072248183
O   0.4020115779  1.2681778239  0.9604782033
C   1.3046217957 -0.5772274402 -0.1159670712
H   1.1211511313 -1.2120049093  0.7380963776
H   0.9264246111 -1.1693779002 -0.9425969311
H   2.3805059437 -0.6760544477 -0.2426078670
7
Iteration 30  Energy = -153.9032393925
C   0.8652890388  0.6740222230 -0.0515064600
H   0.8781008060  1.3400489935 -0.9159706278
O   0.4017835477  1.2667843828  0.9604733922
C   1.3008814062 -0.5745639870 -0.1124336945
H   1.1281111204 -1.1983623440  0.7509569969
H   0.9084129525 -1.1650095898 -0.9334785396
H   2.3741588706 -0.6712291497 -0.2628647844
7
Iteration 31  Energy = -153.9016616666
C   0.8678291008  0.6718206440 -0.0481328278
H   0.8881785284  1.3333300235 -0.9167850846
O   0.4025590742  1.2647155895  0.9587933986
C   1.2981472534 -0.5702222326 -0.1133390406
H   1.1387232487 -1.1847415626  0.7585221428
H   0.8845836033 -1.1643828108 -0.9208916514
H   2.3673030201 -0.6714213957 -0.2849493430
7
Iteration 32  Energy = -153.8988111419
C   0.8737060696  0.6685873912 -0.0482803309
H   0.9038775639  1.3305414485 -0.9165512573
O   0.4027140202  1.2644879442  0.9589040265
C   1.2933163853 -0.5677240810 -0.1133509512
H   1.1407392134 -1.1708964086  0.7662718539
H   0.8610735069 -1.1610461970 -0.9107075392
H   2.3581754565 -0.6734448360 -0.3029731577
7
Iteration 33  Energy = -153.8970683272
C   0.8789742446  0.6670115737 -0.0438100236
H   0.9228047377  1.3296513787 -0.9123140384
O   0.4040788296  1.2628665687  0.9578011604
C   1.2876338439 -0.5653225004 -0.1159408293
H   1.1336864956 -1.1600831472  0.7681810955
H   0.8414681063 -1.1522698109 -0.9091876931
H   2.3491812535 -0.6762521852 -0.3155409920
7
Iteration 34  Energy = -153.8951973958
C   0.8750584055  0.6626399411 -0.0466839229
H   0.9091292236  1.3216239264 -0.9186680422
O   0.4029852478  1.2624669311  0.9574027015
C   1.2930154080 -0.5615982976 -0.1127501043
H   1.1500081812 -1.1476523341  0.7782316090
H   0.8367785183 -1.1538695158 -0.8966039731
H   2.3511177443 -0.6649982528 -0.3292716804
7
Iteration 35  Energy = -153.8932716560
C   0.8820681150  0.6624930579 -0.0427075779
H   0.9287877638  1.3228402676 -0.9132352805
O   0.4042499376  1.2618377650  0.9569348637
C   1.2849635023 -0.5605666716 -0.1155313874
H   1.1413083805 -1.1475246961  0.7740555654
H   0.8273227368 -1.1486912963 -0.9004271731
H   2.3419604795 -0.6720796598 -0.3335191765
7
Iteration 36  Energy = -153.8884790509
C   0.8784152355  0.6558871804 -0.0452067271
H   0.9162748512  1.3135109179 -0.9170215731
O   0.4031274136  1.2617131527  0.9567570350
C   1.2894130416 -0.5536687265 -0.1126685269
H   1.1577385536 -1.1427537844  0.7762573270
H   0.8312236409 -1.1510284022 -0.8903909238
H   2.3424655236 -0.6666876113 -0.3434811024
7
Iteration 37  Energy = -153.8863864929
C   0.8840543579  0.6564321931 -0.0396206937
H   0.9347314585  1.3098589940 -0.9126974453
O   0.4047048219  1.2604475229  0.9557509912
C   1.2814842775 -0.5512934026 -0.1157790807
H   1.1528323586 -1.1486676131  0.7675109324
H   0.8287472180 -1.1479995160 -0.8962861233
H   2.3336370271 -0.6748582345 -0.3466934854
7
Iteration 38  Energy = -153.8817420813
C   0.8799558019  0.6500591604 -0.0441230274
H   0.9177295431  1.3075742373 -0.9135551285
O   0.4033388237  1.2610116299  0.9561849745
C   1.2874446693 -0.5460415140 -0.1125501175
H   1.1639486780 -1.1436750299  0.7699061196
H   0.8309032889 -1.1507944407 -0.8849885776
H   2.3368621218 -0.6703668480 -0.3512426385
7
Iteration 39  Energy = -153.8761432057
C   0.8845951305  0.6459783248 -0.0385231592
H   0.9217833726  1.3111464331 -0.9016310952
O   0.4047039253  1.2593482289  0.9549492246
C   1.2816826056 -0.5414019600 -0.1182451784
H   1.1618019908 -1.1326837020  0.7663519082
H   0.8240877152 -1.1502092303 -0.8837960249
H   2.3334821518 -0.6657738877 -0.3400565076
7
Iteration 40  Energy = -153.8725193956
C   0.8807534192  0.6418682453 -0.0439346671
H   0.9073884617  1.3123260505 -0.8997043846
O   0.4049872462  1.2573944835  0.9536291725
C   1.2868231324 -0.5366627009 -0.1134174235
H   1.1614075903 -1.1231492983  0.7704984348
H   0.8151452139 -1.1465571117 -0.8676700709
H   2.3372415613 -0.6566260651 -0.3343483316
7
Iteration 41  Energy = -153.8699855146
C   0.8880539406  0.6426914272 -0.0429276041
H   0.9143705043  1.3266179299 -0.8871211473
O   0.4065540918  1.2557218271  0.9522176772
C   1.2784001789 -0.5369847305 -0.1152291358
H   1.1559512254 -1.1143806816  0.7741923670
H   0.8075771654 -1.1499325591 -0.8657248824
H   2.3317897143 -0.6557361847 -0.3205790551
7
Iteration 42  Energy = -153.8673691951
C   0.8831158011  0.6391688825 -0.0490988464
H   0.8986436228  1.3317652687 -0.8846932641
O   0.4063327707  1.2549655644  0.9513255885
C   1.2848921777 -0.5336934248 -0.1092904306
H   1.1549661806 -1.1081962851  0.7801649251
H   0.8060718711 -1.1467522306 -0.8543832023
H   2.3350043684 -0.6554920583 -0.3233915693
7
Iteration 43  Energy = -153.8581578345
C   0.8896024355  0.6340976135 -0.0461369011
H   0.9014646245  1.3340862314 -0.8733340937
O   0.4072765496  1.2537401582  0.9499127810
C   1.2773946404 -0.5280614789 -0.1119397430
H   1.1572198620 -1.0996796512  0.7779890145
H   0.8055029125 -1.1498856558 -0.8512991441
H   2.3275641235 -0.6504267278 -0.3169601980
7
Iteration 44  Energy = -153.8454252136
C   0.8927049974  0.6258804998 -0.0487798346
H   0.9049484396  1.3207273216 -0.8676280756
O   0.4072591294  1.2533292034  0.9505584600
C   1.2742433753 -0.5196189433 -0.1100059364
H   1.1580230070 -1.0956645828  0.7719664724
H   0.8092825666 -1.1405081391 -0.8497802468
H   2.3203543213 -0.6466237606 -0.3199610901
7
Iteration 45  Energy = -153.8430556171
C   0.8928092535  0.6264652348 -0.0504102799
H   0.9172624717  1.2870984385 -0.8697316591
O   0.4082679783  1.2506686793  0.9500702775
C   1.2716758862 -0.5155607123 -0.1056612524
H   1.1594434760 -1.0987883497  0.7702383985
H   0.8111992495 -1.1272834133 -0.8590918606
H   2.3180417055 -0.6361917331 -0.3314113009
7
Iteration 46  Energy = -153.8377896343
C   0.8940545730  0.6242524705 -0.0526421240
H   0.9251526120  1.2748744304 -0.8798630351
O   0.4093188493  1.2484252987  0.9488282627
C   1.2680562049 -0.5106397386 -0.0984695268
H   1.1637293940 -1.1088704884  0.7651376654
H   0.8161854956 -1.1119228351 -0.8687505618
H   2.3124911166 -0.6259096277 -0.3459074531
7
Iteration 47  Energy = -153.8314424644
C   0.8956262342  0.6215152058 -0.0519227730
H   0.9222985718  1.2848552532 -0.8694219160
O   0.4109089961  1.2468507787  0.9445251129
C   1.2643355150 -0.5069246320 -0.0916615042
H   1.1705297039 -1.1237570208  0.7551803158
H   0.8193705447 -1.0990957436 -0.8759983034
H   2.3057264823 -0.6204877275 -0.3605379038
7
Iteration 48  Energy = -153.8271719068
C   0.8993358123  0.6206760473 -0.0448125907
H   0.9359123740  1.2836918496 -0.8535061893
O   0.4116037662  1.2456026189  0.9437013161
C   1.2597846522 -0.5047168366 -0.0962616668
H   1.1709310050 -1.1306129387  0.7407254282
H   0.8087693056 -1.0886712280 -0.8853139607
H   2.3013100499 -0.6193951151 -0.3695148708
7
Iteration 49  Energy = -153.8234627991
C   0.8951642764  0.6171278904 -0.0498795053
H   0.9259384002  1.2719617195 -0.8642818406
O   0.4111496408  1.2458249446  0.9427486518
C   1.2641060279 -0.5011559768 -0.0885291229
H   1.1816398898 -1.1372199634  0.7402889842
H   0.8110050747 -1.0826219909 -0.8823650322
H   2.3037619741 -0.6107851691 -0.3778933198
7
Iteration 50  Energy = -153.8166055311
C   0.8999939781  0.6134579640 -0.0419281174
H   0.9299884569  1.2766532893 -0.8519349824
O   0.4112242836  1.2462072024  0.9422495011
C   1.2593868237 -0.4987920769 -0.0952710791
H   1.1852375468 -1.1330228357  0.7329864553
H   0.8033659817 -1.0828535582 -0.8890747974
H   2.3012513940 -0.6099484757 -0.3827154357
7
Iteration 51  Energy = -153.8126997059
C   0.8951076131  0.6120685800 -0.0470370784
H   0.9253949339  1.2586447309 -0.8595181764
O   0.4118699268  1.2435536033  0.9405124236
C   1.2632011428 -0.4933325941 -0.0888532510
H   1.1895966525 -1.1287411693  0.7359730625
H   0.8027913605 -1.0815758981 -0.8763385701
H   2.3045861444 -0.6038748143 -0.3788812450
7
Iteration 52  Energy = -153.8088751193
C   0.8987595739  0.6139786293 -0.0436925834
H   0.9448611809  1.2336087207 -0.8686352935
O   0.4133627579  1.2404647388  0.9389285780
C   1.2572137700 -0.4895576773 -0.0895059960
H   1.1910669071 -1.1256608548  0.7301486255
H   0.7955220245 -1.0795904824 -0.8721369976
H   2.2950522502 -0.6026173580 -0.3750762164
7
Iteration 53  Energy = -153.8035516629
C   0.8934780665  0.6078964280 -0.0429309944
H   0.9359723247  1.2255184834 -0.8911361559
O   0.4128252608  1.2407469905  0.9384227701
C   1.2621561580 -0.4836698580 -0.0874298762
H   1.2016993930 -1.1255142690  0.7301896027
H   0.7977062575 -1.0804834862 -0.8693015877
H   2.3036974066 -0.5959448470 -0.3812377058
7
Iteration 54  Energy = -153.7992455442
C   0.9019696137  0.6089797673 -0.0444469546
H   0.9515092863  1.2269034178 -0.8863498031
O   0.4135618025  1.2398158894  0.9383093947
C   1.2535950465 -0.4840901582 -0.0871613435
H   1.1940211328 -1.1148894650  0.7351652996
H   0.7872447653 -1.0820662664 -0.8666709945
H   2.2954366884 -0.5994877864 -0.3769668460
7
Iteration 55  Energy = -153.7948520199
C   0.8953707297  0.6058383377 -0.0473888185
H   0.9413206965  1.2192656733 -0.8915801921
O   0.4138098478  1.2374528020  0.9370499414
C   1.2602006636 -0.4784559183 -0.0840875132
H   1.1930908508 -1.1024354547  0.7403706920
H   0.7903856227 -1.0804498918 -0.8528487300
H   2.2993989957 -0.5981171759 -0.3723475685
7
Iteration 56  Energy = -153.7903247594
C   0.9036900084  0.6072889189 -0.0473443756
H   0.9548426578  1.2239877241 -0.8892342523
O   0.4151469136  1.2358022822  0.9357548029
C   1.2509135307 -0.4780237274 -0.0833601428
H   1.1888718398 -1.0972513113  0.7450184043
H   0.7830504794 -1.0831133543 -0.8511991617
H   2.2877419268 -0.6015898116 -0.3696305159
7
Iteration 57  Energy = -153.7804832771
C   0.8985779295  0.6041730904 -0.0509086972
H   0.9464727168  1.2084554217 -0.8799144702
O   0.4157560695  1.2332759378  0.9337234897
C   1.2551246585 -0.4710256094 -0.0787354512
H   1.1925861560 -1.0931699018  0.7417472854
H   0.7896667392 -1.0778688597 -0.8382560290
H   2.2868476638 -0.6015451027 -0.3690164110
7
Iteration 58  Energy = -153.7756764545
C   0.9051157010  0.6056854384 -0.0476880297
H   0.9653278048  1.2009297942 -0.8838972870
O   0.4165145033  1.2326805504  0.9327141163
C   1.2465289812 -0.4693533212 -0.0785245741
H   1.1978229518 -1.1046542258  0.7333409076
H   0.7874391911 -1.0819839265 -0.8442098897
H   2.2774661618 -0.6069203900 -0.3755418350
7
Iteration 59  Energy = -153.7707820601
C   0.8985066369  0.6019750722 -0.0485671283
H   0.9549046325  1.1972511608 -0.8935248701
O   0.4157980677  1.2330206417  0.9322274262
C   1.2527323754 -0.4641305314 -0.0745871006
H   1.2075033194 -1.1136528448  0.7235878219
H   0.7978665016 -1.0843352614 -0.8439304276
H   2.2839860616 -0.6153103576 -0.3851583485
7
Iteration 60  Energy = -153.7635824725
C   0.9061646827  0.6020051421 -0.0455444596
H   0.9646164251  1.2039755661 -0.8912515418
O   0.4162411597  1.2332066102  0.9316733182
C   1.2434627310 -0.4628938832 -0.0751950602
H   1.2142998865 -1.1199869942  0.7167614141
H   0.7993202188 -1.0962158632 -0.8509088223
H   2.2781945306 -0.6218661059 -0.3936048540
7
Iteration 61  Energy = -153.7585333196
C   0.8993399901  0.5992033766 -0.0465227039
H   0.9566878690  1.2051974383 -0.8956332143
O   0.4160460952  1.2329734788  0.9305513089
C   1.2490943893 -0.4573682579 -0.0706599412
H   1.2206216435 -1.1333024853  0.7082967067
H   0.8086953617 -1.1001446658 -0.8541118798
H   2.2877374966 -0.6346013477 -0.4021292247
7
Iteration 62  Energy = -153.7534222481
C   0.9065037414  0.6008387311 -0.0431290899
H   0.9651971950  1.2065035541 -0.8974132464
O   0.4163027088  1.2331119060  0.9303992655
C   1.2402456854 -0.4566860678 -0.0715798741
H   1.2301200850 -1.1417964141  0.7001039443
H   0.8062296251 -1.1154468651 -0.8637386501
H   2.2882002591 -0.6419242000 -0.4095924309
7
Iteration 63  Energy = -153.7449625898
C   0.9002159642  0.5971834038 -0.0421961858
H   0.9644558355  1.1997199374 -0.8992593247
O   0.4157697322  1.2333581659  0.9309591438
C   1.2453747148 -0.4503779572 -0.0712312134
H   1.2328767906 -1.1496804949  0.6871205559
H   0.8044842457 -1.1263327642 -0.8697169175
H   2.3101972298 -0.6518887760 -0.4129415687
7
Iteration 64  Energy = -153.7415322965
C   0.9000601490  0.5988402936 -0.0400060481
H   0.9659321607  1.1869469329 -0.8976761965
O   0.4156382257  1.2333841514  0.9307740857
C   1.2442174168 -0.4489594466 -0.0708155587
H   1.2358847575 -1.1495183971  0.6808341812
H   0.7867617533 -1.1474969500 -0.8893174186
H   2.3411694551 -0.6551714898 -0.4167502972
7
Iteration 65  Energy = -153.7528479236
C   0.8978632984  0.6048612125 -0.0389342460
H   0.9661805665  1.1877567911 -0.8997278921
O   0.4157473648  1.2332207897  0.9305618410
C   1.2455958271 -0.4540367155 -0.0695666306
H   1.2330681761 -1.1464369933  0.6879555232
H   0.7721438685 -1.1606763701 -0.9110743380
H   2.3663755353 -0.6545346524 -0.4243473340
7
Iteration 66  Energy = -153.7676003725
C   0.8951683646  0.6123206276 -0.0377055805
H   0.9666161273  1.1904486045 -0.9044811912
O   0.4158469480  1.2330328710  0.9304287080
C   1.2478466439 -0.4606957026 -0.0690325150
H   1.2299290005 -1.1455388568  0.6988769533
H   0.7607408994 -1.1714770833 -0.9299650470
H   2.3841934953 -0.6538788671 -0.4305163831
7
Iteration 67  Energy = -153.7853713970
C   0.8920467674  0.6210352382 -0.0363299270
H   0.9674731820  1.1940600700 -0.9117486878
O   0.4159663623  1.2327967537  0.9302805069
C   1.2508943943 -0.4687308032 -0.0692759664
H   1.2274257736 -1.1477000139  0.7106737799
H   0.7533042122 -1.1783474096 -0.9426071838
H   2.3922609425 -0.6528080164 -0.4335422693
7
Iteration 68  Energy = -153.8025502715
C   0.8889416481  0.6298399638 -0.0349713263
H   0.9684240380  1.1982776739 -0.9200253529
O   0.4160713908  1.2325816678  0.9301589631
C   1.2544738708 -0.4770867606 -0.0698203139
H   1.2255002713 -1.1504133884  0.7222302226
H   0.7466509924 -1.1838477442 -0.9535393920
H   2.3925695088 -0.6507454426 -0.4336630664
7
Iteration 69  Energy = -153.8189790778
C   0.8859012104  0.6385884772 -0.0337233163
H   0.9694348970  1.2026038666 -0.9285659006
O   0.4161485163  1.2323992516  0.9300869684
C   1.2583496150 -0.4856910239 -0.0706446997
H   1.2239517659 -1.1532271078  0.7331969162
H   0.7413381893 -1.1870674141 -0.9617510873
H   2.3872425776 -0.6478617677 -0.4317825852
7
Iteration 70  Energy = -153.8345617614
C   0.8829024023  0.6472579030 -0.0325683182
H   0.9704764435  1.2070142917 -0.9371988946
O   0.4162068073  1.2322360696  0.9300445337
C   1.2622722384 -0.4945385052 -0.0717428041
H   1.2225767154 -1.1559823598  0.7435209401
H   0.7381218364 -1.1872901738 -0.9662448280
H   2.3788593588 -0.6445824984 -0.4289842753
7
Iteration 71  Energy = -153.8480024988
C   0.8799742151  0.6558044551 -0.0314514403
H   0.9713282762  1.2117506639 -0.9453692950
O   0.4162391302  1.2321238131  0.9300255632
C   1.2663262822 -0.5033225408 -0.0727278999
H   1.2213169422 -1.1580159064  0.7536910231
H   0.7335597216 -1.1887672723 -0.9727070954
H   2.3699010447 -0.6411967109 -0.4257908549
7
Iteration 72  Energy = -153.8599151833
C   0.8770371100  0.6643655736 -0.0303297603
H   0.9721078524  1.2166363338 -0.9532819537
O   0.4162649189  1.2320269963  0.9299964846
C   1.2703341154 -0.5122691449 -0.0737661970
H   1.2199422945 -1.1595075802  0.7636993673
H   0.7291312435 -1.1895010117 -0.9783531410
H   2.3617568273 -0.6377269643 -0.4227725284
7
Iteration 73  Energy = -153.8710937502
C   0.8740267718  0.6729909477 -0.0291476859
H   0.9728724561  1.2212488854 -0.9608065326
O   0.4163301827  1.2318829975  0.9298769694
C   1.2741324910 -0.5214864645 -0.0751102993
H   1.2183378254 -1.1608005753  0.7731311208
H   0.7273080561 -1.1869497740 -0.9792606281
H   2.3539940112 -0.6342587835 -0.4199445895
7
Iteration 74  Energy = -153.8803000942
C   0.8710457826  0.6816120746 -0.0279955749
H   0.9730905314  1.2267646739 -0.9672720940
O   0.4163609604  1.2318259950  0.9297676140
C   1.2780408599 -0.5307753635 -0.0763355476
H   1.2165020029 -1.1612440247  0.7825075460
H   0.7234335943 -1.1865422823 -0.9823761886
H   2.3479473665 -0.6308769080 -0.4171327183
7
Iteration 75  Energy = -153.8867694721
C   0.8679771158  0.6901860426 -0.0263035906
H   0.9729904082  1.2327176850 -0.9725929703
O   0.4165293364  1.2316498404  0.9292799642
C   1.2820619558 -0.5395370619 -0.0773128823
H   1.2150252648 -1.1606902459  0.7917052879
H   0.7158027027 -1.1907489911 -0.9904534549
H   2.3431338134 -0.6281441240 -0.4137078443
7
Iteration 76  Energy = -153.8906759829
C   0.8651586396  0.6981800092 -0.0245909172
H   0.9717864458  1.2411689547 -0.9759529698
O   0.4165738157  1.2317676109  0.9288415827
C   1.2862368580 -0.5477826415 -0.0783470736
H   1.2141432297 -1.1594304458  0.8005701578
H   0.7047180875 -1.2004757508 -1.0020049382
H   2.3394357226 -0.6269995469 -0.4087878175
7
Iteration 77  Energy = -153.8927266531
C   0.8620056365  0.7054153310 -0.0205347978
H   0.9673687900  1.2559561425 -0.9736657596
O   0.4171767940  1.2316428209  0.9266845094
C   1.2897601893 -0.5544338436 -0.0804626648
H   1.2150969662 -1.1576250487  0.8070789561
H   0.6977186305 -1.2164393995 -1.0076766346
H   2.3359159056 -0.6326080035 -0.4007977222
7
Iteration 78  Energy = -153.8960007032
C   0.8607630210  0.7054236297 -0.0164745840
H   0.9609405585  1.2704461465 -0.9646713049
O   0.4182194908  1.2311748430  0.9235849201
C   1.2883981796 -0.5540133169 -0.0839448420
H   1.2194037327 -1.1587270503  0.8039707012
H   0.7188192582 -1.2140762135 -0.9783514828
H   2.3314228901 -0.6460411825 -0.3937000076
7
Iteration 79  Energy = -153.9022444749
C   0.8601801548  0.7064471164 -0.0161469731
H   0.9576003992  1.2782105022 -0.9612818105
O   0.4181488363  1.2316051699  0.9233523489
C   1.2874553843 -0.5569973551 -0.0871070174
H   1.2193077191 -1.1598276446  0.8030808906
H   0.7439440888 -1.1975850963 -0.9439335419
H   2.3290349447 -0.6526648977 -0.3931505022
7
Iteration 80  Energy = -153.9063588256
C   0.8596311300  0.7073381911 -0.0155396646
H   0.9525283052  1.2893871270 -0.9554463933
O   0.4181014463  1.2321629020  0.9228865172
C   1.2865110148 -0.5595692463 -0.0902905804
H   1.2188384279 -1.1615638398  0.8015372273
H   0.7703923674 -1.1865881783 -0.9101403526
H   2.3266750269 -0.6619265362 -0.3931439557
7
Iteration 81  Energy = -153.9084774199
C   0.8590717688  0.7083853464 -0.0151012340
H   0.9447267701  1.3060608585 -0.9464082486
O   0.4178615944  1.2332123371  0.9225585089
C   1.2860275731 -0.5625752405 -0.0934814257
H   1.2186931131 -1.1633232306  0.8002294089
H   0.7963149939 -1.1815152053 -0.8800397018
H   2.3249318744 -0.6752296069 -0.3929718877
7
Iteration 82  Energy = -153.9060852918
C   0.8590043133  0.7064154107 -0.0131251887
H   0.9322638734  1.3298215454 -0.9296217404
O   0.4181675488  1.2340428608  0.9206331074
C   1.2851772986 -0.5612120912 -0.0956208531
H   1.2196280007 -1.1657539725  0.7963432818
H   0.8166438212 -1.1893750386 -0.8614234890
H   2.3222103323 -0.6946515510 -0.3919816670
7
Iteration 83  Energy = -153.9055250829
C   0.8588640105  0.7060456510 -0.0132293705
H   0.9162448754  1.3612566828 -0.9098534382
O   0.4176378318  1.2361302470  0.9202657548
C   1.2869163454 -0.5641357933 -0.0979880459
H   1.2163698455 -1.1657494231  0.7957948716
H   0.8238297600 -1.1996974959 -0.8490984125
H   2.3236590887 -0.7096560253 -0.3882479833
7
Iteration 84  Energy = -153.9049236239
C   0.8586705804  0.7058395973 -0.0133554232
H   0.8993226250  1.3925347986 -0.8885596576
O   0.4170045806  1.2384470301  0.9199320910
C   1.2893854983 -0.5678102186 -0.1003745750
H   1.2134535011 -1.1649763100  0.7965354097
H   0.8237003327 -1.2094286076 -0.8417709666
H   2.3265614029 -0.7225098567 -0.3823746785
7
Iteration 85  Energy = -153.9035958938
C   0.8585923667  0.7049749137 -0.0127980347
H   0.8815935343  1.4222374395 -0.8666576525
O   0.4162138682  1.2412284162  0.9195238360
C   1.2921186871 -0.5713466559 -0.1031954355
H   1.2109958746 -1.1650346747  0.7962244678
H   0.8217036194 -1.2185077757 -0.8358488705
H   2.3296590537 -0.7347788739 -0.3764377577
7
Iteration 86  Energy = -153.9010112279
C   0.8522609353  0.7011263667 -0.0121192083
H   0.8553468490  1.4193158540 -0.8660964606
O   0.4203001573  1.2445017830  0.9198433338
C   1.2937498343 -0.5693827770 -0.1041375862
H   1.2246129779 -1.1741004966  0.7896730765
H   0.8265851355 -1.2298179361 -0.8272001792
H   2.3285556026 -0.7409789914 -0.3810293737
7
Iteration 87  Energy = -153.8983182316
C   0.8558379599  0.7039918286 -0.0099972799
H   0.8736913437  1.4095794943 -0.8718313554
O   0.4185032982  1.2420744002  0.9179096462
C   1.2900904784 -0.5646676162 -0.1026703809
H   1.2349480391 -1.1944786571  0.7762515482
H   0.8329540390 -1.2386320874 -0.8208532924
H   2.3230076591 -0.7538506881 -0.3802945551
7
Iteration 88  Energy = -153.8967650396
C   0.8495913744  0.7048695175 -0.0136341818
H   0.8568147303  1.4018286840 -0.8813749320
O   0.4227859780  1.2418358847  0.9189913816
C   1.2904220368 -0.5618141369 -0.0992525765
H   1.2509062916 -1.2061556944  0.7715848681
H   0.8407319171 -1.2485378979 -0.8125009392
H   2.3186542325 -0.7651877285 -0.3889936817
7
Iteration 89  Energy = -153.8928572003
C   0.8567548647  0.7052707555 -0.0118745635
H   0.8730288802  1.4135718409 -0.8709631961
O   0.4190084304  1.2401839921  0.9165095034
C   1.2865727399 -0.5589086672 -0.0972964312
H   1.2514845688 -1.2122335482  0.7673119952
H   0.8540182724 -1.2535012736 -0.8142876675
H   2.3090431619 -0.7790728245 -0.3982303826
7
Iteration 90  Energy = -153.8907002222
C   0.8550380936  0.7084397620 -0.0120989927
H   0.8817494225  1.3976416525 -0.8832456541
O   0.4197595854  1.2383749270  0.9163926804
C   1.2851868736 -0.5554005572 -0.0937773429
H   1.2547167051 -1.2211277047  0.7644389356
H   0.8767029417 -1.2580582918 -0.8213847642
H   2.2994533571 -0.8005399302 -0.4133812852
7
Iteration 91  Energy = -153.8877480140
C   0.8569871472  0.7024244530 -0.0120823002
H   0.8699634578  1.4191030692 -0.8662398290
O   0.4203656555  1.2383828838  0.9142542952
C   1.2845511613 -0.5530450668 -0.0939912321
H   1.2556896121 -1.2222361724  0.7600262282
H   0.8584364256 -1.2503661536 -0.8124560062
H   2.3032640281 -0.7851021213 -0.3986130419
7
Iteration 92  Energy = -153.8841715399
C   0.8566962899  0.6998674342 -0.0116145595
H   0.8749480696  1.4023841516 -0.8772473530
O   0.4227558545  1.2343666657  0.9124666709
C   1.2818095367 -0.5448005244 -0.0919106697
H   1.2669812413 -1.2213265141  0.7568820176
H   0.8443000641 -1.2471718776 -0.7988561819
H   2.2993215020 -0.7765125917 -0.4000522412
7
Iteration 93  Energy = -153.8803348602
C   0.8581760294  0.6930751676 -0.0088923636
H   0.8675072219  1.4146164096 -0.8666725359
O   0.4242740679  1.2326385516  0.9090341467
C   1.2804545866 -0.5407646232 -0.0919247346
H   1.2598904867 -1.2028674275  0.7630326767
H   0.8333329891 -1.2336306939 -0.7980393857
H   2.2992360110 -0.7604722229 -0.3953826901
7
Iteration 94  Energy = -153.8773450091
C   0.8576035118  0.6928720453 -0.0064802408
H   0.8796719633  1.3906612032 -0.8838922385
O   0.4263342276  1.2279346239  0.9071488141
C   1.2778199354 -0.5334145121 -0.0908673192
H   1.2551071524 -1.1924512660  0.7652547039
H   0.8356291365 -1.2312826776 -0.7952408769
H   2.2950751486 -0.7597820261 -0.3946009519
7
Iteration 95  Energy = -153.8707761072
C   0.8582923104  0.6882367004 -0.0036378772
H   0.8769918854  1.3969747817 -0.8824170283
O   0.4288497807  1.2237251090  0.9031052873
C   1.2753638340 -0.5263009681 -0.0904242765
H   1.2514551723 -1.1810103900  0.7659334070
H   0.8235868524 -1.2230919399 -0.7857148415
H   2.2945811297 -0.7484430569 -0.3812498261
7
Iteration 96  Energy = -153.8675642507
C   0.8580464533  0.6888741492 -0.0035202031
H   0.8848990754  1.3836958666 -0.8957805264
O   0.4313812628  1.2174856131  0.9013718868
C   1.2728697079 -0.5195750898 -0.0893390178
H   1.2463686695 -1.1690982539  0.7688302919
H   0.8129154060 -1.2187111892 -0.7754754307
H   2.2949010764 -0.7401615370 -0.3678440713
7
Iteration 97  Energy = -153.8652221967
C   0.8583755992  0.6909025242 -0.0078464555
H   0.8807983348  1.3950622324 -0.8966381906
O   0.4338700585  1.2106386064  0.9009444236
C   1.2707318749 -0.5148322801 -0.0870768109
H   1.2362589541 -1.1499443865  0.7804277021
H   0.8100818055 -1.2201992138 -0.7662892560
H   2.2939942653 -0.7411990117 -0.3563905359
7
Iteration 98  Energy = -153.8612894757
C   0.8648339056  0.6913019597 -0.0070572018
H   0.8980879454  1.4004948312 -0.8943964469
O   0.4323586140  1.2052132853  0.8987597158
C   1.2665806783 -0.5100409243 -0.0863496142
H   1.2211101031 -1.1408253713  0.7824852376
H   0.8070832797 -1.2121651254 -0.7672086378
H   2.2913494995 -0.7395247225 -0.3431645380
7
Iteration 99  Energy = -153.8569325680
C   0.8584070920  0.6878380065 -0.0095502164
H   0.8836279694  1.3983149066 -0.8990793011
O   0.4375000775  1.2019622970  0.8972889444
C   1.2677740144 -0.5041347652 -0.0825632630
H   1.2176114783 -1.1284708034  0.7890699895
H   0.8068909447 -1.2052180977 -0.7625694850
H   2.2902558012 -0.7341491093 -0.3417725631
7
Iteration 100  Energy = -153.8511101179
C   0.8653597198  0.6862102914 -0.0102035263
H   0.8824103567  1.4185613857 -0.8859882698
O   0.4373701412  1.1979539124  0.8947449158
C   1.2618645951 -0.5006285466 -0.0801374184
H   1.2132357696 -1.1195237169  0.7933389821
H   0.8080519800 -1.2047404754 -0.7601833509
H   2.2843195713 -0.7225803203 -0.3422607475
7
Iteration 101  Energy = -153.8421250957
C   0.8660504061  0.6794519473 -0.0097204617
H   0.8703793733  1.4432594048 -0.8659157672
O   0.4386554356  1.1973525932  0.8917243429
C   1.2605308259 -0.4961475657 -0.0775235431
H   1.2140073352 -1.1148095626  0.7938779386
H   0.8122027979 -1.1938126587 -0.7654819587
H   2.2786906842 -0.7262399655 -0.3465330765
7
Iteration 102  Energy = -153.8328421086
C   0.8640220234  0.6797834334 -0.0031842406
H   0.8746297018  1.4405604380 -0.8776195824
O   0.4414935311  1.1933819050  0.8863586845
C   1.2579512720 -0.4902398056 -0.0748786260
H   1.2161289677 -1.1187074594  0.7891327065
H   0.8243575031 -1.1930181208 -0.7663428366
H   2.2700243704 -0.7317596750 -0.3534588485
7
Iteration 103  Energy = -153.8308298372
C   0.8660096017  0.6784271786 -0.0087916175
H   0.8742599792  1.4553753296 -0.8927448921
O   0.4420559890  1.1906242719  0.8875328446
C   1.2550816871 -0.4872445331 -0.0676232987
H   1.2167339298 -1.1245020696  0.7882572764
H   0.8343742741 -1.1827969115 -0.7742711246
H   2.2613548765 -0.7267623878 -0.3678025269
7
Iteration 104  Energy = -153.8283058345
C   0.8649917157  0.6821822112 -0.0099775369
H   0.8835176386  1.4487926586 -0.9180741634
O   0.4442926290  1.1851200689  0.8860238413
C   1.2522886967 -0.4833285697 -0.0614788526
H   1.2170688863 -1.1290446104  0.7879800369
H   0.8408981738 -1.1770716346 -0.7769663455
H   2.2551470812 -0.7254037404 -0.3746343358
7
Iteration 105  Energy = -153.8255862066
C   0.8647863318  0.6854614098 -0.0130212993
H   0.8945132131  1.4321741342 -0.9387136435
O   0.4461259845  1.1791008584  0.8864034561
C   1.2495288038 -0.4772917049 -0.0584005417
H   1.2171932892 -1.1286511915  0.7859012046
H   0.8385357517 -1.1764302394 -0.7689720322
H   2.2526240567 -0.7252905639 -0.3663473366
7
Iteration 106  Energy = -153.8229916751
C   0.8632389268  0.6900985332 -0.0127792798
H   0.9072130985  1.4075014047 -0.9559099563
O   0.4482847782  1.1733290463  0.8853507838
C   1.2476392565 -0.4724532162 -0.0572099149
H   1.2156585312 -1.1246703113  0.7861476117
H   0.8349815397 -1.1771271398 -0.7611480083
H   2.2517026581 -0.7252002376 -0.3575837106
7
Iteration 107  Energy = -153.8202771222
C   0.8656214137  0.6888321672 -0.0196359290
H   0.9106581910  1.3982619830 -0.9580119500
O   0.4493091939  1.1681820618  0.8875395357
C   1.2448307444 -0.4658181100 -0.0548429497
H   1.2111592063 -1.1130881558  0.7883250301
H   0.8263881245 -1.1705591552 -0.7529160461
H   2.2501671985 -0.7163897636 -0.3471337784
7
Iteration 108  Energy = -153.8176095069
C   0.8636440101  0.6929865741 -0.0174752347
H   0.9147299227  1.3828536498 -0.9555041940
O   0.4523832927  1.1620740891  0.8837427823
C   1.2438613403 -0.4633443618 -0.0542378199
H   1.2025742454 -1.0952196148  0.7976955777
H   0.8156480668 -1.1647318527 -0.7471171349
H   2.2517412674 -0.7067103289 -0.3375062492
7
Iteration 109  Energy = -153.8160819126
C   0.8678395527  0.6862959502 -0.0245809815
H   0.9120285628  1.3761132991 -0.9388484928
O   0.4511778103  1.1624984416  0.8874489709
C   1.2423226999 -0.4589132961 -0.0538219640
H   1.1980994833 -1.0832162949  0.7997560869
H   0.8124615662 -1.1574487386 -0.7462026336
H   2.2495787967 -0.6990670715 -0.3362468516
7
Iteration 110  Energy = -153.8091097286
C   0.8650422069  0.6883471130 -0.0172173225
H   0.9080044616  1.3750499087 -0.9239021332
O   0.4543848689  1.1588971337  0.8803804635
C   1.2420556221 -0.4581457909 -0.0537707554
H   1.1935002740 -1.0726807045  0.8039599550
H   0.8084483260 -1.1507529341 -0.7442222108
H   2.2478275802 -0.6916610610 -0.3335393459
7
Iteration 111  Energy = -153.8066869065
C   0.8686188808  0.6818370108 -0.0225486255
H   0.9014893931  1.3695686175 -0.8957881409
O   0.4531128496  1.1601379203  0.8835321692
C   1.2414108804 -0.4546749491 -0.0553971001
H   1.1896443714 -1.0628341005  0.8057663565
H   0.8027396267 -1.1458649739 -0.7439260347
H   2.2491613530 -0.6843930268 -0.3308735093
7
Iteration 112  Energy = -153.8043508767
C   0.8651971847  0.6853845213 -0.0147599001
H   0.8962551124  1.3657828050 -0.8738274638
O   0.4549368694  1.1600356851  0.8774381870
C   1.2430550909 -0.4583744860 -0.0570252878
H   1.1869563330 -1.0594718719  0.8110029162
H   0.8004652638 -1.1447376768 -0.7466656567
H   2.2515872850 -0.6816617299 -0.3320128332
7
Iteration 113  Energy = -153.8015042031
C   0.8632389391  0.6879148820 -0.0108253306
H   0.9056316524  1.3336386201 -0.8708289336
O   0.4546061829  1.1615298699  0.8769578807
C   1.2431975893 -0.4564309388 -0.0596506651
H   1.1921059596 -1.0720943265  0.8069667061
H   0.8113602401 -1.1593646883 -0.7488263588
H   2.2530504072 -0.6992944687 -0.3367903773
7
Iteration 114  Energy = -153.7974404256
C   0.8607819482  0.6913966262 -0.0062024076
H   0.9179763149  1.3056022707 -0.8825759031
O   0.4549199181  1.1615100583  0.8759111882
C   1.2428971485 -0.4539404514 -0.0613508838
H   1.1985386020 -1.0865081669  0.8004686786
H   0.8212860619 -1.1718500913 -0.7472894653
H   2.2522243953 -0.7152081134 -0.3382940636
7
Iteration 115  Energy = -153.7977061667
C   0.8630634611  0.6872468183 -0.0095015972
H   0.9167498232  1.3085289620 -0.8815816086
O   0.4539185804  1.1626341552  0.8781290622
C   1.2423070255 -0.4523236792 -0.0610975462
H   1.1990526714 -1.0847342684  0.7966634132
H   0.8201526324 -1.1678319820 -0.7451563205
H   2.2498094476 -0.7115857350 -0.3365250115
7
Iteration 116  Energy = -153.7964092584
C   0.8612005671  0.6902465120 -0.0063913675
H   0.9214423923  1.2983106917 -0.8865545267
O   0.4545502889  1.1621305518  0.8765126928
C   1.2425911124 -0.4525925021 -0.0617859672
H   1.2029287178 -1.0937903770  0.7931818442
H   0.8183296366 -1.1710890724 -0.7430939226
H   2.2518500168 -0.7136009858 -0.3333355001
7
Iteration 117  Energy = -153.7937035800
C   0.8632730015  0.6854755312 -0.0082896790
H   0.9206270867  1.2989617506 -0.8845017398
O   0.4540138024  1.1627939927  0.8776403129
C   1.2416034911 -0.4497757763 -0.0614866599
H   1.2040470770 -1.0927040846  0.7879993445
H   0.8162228068 -1.1655127615 -0.7408894332
H   2.2492427107 -0.7081587667 -0.3312546996
7
Iteration 118  Energy = -153.7889131651
C   0.8614804173  0.6875036015 -0.0043444204
H   0.9241389877  1.2888873380 -0.8855392859
O   0.4552156371  1.1614584916  0.8749704401
C   1.2412239541 -0.4483689185 -0.0617309847
H   1.2059291574 -1.0972227076  0.7864352998
H   0.8175764366 -1.1678771202 -0.7402711555
H   2.2493018661 -0.7109337042 -0.3309941573
7
Iteration 119  Energy = -153.7895552799
C   0.8637613752  0.6835086795 -0.0078128011
H   0.9228056538  1.2915656601 -0.8838999009
O   0.4541751557  1.1626288971  0.8772723157
C   1.2407451964 -0.4471853217 -0.0613832132
H   1.2056860376 -1.0939392277  0.7835971346
H   0.8169218336 -1.1630713639 -0.7390521737
H   2.2465730468 -0.7067791130 -0.3303655873
7
Iteration 120  Energy = -153.7882954772
C   0.8618571153  0.6861517424 -0.0041633603
H   0.9284397880  1.2789441396 -0.8894747677
O   0.4550508938  1.1616884368  0.8752946663
C   1.2408867393 -0.4474291508 -0.0615980861
H   1.2058938391 -1.0959966627  0.7850896025
H   0.8172025526 -1.1626815737 -0.7418843327
H   2.2475545856 -0.7061511184 -0.3329864475
7
Iteration 121  Energy = -153.7884275935
C   0.8641422214  0.6819753445 -0.0074469341
H   0.9269369295  1.2822089170 -0.8879003642
O   0.4540861822  1.1627804419  0.8774221618
C   1.2403279056 -0.4460575311 -0.0611809375
H   1.2056111352 -1.0927388003  0.7824171248
H   0.8163010978 -1.1576377465 -0.7409053251
H   2.2449838207 -0.7016290018 -0.3324795963
7
Iteration 122  Energy = -153.7832920514
C   0.8624019339  0.6836874900 -0.0033326017
H   0.9301057038  1.2731224641 -0.8888386612
O   0.4554468012  1.1611878080  0.8744867063
C   1.2398103013 -0.4444741911 -0.0611402201
H   1.2064759420 -1.0953602009  0.7822894320
H   0.8177538935 -1.1585195888 -0.7416022643
H   2.2448059546 -0.7030288664 -0.3336351945
7
Iteration 123  Energy = -153.7827353467
C   0.8646814207  0.6794376737 -0.0065156903
H   0.9287479299  1.2755076203 -0.8867931024
O   0.4545563715  1.1621678445  0.8764811159
C   1.2391591305 -0.4428524090 -0.0606799695
H   1.2061368598 -1.0918896021  0.7795759818
H   0.8173602141 -1.1531280844 -0.7404774099
H   2.2416269137 -0.6985164403 -0.3333030430
7
Iteration 124  Energy = -153.7811962406
C   0.8625825527  0.6827442685 -0.0029235264
H   0.9317773162  1.2670555856 -0.8879428459
O   0.4558349672  1.1605641872  0.8738402399
C   1.2393660104 -0.4435973209 -0.0605724272
H   1.2056048789 -1.0921743497  0.7817358163
H   0.8171358885 -1.1513274195 -0.7420983947
H   2.2416042344 -0.6966510926 -0.3348604805
7
Iteration 125  Energy = -153.7814498456
C   0.8648671424  0.6787196574 -0.0063730017
H   0.9309087697  1.2689927429 -0.8870947053
O   0.4548380931  1.1616259447  0.8761120507
C   1.2387994978 -0.4422549153 -0.0600950752
H   1.2052291357 -1.0889115501  0.7793827729
H   0.8164949901 -1.1460392246 -0.7413666691
H   2.2388397474 -0.6920310998 -0.3347306495
7
Iteration 126  Energy = -153.7799555655
C   0.8627801463  0.6819870662 -0.0027790501
H   0.9338492757  1.2611422678 -0.8886057156
O   0.4561429478  1.1599698042  0.8734386675
C   1.2389825462 -0.4430051226 -0.0598983438
H   1.2045847566 -1.0890975011  0.7818238059
H   0.8159523037 -1.1439970398 -0.7433135276
H   2.2390624614 -0.6897446207 -0.3364503712
7
Iteration 127  Energy = -153.7800371251
C   0.8650730398  0.6779595961 -0.0062542797
H   0.9332471018  1.2626105572 -0.8881624848
O   0.4551557773  1.1609824715  0.8757313318
C   1.2383504193 -0.4414923573 -0.0593818331
H   1.2043162575 -1.0861564418  0.7794551667
H   0.8153000717 -1.1389499098 -0.7426432785
H   2.2364646067 -0.6853097559 -0.3363293597
7
Iteration 128  Energy = -153.7792657547
C   0.8630091883  0.6813268220 -0.0028519080
H   0.9362689208  1.2552002099 -0.8904482894
O   0.4564186636  1.1593431627  0.8731851376
C   1.2385994417 -0.4425610727 -0.0590595108
H   1.2034024404 -1.0860449520  0.7824977291
H   0.8142333840 -1.1362416170 -0.7452415677
H   2.2370036791 -0.6820883698 -0.3384566818
7
Iteration 129  Energy = -153.7759739593
C   0.8652039537  0.6767698760 -0.0054035023
H   0.9354766552  1.2556410469 -0.8882133248
O   0.4558470992  1.1598510227  0.8745999384
C   1.2374594012 -0.4395084106 -0.0584901255
H   1.2037251541 -1.0838634607  0.7789153962
H   0.8146414217 -1.1320102914 -0.7434404811
H   2.2335693341 -0.6790782674 -0.3377468078
7
Iteration 130  Energy = -153.7710743364
C   0.8663625920  0.6736132265 -0.0059386344
H   0.9360411205  1.2516297402 -0.8858054477
O   0.4563291827  1.1589196916  0.8739744186
C   1.2362338228 -0.4370895536 -0.0569160148
H   1.2022544532 -1.0785675294  0.7780489537
H   0.8140930683 -1.1200981280 -0.7447577241
H   2.2281699917 -0.6687016595 -0.3404230759
7
Iteration 131  Energy = -153.7677659537
C   0.8684118685  0.6688078134 -0.0077168609
H   0.9355885133  1.2544395534 -0.8873896521
O   0.4558871016  1.1593360907  0.8750464462
C   1.2351612145 -0.4345122867 -0.0560472230
H   1.2008179319 -1.0741913316  0.7781091860
H   0.8139439001 -1.1133410945 -0.7467424331
H   2.2255873316 -0.6627039074 -0.3430931375
7
Iteration 132  Energy = -153.7673088922
C   0.8663690190  0.6718891795 -0.0040684198
H   0.9378146560  1.2493858734 -0.8895351337
O   0.4572208729  1.1576593122  0.8722961749
C   1.2353730779 -0.4355197057 -0.0556640255
H   1.1993036885 -1.0730622440  0.7821089432
H   0.8136588583 -1.1105117183 -0.7499416066
H   2.2258082869 -0.6597073409 -0.3461355353
7
Iteration 133  Energy = -153.7616813608
C   0.8683774802  0.6671802620 -0.0058115919
H   0.9371879623  1.2495467720 -0.8875829351
O   0.4570049150  1.1577019267  0.8729991697
C   1.2340050421 -0.4319617420 -0.0548626722
H   1.1989505145 -1.0702364228  0.7801408817
H   0.8141269683 -1.1048266763 -0.7493129802
H   2.2221166365 -0.6553409676 -0.3466838588
7
Iteration 134  Energy = -153.7585273326
C   0.8688850190  0.6655447835 -0.0057756563
H   0.9380683853  1.2462559413 -0.8870965049
O   0.4577341952  1.1564138713  0.8719163525
C   1.2331809098 -0.4310557255 -0.0530080869
H   1.1958475499 -1.0633719635  0.7832285849
H   0.8136621704 -1.0913158878 -0.7531297363
H   2.2170012465 -0.6432895435 -0.3517815979
7
Iteration 135  Energy = -153.7562764191
C   0.8687397256  0.6654409186 -0.0051818677
H   0.9402436566  1.2414486346 -0.8894472198
O   0.4588168876  1.1544856324  0.8703246851
C   1.2322403076 -0.4301748094 -0.0507193828
H   1.1930497350 -1.0595522528  0.7886218675
H   0.8111905825 -1.0803722281 -0.7594170301
H   2.2158500266 -0.6318996286 -0.3576204477
7
Iteration 136  Energy = -153.7543452574
C   0.8678490320  0.6671470301 -0.0040208341
H   0.9446710775  1.2332840172 -0.8959002725
O   0.4601102012  1.1520790972  0.8685396192
C   1.2312009336 -0.4289709520 -0.0484423379
H   1.1918732859 -1.0603523929  0.7934661515
H   0.8091667299 -1.0746591656 -0.7654408708
H   2.2170932775 -0.6251256346 -0.3626224685
7
Iteration 137  Energy = -153.7520754703
C   0.8676466057  0.6683069390 -0.0046635435
H   0.9512618505  1.2221976550 -0.9066797927
O   0.4608611929  1.1499680034  0.8683191649
C   1.2296797818 -0.4263869005 -0.0460120846
H   1.1928462743 -1.0644079825  0.7943219343
H   0.8100123459 -1.0725479243 -0.7693540682
H   2.2173019255 -0.6231996124 -0.3665868975
7
Iteration 138  Energy = -153.7466895937
C   0.8667396165  0.6699748204 -0.0034420470
H   0.9564546224  1.2116298534 -0.9131868044
O   0.4620556309  1.1477037911  0.8667408709
C   1.2282162368 -0.4235588660 -0.0440547236
H   1.1946126093 -1.0688885003  0.7928803272
H   0.8144494941 -1.0728061740 -0.7709251097
H   2.2151938432 -0.6255269382 -0.3698950480
7
Iteration 139  Energy = -153.7383373888
C   0.8656032418  0.6706602207 -0.0002851281
H   0.9599444911  1.2026263263 -0.9153471908
O   0.4633742141  1.1458113189  0.8642852780
C   1.2269720345 -0.4202956623 -0.0433528356
H   1.1959924182 -1.0719475307  0.7914159634
H   0.8183664932 -1.0744405923 -0.7718758978
H   2.2138448055 -0.6288429173 -0.3723247332
7
Iteration 140  Energy = -153.7329450886
C   0.8640519557  0.6727547412  0.0027530431
H   0.9650399738  1.1912331999 -0.9203987447
O   0.4644264901  1.1442515032  0.8623785811
C   1.2262331271 -0.4184216906 -0.0428594898
H   1.1972058069 -1.0757029879  0.7913293719
H   0.8223893569 -1.0775271772 -0.7746847925
H   2.2141005147 -0.6331375657 -0.3761950098
7
Iteration 141  Energy = -153.7271335369
C   0.8630835062  0.6740559394  0.0046519051
H   0.9712033346  1.1774491703 -0.9265051769
O   0.4650829296  1.1430414811  0.8614540704
C   1.2252233770 -0.4157632549 -0.0422933150
H   1.1992701889 -1.0801969439  0.7890810319
H   0.8282815012 -1.0812768741 -0.7768839771
H   2.2131332314 -0.6390861171 -0.3803396711
7
Iteration 142  Energy = -153.7184164942
C   0.8624884702  0.6741492572  0.0065982227
H   0.9761149566  1.1651236060 -0.9298911780
O   0.4658422313  1.1417474106  0.8602656015
C   1.2238787658 -0.4120019741 -0.0417933578
H   1.2014593704 -1.0840294590  0.7856663581
H   0.8345798706 -1.0845104888 -0.7773957219
H   2.2107945774 -0.6450851048 -0.3833128888
7
Iteration 143  Energy = -153.7148205798
C   0.8619272363  0.6751886310  0.0073839023
H   0.9833997251  1.1505971586 -0.9390612809
O   0.4658976288  1.1412282723  0.8606540863
C   1.2231138480 -0.4097650693 -0.0416126339
H   1.2034556953 -1.0882021716  0.7832861748
H   0.8414703734 -1.0892598735 -0.7793015856
H   2.2095457582 -0.6524358411 -0.3875382286
7
Iteration 144  Energy = -153.7122005993
C   0.8617964464  0.6758011483  0.0071522855
H   0.9904551706  1.1366536074 -0.9480876976
O   0.4656161082  1.1410649025  0.8618154133
C   1.2223596774 -0.4074987388 -0.0415031001
H   1.2057748609 -1.0925773733  0.7799879139
H   0.8487014674 -1.0945481183 -0.7803714167
H   2.2079532282 -0.6605391043 -0.3911216223
7
Iteration 145  Energy = -153.7062059433
C   0.8624561215  0.6745029342  0.0062977391
H   0.9953641684  1.1265445209 -0.9539338954
O   0.4654140128  1.1407080510  0.8629186480
C   1.2209972561 -0.4035083053 -0.0412016202
H   1.2085505561 -1.0967235440  0.7748269090
H   0.8555859095 -1.0990578530 -0.7789235129
H   2.2049654511 -0.6681897340 -0.3924826944
7
Iteration 146  Energy = -153.6962207529
C   0.8636329629  0.6710270509  0.0060678576
H   0.9967548445  1.1239114597 -0.9558560304
O   0.4656244158  1.1400186339  0.8629598698
C   1.2192341039 -0.3983113974 -0.0408556281
H   1.2104014645 -1.0985487278  0.7703421278
H   0.8592478879 -1.1005142698 -0.7757521375
H   2.2017086245 -0.6718398493 -0.3912848828
7
Iteration 147  Energy = -153.6940782489
C   0.8649531061  0.6698483581  0.0027903749
H   0.9986006261  1.1247432785 -0.9632193547
O   0.4651319775  1.1394464945  0.8653146318
C   1.2181022782 -0.3951938480 -0.0403979366
H   1.2117910058 -1.1007186467  0.7677029388
H   0.8650049100 -1.1054203693 -0.7713375199
H   2.1982881760 -0.6796172876 -0.3894721158
7
Iteration 148  Energy = -153.6884995609
C   0.8646784567  0.6716943986  0.0016588812
H   0.9967919460  1.1243725888 -0.9566275427
O   0.4666589444  1.1360940262  0.8637714506
C   1.2169835292 -0.3932348997 -0.0387109601
H   1.2089902376 -1.0944331115  0.7702870344
H   0.8689503499 -1.1027017612 -0.7654541350
H   2.1913191551 -0.6803790430 -0.3866566969
7
Iteration 149  Energy = -153.6813053393
C   0.8636352799  0.6736003028  0.0031336427
H   1.0003388262  1.1150747477 -0.9586742495
O   0.4680556508  1.1333152214  0.8620348788
C   1.2160818712 -0.3911285699 -0.0379340676
H   1.2058082366 -1.0868906450  0.7728584715
H   0.8753604178 -1.1017219985 -0.7636220301
H   2.1855496398 -0.6833059803 -0.3882803564
7
Iteration 150  Energy = -153.6791036595
C   0.8620719028  0.6771378628  0.0046109650
H   1.0055134758  1.1029979946 -0.9632517317
O   0.4688389256  1.1315977720  0.8612403660
C   1.2160599692 -0.3911025858 -0.0378974915
H   1.2033095165 -1.0806357811  0.7744936500
H   0.8819957346 -1.1048893447 -0.7635102975
H   2.1826958626 -0.6895192532 -0.3908785058
7
Iteration 151  Energy = -153.6722698373
C   0.8628653561  0.6756703058  0.0034673554
H   1.0084028069  1.0970983020 -0.9667661559
O   0.4688054832  1.1305745238  0.8625099628
C   1.2148951250 -0.3870093311 -0.0384204752
H   1.2023549789 -1.0748216617  0.7711770237
H   0.8889816807 -1.1106234083 -0.7586789819
H   2.1787312701 -0.6987453138 -0.3891707701
7
Iteration 152  Energy = -153.6705942934
C   0.8609595628  0.6796488653  0.0056479229
H   1.0093291899  1.0909547628 -0.9631869716
O   0.4700409163  1.1286990945  0.8603200933
C   1.2153117557 -0.3887145239 -0.0379933212
H   1.1999600604 -1.0672645891  0.7710482362
H   0.8917732279 -1.1090250055 -0.7576912752
H   2.1755436869 -0.6990791811 -0.3899240438
7
Iteration 153  Energy = -153.6626153063
C   0.8626600779  0.6753544727  0.0045134667
H   1.0086617079  1.0933881338 -0.9635834616
O   0.4699920831  1.1283373499  0.8608944165
C   1.2139295988 -0.3845319186 -0.0378652044
H   1.2003032202 -1.0638300251  0.7659778582
H   0.8938844105 -1.1073091346 -0.7525102895
H   2.1707384444 -0.6995893252 -0.3867625143
7
Iteration 154  Energy = -153.6612545724
C   0.8608509558  0.6789456099  0.0067932119
H   1.0089088692  1.0892092603 -0.9598291637
O   0.4711836402  1.1266554107  0.8586398736
C   1.2145207409 -0.3867532463 -0.0374839606
H   1.1979146862 -1.0555185400  0.7649883314
H   0.8958158602 -1.1031940979 -0.7509431473
H   2.1665489349 -0.6974634706 -0.3870176056
7
Iteration 155  Energy = -153.6526845629
C   0.8625259452  0.6746540696  0.0057471446
H   1.0078502546  1.0912890391 -0.9584874439
O   0.4712670898  1.1261561133  0.8589078288
C   1.2131644111 -0.3827547164 -0.0372582040
H   1.1977343585 -1.0513501083  0.7609183217
H   0.8979548926 -1.0992874364 -0.7456073769
H   2.1605273482 -0.6962020161 -0.3841035308
7
Iteration 156  Energy = -153.6510776835
C   0.8609860300  0.6776823688  0.0077215168
H   1.0074019146  1.0890672487 -0.9545048328
O   0.4724643975  1.1244122229  0.8567028822
C   1.2137229564 -0.3849965087 -0.0367721150
H   1.1945256065 -1.0413966502  0.7609112333
H   0.8994808587 -1.0928979124 -0.7437211978
H   2.1553484798 -0.6920160084 -0.3842865030
7
Iteration 157  Energy = -153.6480682688
C   0.8629814435  0.6738113533  0.0051058000
H   1.0048684543  1.0947843324 -0.9521183591
O   0.4722834302  1.1239923524  0.8578036109
C   1.2128446291 -0.3824710710 -0.0366204689
H   1.1915205891 -1.0346188155  0.7636750698
H   0.8990904741 -1.0871163746 -0.7396724285
H   2.1508388752 -0.6875946999 -0.3815954835
7
Iteration 158  Energy = -153.6463880399
C   0.8611181441  0.6771009150  0.0079104765
H   1.0045614956  1.0939202051 -0.9501432978
O   0.4736584920  1.1220909388  0.8551613546
C   1.2132245710 -0.3841721848 -0.0361006212
H   1.1877467476 -1.0273557072  0.7685961306
H   0.8993212562 -1.0846012993 -0.7418321088
H   2.1505391002 -0.6852569120 -0.3840076534
7
Iteration 159  Energy = -153.6371024587
C   0.8626864763  0.6730758617  0.0069416972
H   1.0026171951  1.0965870566 -0.9464293787
O   0.4740191799  1.1211098258  0.8550101475
C   1.2118197115 -0.3800236813 -0.0359240655
H   1.1857420364 -1.0224654504  0.7700288098
H   0.9012424247 -1.0800864909 -0.7373218735
H   2.1448941779 -0.6832275582 -0.3818246586
7
Iteration 160  Energy = -153.6319624653
C   0.8612215955  0.6754269351  0.0094048555
H   1.0018780753  1.0956124305 -0.9428426972
O   0.4755087357  1.1188909943  0.8523264769
C   1.2119766224 -0.3809485095 -0.0354822707
H   1.1816379681 -1.0127451162  0.7733577158
H   0.9031000861 -1.0742606309 -0.7357762378
H   2.1398227297 -0.6795765664 -0.3823053343
7
Iteration 161  Energy = -153.6290821360
C   0.8609874868  0.6762385873  0.0093053284
H   0.9992376110  1.0992085026 -0.9377468956
O   0.4767114160  1.1163277437  0.8510373707
C   1.2115158929 -0.3798613900 -0.0351210422
H   1.1738362741 -1.0003879112  0.7865526664
H   0.9017796457 -1.0736849663 -0.7366482323
H   2.1407758090 -0.6780465562 -0.3823816867
7
Iteration 162  Energy = -153.6264278399
C   0.8595871857  0.6788864556  0.0111991211
H   0.9989556113  1.1017783538 -0.9396522242
O   0.4780353847  1.1138836758  0.8491920712
C   1.2114350626 -0.3797910423 -0.0349545762
H   1.1676316955 -0.9898918043  0.7964627452
H   0.9021287783 -1.0774475336 -0.7387015199
H   2.1435478743 -0.6809472569 -0.3835935064
7
Iteration 163  Energy = -153.6246022671
C   0.8577371626  0.6822454773  0.0138736815
H   1.0009764369  1.0993637854 -0.9439864544
O   0.4789076206  1.1125646289  0.8476480386
C   1.2114805719 -0.3799765711 -0.0349339131
H   1.1657329139 -0.9881050221  0.8010664513
H   0.9021420664 -1.0867770942 -0.7437249747
H   2.1510704625 -0.6878683619 -0.3864478980
7
Iteration 164  Energy = -153.6195861218
C   0.8559593306  0.6852091105  0.0167408925
H   1.0038947880  1.0938715584 -0.9480161345
O   0.4797368140  1.1114012417  0.8460762640
C   1.2112558380 -0.3791641708 -0.0350767931
H   1.1660276403 -0.9903626119  0.8025034980
H   0.9029212019 -1.0971170107 -0.7470288948
H   2.1577792109 -0.6963072992 -0.3880663756
7
Iteration 165  Energy = -153.6182755386
C   0.8544147876  0.6886190466  0.0183054260
H   1.0062118898  1.0903306802 -0.9521111259
O   0.4801884983  1.1106670515  0.8453351263
C   1.2112424007 -0.3789610000 -0.0352607317
H   1.1677596920 -0.9967741038  0.8035402362
H   0.9013894977 -1.1095212645 -0.7493434511
H   2.1666569873 -0.7053502360 -0.3873809222
7
Iteration 166  Energy = -153.6159004123
C   0.8540019511  0.6898904274  0.0183151689
H   1.0070464029  1.0914774967 -0.9562554501
O   0.4804079827  1.1100187605  0.8453025167
C   1.2105227406 -0.3767307129 -0.0352335292
H   1.1721812077 -1.0080357365  0.8006005931
H   0.8977004046 -1.1221360950 -0.7475193601
H   2.1751009268 -0.7140556722 -0.3820436899
7
Iteration 167  Energy = -153.6065551882
C   0.8529110177  0.6914981658  0.0202934342
H   1.0078008765  1.0902940926 -0.9575340930
O   0.4814541809  1.1084297304  0.8434500143
C   1.2095422317 -0.3740257954 -0.0348110871
H   1.1759680612 -1.0164385516  0.7966927372
H   0.8948690819 -1.1319087230 -0.7458697681
H   2.1814682934 -0.7208639024 -0.3777097833
7
Iteration 168  Energy = -153.6032969617
C   0.8517775418  0.6944729693  0.0208986711
H   1.0066509110  1.0952697953 -0.9590199214
O   0.4823398606  1.1069028069  0.8420842789
C   1.2090809855 -0.3733332581 -0.0339131578
H   1.1800201908 -1.0268589438  0.7941299299
H   0.8891914166 -1.1411011341 -0.7439597116
H   2.1891884744 -0.7256902266 -0.3718054462
7
Iteration 169  Energy = -153.5967643270
C   0.8508940645  0.6963903538  0.0218091661
H   1.0053589583  1.1011860644 -0.9610591692
O   0.4833433050  1.1052590186  0.8404390875
C   1.2082094236 -0.3714540317 -0.0329042516
H   1.1846363541 -1.0386017658  0.7911081755
H   0.8850952173 -1.1493733169 -0.7413041718
H   2.1949461825 -0.7307403236 -0.3661585344
7
Iteration 170  Energy = -153.5950355063
C   0.8493419163  0.7002786224  0.0228577589
H   1.0043521690  1.1072836130 -0.9642942678
O   0.4841616505  1.1040402821  0.8389619530
C   1.2082375512 -0.3722486111 -0.0320527270
H   1.1877852155 -1.0495025376  0.7922813509
H   0.8822946031 -1.1571496482 -0.7411917608
H   2.2007757655 -0.7356802806 -0.3634051284
7
Iteration 171  Energy = -153.5932434737
C   0.8482433870  0.7033660250  0.0232233109
H   1.0027176818  1.1162747560 -0.9685669550
O   0.4847995600  1.1030050528  0.8379054538
C   1.2079697775 -0.3723365706 -0.0309729936
H   1.1918019552 -1.0628875082  0.7932130979
H   0.8817716473 -1.1653971472 -0.7405065142
H   2.2050720331 -0.7423481729 -0.3612021546
7
Iteration 172  Energy = -153.5915787149
C   0.8472161748  0.7064353083  0.0233644528
H   1.0001364389  1.1270988118 -0.9716006512
O   0.4854599101  1.1019462250  0.8367968619
C   1.2077109354 -0.3726277997 -0.0297118408
H   1.1954104546 -1.0759786087  0.7952531843
H   0.8830663524 -1.1726184341 -0.7397995264
H   2.2075931639 -0.7491565111 -0.3600292198
7
Iteration 173  Energy = -153.5881617398
C   0.8461718188  0.7092027529  0.0239013956
H   0.9974593025  1.1393065722 -0.9758376612
O   0.4862865415  1.1006502498  0.8353751024
C   1.2073389355 -0.3726618629 -0.0283548450
H   1.1984245244 -1.0878828983  0.7980479810
H   0.8860592108 -1.1783665495 -0.7387583207
H   2.2080198332 -0.7557121774 -0.3596296448
7
Iteration 174  Energy = -153.5878598152
C   0.8450277460  0.7122516686  0.0244768864
H   0.9956529000  1.1528966903 -0.9846180868
O   0.4868882906  1.0996647903  0.8343865382
C   1.2074904366 -0.3740879484 -0.0272807053
H   1.2000594488 -1.0968154759  0.8023286860
H   0.8894414836 -1.1818608050 -0.7379053740
H   2.2070852950 -0.7605714219 -0.3599488686
7
Iteration 175  Energy = -153.5890040424
C   0.8440368586  0.7149947524  0.0248633877
H   0.9944504509  1.1672279627 -0.9963086617
O   0.4873113124  1.0988678625  0.8338069304
C   1.2078012456 -0.3758820905 -0.0263591101
H   1.2009751075 -1.1039645178  0.8071225592
H   0.8925369090 -1.1840645314 -0.7370253608
H   2.2056660403 -0.7642083348 -0.3603195067
7
Iteration 176  Energy = -153.5871909172
C   0.8429788140  0.7175465487  0.0256945281
H   0.9931775722  1.1815566240 -1.0077543320
O   0.4879629622  1.0977599187  0.8327805571
C   1.2078704679 -0.3770597038 -0.0252881243
H   1.2020003706 -1.1110114686  0.8114209558
H   0.8963208566 -1.1861621337 -0.7358127797
H   2.2035692103 -0.7681814950 -0.3607593466
7
Iteration 177  Energy = -153.5897016339
C   0.8421709846  0.7205011959  0.0252149178
H   0.9911102558  1.1964319676 -1.0170596404
O   0.4882453684  1.0970940975  0.8325418604
C   1.2082347770 -0.3793601744 -0.0239963971
H   1.2030987068 -1.1175944311  0.8149515191
H   0.9005116986 -1.1878658316 -0.7349369692
H   2.2011498440 -0.7719972310 -0.3617487458
7
Iteration 178  Energy = -153.5924563626
C   0.8414735048  0.7235021542  0.0243018609
H   0.9887378562  1.2111538460 -1.0251410334
O   0.4885018354  1.0963986544  0.8324257610
C   1.2085211815 -0.3816720793 -0.0224224079
H   1.2043046580 -1.1242500577  0.8181931811
H   0.9052742991 -1.1892805970 -0.7344691172
H   2.1983812747 -0.7758211453 -0.3634095585
7
Iteration 179  Energy = -153.5933840856
C   0.8406602039  0.7266783390  0.0235950661
H   0.9864844784  1.2248930744 -1.0325469705
O   0.4889217434  1.0954587361  0.8320150322
C   1.2086399302 -0.3837233330 -0.0205564645
H   1.2055874382 -1.1308655194  0.8211261721
H   0.9111147345 -1.1906294619 -0.7345899500
H   2.1951226864 -0.7800819599 -0.3661087785
7
Iteration 180  Energy = -153.5958623913
C   0.8398465589  0.7301860624  0.0225229045
H   0.9846199429  1.2366658952 -1.0391217076
O   0.4891827527  1.0947215051  0.8319295656
C   1.2089130584 -0.3863675676 -0.0185677655
H   1.2064990351 -1.1359587877  0.8236570076
H   0.9176832982 -1.1916812344 -0.7359467508
H   2.1918049346 -0.7842973759 -0.3702727467
7
Iteration 181  Energy = -153.5987631250
C   0.8389359015  0.7339189685  0.0215377691
H   0.9834464122  1.2459551391 -1.0453375950
O   0.4893483565  1.0941616472  0.8319777046
C   1.2093229700 -0.3894177317 -0.0166026345
H   1.2068243395 -1.1390339307  0.8259804165
H   0.9250867485 -1.1927138016 -0.7387100214
H   2.1885879748 -0.7887281766 -0.3760583562
7
Iteration 182  Energy = -153.6026549430
C   0.8380438699  0.7376261085  0.0205177178
H   0.9828771115  1.2527860776 -1.0509227298
O   0.4893315540  1.0939122498  0.8323129637
C   1.2098952070 -0.3928428290 -0.0147839527
H   1.2063984746 -1.1397070229  0.8282414635
H   0.9330606159 -1.1937540019 -0.7429161851
H   2.1856865714 -0.7932481515 -0.3833656758
7
Iteration 183  Energy = -153.6077792201
C   0.8373014053  0.7410606438  0.0192828945
H   0.9826562473  1.2576973792 -1.0555888394
O   0.4891034833  1.0939880099  0.8330189044
C   1.2105818683 -0.3964677911 -0.0131398953
H   1.2052168860 -1.1382105546  0.8307151847
H   0.9412998798 -1.1946979573 -0.7483196539
H   2.1831346385 -0.7976453941 -0.3918507912
7
Iteration 184  Energy = -153.6140329747
C   0.8367626544  0.7441249709  0.0177537532
H   0.9825918090  1.2612577765 -1.0593013182
O   0.4886874175  1.0943300586  0.8340802203
C   1.2113330086 -0.4001450390 -0.0116611125
H   1.2033953648 -1.1350749098  0.8335897368
H   0.9494979047 -1.1954385150 -0.7545317985
H   2.1808956170 -0.8017265077 -0.4010458664
7
Iteration 185  Energy = -153.6210671555
C   0.8364141616  0.7468345247  0.0159595091
H   0.9825883253  1.2638916236 -1.0621995686
O   0.4881339414  1.0948535207  0.8354159246
C   1.2121097080 -0.4037806982 -0.0103168856
H   1.2010759473 -1.1307847328  0.8369108885
H   0.9575253252 -1.1959285952 -0.7612256407
H   2.1788735091 -0.8054336981 -0.4106129929
7
Iteration 186  Energy = -153.6271567814
C   0.8361371869  0.7492315426  0.0142639539
H   0.9826428529  1.2659030751 -1.0646097351
O   0.4876173049  1.0953147954  0.8366929690
C   1.2127665993 -0.4070636987 -0.0089480567
H   1.1982223767 -1.1253405220  0.8408072967
H   0.9663812756 -1.1962393698 -0.7685492555
H   2.1764897091 -0.8093428522 -0.4211517213
7
Iteration 187  Energy = -153.6343213367
C   0.8361496331  0.7511639310  0.0120815915
H   0.9825252555  1.2674642614 -1.0659263984
O   0.4869551236  1.0959217251  0.8383121685
C   1.2133915799 -0.4101737161 -0.0076602854
H   1.1950646930 -1.1191200192  0.8448970256
H   0.9749740335 -1.1961704449 -0.7758833621
H   2.1740870267 -0.8127944182 -0.4316310012
7
Iteration 188  Energy = -153.6383878141
C   0.8361272861  0.7528157357  0.0103299765
H   0.9822981392  1.2685395146 -1.0663254965
O   0.4865320270  1.0961801905  0.8394900820
C   1.2136568640 -0.4123843087 -0.0061221588
H   1.1917489310 -1.1122543843  0.8488204818
H   0.9859981322 -1.1965124599 -0.7836201130
H   2.1704264330 -0.8178373275 -0.4435706056
7
Iteration 189  Energy = -153.6446780733
C   0.8362421366  0.7545847508  0.0079741054
H   0.9819476977  1.2697388740 -1.0664355517
O   0.4858817397  1.0967271575  0.8411345249
C   1.2141449964 -0.4151073932 -0.0047885258
H   1.1886667687 -1.1060622939  0.8526741229
H   0.9956745252 -1.1968186544 -0.7906222454
H   2.1673190713 -0.8222356817 -0.4542320496
7
Iteration 190  Energy = -153.6513236551
C   0.8363656019  0.7564644250  0.0054660916
H   0.9815945984  1.2708555845 -1.0664452898
O   0.4851694842  1.0973560372  0.8429026210
C   1.2147150371 -0.4179776412 -0.0035757598
H   1.1857360055 -1.1004611072  0.8566541741
H   1.0050810277 -1.1972681925 -0.7971342305
H   2.1642377801 -0.8266822799 -0.4643198634
7
Iteration 191  Energy = -153.6580294357
C   0.8366170059  0.7581591009  0.0027204101
H   0.9811472307  1.2717123231 -1.0658416079
O   0.4844204076  1.0979884913  0.8447940383
C   1.2152455641 -0.4206653673 -0.0024286397
H   1.1828489072 -1.0948750983  0.8604984641
H   1.0150116999 -1.1973592548 -0.8028461748
H   2.1602136978 -0.8312394292 -0.4740285912
7
Iteration 192  Energy = -153.6640908368
C   0.8376442732  0.7581019688 -0.0007700989
H   0.9800730913  1.2713910190 -1.0617666037
O   0.4836982361  1.0983593084  0.8468816412
C   1.2151772496 -0.4214318491 -0.0013381742
H   1.1804423221 -1.0883159791  0.8615949742
H   1.0267835078 -1.1953092141 -0.8048313922
H   2.1519583689 -0.8355989741 -0.4817512196
7
Iteration 193  Energy = -153.6691119413
C   0.8392953244  0.7551517740 -0.0032169952
H   0.9787238664  1.2678730742 -1.0531988371
O   0.4831708554  1.0986956295  0.8483336644
C   1.2147448648 -0.4190833785 -0.0024503124
H   1.1814373710 -1.0861743085  0.8557763253
H   1.0250429277 -1.1933310922 -0.7961978841
H   2.1479024914 -0.8343689422 -0.4737720344
7
Iteration 194  Energy = -153.6752436988
C   0.8410766178  0.7520435792 -0.0059393116
H   0.9773902204  1.2646665664 -1.0450323242
O   0.4824591100  1.0993327629  0.8500903877
C   1.2143872997 -0.4169750824 -0.0035539774
H   1.1826142791 -1.0849519321  0.8503369504
H   1.0217924221 -1.1915934817 -0.7888534131
H   2.1456419016 -0.8323205570 -0.4661372629
7
Iteration 195  Energy = -153.6808138272
C   0.8429670273  0.7486726580 -0.0087480910
H   0.9760975173  1.2612331304 -1.0367578358
O   0.4817315580  1.0999620455  0.8519104322
C   1.2139424509 -0.4147378838 -0.0044968386
H   1.1831942657 -1.0825137988  0.8456184311
H   1.0194652765 -1.1892831177 -0.7826817335
H   2.1430046774 -0.8301144971 -0.4600493737
7
Iteration 196  Energy = -153.6862400501
C   0.8448844040  0.7452225597 -0.0115623403
H   0.9751376414  1.2566138651 -1.0283231244
O   0.4809453959  1.1006679223  0.8538484970
C   1.2135582062 -0.4126558488 -0.0054766486
H   1.1828328563 -1.0780816817  0.8419554748
H   1.0176819483 -1.1864937776 -0.7777169886
H   2.1403190014 -0.8276189952 -0.4553381094
7
Iteration 197  Energy = -153.6905225722
C   0.8467624251  0.7416069559 -0.0140571258
H   0.9745751411  1.2508472487 -1.0199946132
O   0.4802035112  1.1013517047  0.8556579196
C   1.2131489719 -0.4104474692 -0.0065091992
H   1.1819568123 -1.0724518360  0.8387471318
H   1.0159514296 -1.1833333654 -0.7735051461
H   2.1377616731 -0.8247276438 -0.4513587073
7
Iteration 198  Energy = -153.6962800596
C   0.8487161404  0.7381300726 -0.0169673588
H   0.9739652969  1.2462926245 -1.0128449201
O   0.4792834615  1.1022905562  0.8578012824
C   1.2129285422 -0.4088561068 -0.0075121582
H   1.1814810540 -1.0679814008  0.8354314131
H   1.0123462606 -1.1798657513 -0.7694413012
H   2.1364022096 -0.8205452685 -0.4466477047
7
Iteration 199  Energy = -153.7025912873
C   0.8507096499  0.7348247473 -0.0202051932
H   0.9732928504  1.2428509833 -1.0067111853
O   0.4782557761  1.1033606388  0.8601717020
C   1.2128144706 -0.4076991230 -0.0084021506
H   1.1812692505 -1.0642870618  0.8320582502
H   1.0081930124 -1.1761803808 -0.7654869364
H   2.1353563665 -0.8158687671 -0.4418001627
7
Iteration 200  Energy = -153.7084634462
C   0.8527167788  0.7315439848 -0.0235174038
H   0.9726813541  1.2396235997 -1.0010260239
O   0.4771948375  1.1044722771  0.8626112139
C   1.2127263292 -0.4066635087 -0.0092471864
H   1.1810347808 -1.0606018763  0.8287724257
H   1.0040194666 -1.1723602736 -0.7617333913
H   2.1343490860 -0.8110381541 -0.4371366532
