7
Image 0  Energy = -153.9152250348
C   0.8260657415  0.5508603911 -0.1261794589
H   0.4554445983  1.2417513435 -0.8784317668
O   0.5680753083  1.0246514429  1.1187434847
C   1.4411098584 -0.5873603774 -0.4363613732
H   0.9099091373  0.3932317500  1.7666320721
H   1.5916834696 -0.8592929697 -1.4741885892
H   1.8089534565 -1.2734747403  0.3237244514
7
Image 1  Energy = -153.8684115600
C   0.8199307582  0.6149461163 -0.1173327412
H   0.5649618608  1.2658715167 -0.9154628706
O   0.4998924964  1.0919143049  1.0784432898
C   1.3929469463 -0.5570179681 -0.3332718835
H   0.9304779846  0.1381839641  1.6196334196
H   1.4385852323 -0.9294403796 -1.3112491163
H   1.9544462911 -1.1340907152  0.2731787219
7
Image 2  Energy = -153.7809017068
C   0.8115984679  0.6826212040 -0.1017544362
H   0.6674738817  1.2866781928 -0.9483043102
O   0.4231399030  1.1827343114  1.0179300902
C   1.3488811898 -0.5436489933 -0.2191442403
H   0.9637438319 -0.1281032009  1.4920557025
H   1.2961977672 -0.9945642887 -1.1565864663
H   2.0902065271 -0.9953503851  0.2097424809
7
Image 3  Energy = -153.8125506246
C   0.7984916751  0.7550531614 -0.0712968762
H   0.7632985208  1.3032861530 -0.9739841952
O   0.3482692064  1.2805475637  0.9444705629
C   1.3163518050 -0.5480327253 -0.0902023744
H   1.0016773704 -0.3912272799  1.3592243942
H   1.1636790019 -1.0559239935 -1.0046476963
H   2.2094739880 -0.8533360394  0.1303750051
7
Image 4  Energy = -153.8988538717
C   0.7909631048  0.8120709354 -0.0523649319
H   0.8686207746  1.3227337626 -1.0001575344
O   0.2707177552  1.3717657819  0.8831515465
C   1.3030727538 -0.5441502553  0.0276811480
H   1.0335100628 -0.6519698970  1.2239727321
H   1.0222621059 -1.1201730286 -0.8371246699
H   2.3120950131 -0.6999104590  0.0487805289
7
Image 5  Energy = -153.9311086108
C   0.7840367852  0.8656586589 -0.0371164025
H   0.9809293880  1.3403901038 -1.0231241499
O   0.1875804579  1.4681235287  0.8223429327
C   1.3100769769 -0.5359012779  0.1153731248
H   1.0639489065 -0.9236344469  1.1059940899
H   0.8779311114 -1.1816924395 -0.6582837811
H   2.3967379442 -0.5425772870 -0.0312469938
