17
Image 0  Energy = -421.8674527846
C  -2.0000000000  0.5000000000  0.0000000000
O  -2.0000000000  1.7200000000  0.0000000000
C  -0.7500000000 -0.3500000000  0.0000000000
C   0.5500000000  0.4500000000  0.0000000000
C   1.8500000000 -0.3500000000  0.0000000000
O   1.9500000000 -1.5500000000  0.0000000000
C   3.0500000000  0.5500000000  0.0000000000
O   4.5000000000  2.2000000000  0.0000000000
H  -2.9500000000  0.0000000000  0.0000000000
H  -0.8000000000 -1.0000000000  0.8800000000
H  -0.8000000000 -1.0000000000 -0.8800000000
H   0.6000000000  1.1000000000  0.8800000000
H   0.6000000000  1.1000000000 -0.8800000000
H   3.0000000000  1.2000000000  0.8800000000
H   3.0000000000  1.2000000000 -0.8800000000
H   3.9500000000  0.0000000000  0.0000000000
H   4.8000000000  3.1000000000  0.0000000000
17
Image 1  Energy = -421.8675135839
C  -1.9985845296  0.4991459186  0.0010840684
O  -1.9990098527  1.7187520439  0.0021379016
C  -0.7499911477 -0.3494459878 -0.0007430147
C   0.5500718558  0.4504176565 -0.0009355914
C   1.8497761141 -0.3489704196  0.0003500084
O   1.9510539890 -1.5471461049  0.0003074627
C   3.0472747381  0.5490179103  0.0016440100
O   4.5004463455  2.2000769255 -0.0010004264
H  -2.9480791501 -0.0014736122  0.0012896442
H  -0.7999498848 -0.9998052331  0.8775271317
H  -0.8008961525 -0.9979070778 -0.8801805319
H   0.5998650173  1.1009480215  0.8779981676
H   0.6005650897  1.0993044897 -0.8810283295
H   2.9979280537  1.1969347133  0.8804932676
H   3.0022226433  1.2001152788 -0.8802540339
H   3.9470139704  0.0000610757  0.0028563077
H   4.8002929005  3.0999744015 -0.0015460419
17
Image 2  Energy = -421.8675331145
C  -1.9971631854  0.4982965102  0.0021680871
O  -1.9980202107  1.7175019665  0.0042757159
C  -0.7499821894 -0.3488912640 -0.0014859879
C   0.5501424908  0.4508345529 -0.0018711350
C   1.8495533610 -0.3479350496  0.0006999823
O   1.9521049743 -1.5442984304  0.0006149124
C   3.0445429662  0.5480344760  0.0032876151
O   4.5008964291  2.2001576286 -0.0020008273
H  -2.9461612965 -0.0029497497  0.0025792373
H  -0.7998999126 -0.9996108405  0.8750540836
H  -0.8017924184 -0.9958146211 -0.8803607879
H   0.5997293348  1.1018958136  0.8759958562
H   0.6011294554  1.0986088195 -0.8820560576
H   2.9958563986  1.1938688692  0.8809861340
H   3.0044454044  1.2002295969 -0.8805073160
H   3.9440310690  0.0001199679  0.0057125080
H   4.8005873294  3.0999517540 -0.0030920201
17
Image 3  Energy = -421.8675099500
C  -1.9957389630  0.4974494079  0.0032521222
O  -1.9970308030  1.7162508989  0.0064135780
C  -0.7499730408 -0.3483361010 -0.0022289604
C   0.5502124842  0.4512510429 -0.0028066849
C   1.8493309905 -0.3468963922  0.0010499332
O   1.9531545097 -1.5414543353  0.0009223680
C   3.0418080604  0.5470505351  0.0049307474
O   4.5013483753  2.2002402054 -0.0030012730
H  -2.9442448949 -0.0044272164  0.0038688613
H  -0.7998499948 -0.9994167070  0.8725809580
H  -0.8026887735 -0.9937224014 -0.8805410444
H   0.5995932897  1.1028435723  0.8739932769
H   0.6016934805  1.0979130830 -0.8830835875
H   2.9937847758  1.1908027877  0.8814789962
H   3.0066682932  1.2003433354 -0.8807600452
H   3.9410496831  0.0001777179  0.0085687859
H   4.8008825276  3.0999305669 -0.0046380316
17
Image 4  Energy = -421.8674445302
C  -1.9943089880  0.4966069196  0.0043361881
O  -1.9960418656  1.7149978531  0.0085515326
C  -0.7499635105 -0.3477800602 -0.0029719305
C   0.5502811945  0.4516667195 -0.0037422462
C   1.8491093791 -0.3458511628  0.0013998375
O   1.9542011446 -1.5386174075  0.0012298350
C   3.0390668982  0.5460655846  0.0065729288
O   4.5018040454  2.2003265289 -0.0040018059
H  -2.9423313999 -0.0059073391  0.0051585453
H  -0.7998001860 -0.9992230928  0.8701076818
H  -0.8035853060 -0.9916306595 -0.8807213024
H   0.5994565194  1.1037912630  0.8719901649
H   0.6022568238  1.0972172151 -0.8841107194
H   2.9917132228  1.1877362389  0.8819718505
H   3.0088914326  1.2004559145 -0.8810116671
H   3.9380713320  0.0002331842  0.0114252143
H   4.8011792637  3.0999123005 -0.0061841073
17
Image 5  Energy = -421.8673352246
C  -1.9928761983  0.4957667074  0.0054203118
O  -1.9950531447  1.7137438891  0.0106896275
C  -0.7499536495 -0.3472234965 -0.0037149199
C   0.5503492324  0.4520819635 -0.0046778442
C   1.8488879498 -0.3448022589  0.0017497128
O   1.9552463842 -1.5357845359  0.0015373199
C   3.0363227420  0.5450802987  0.0082143606
O   4.5022615700  2.2004147097 -0.0050024397
H  -2.9404193090 -0.0073888574  0.0064483171
H  -0.7997504143 -0.9990298114  0.8676343413
H  -0.8044819611 -0.9895391598 -0.8809017018
H   0.5993193734  1.1047390024  0.8699867565
H   0.6028198482  1.0965212945 -0.8851377564
H   2.9896415928  1.1846695006  0.8824649007
H   3.0111147654  1.2005678147 -0.8812625566
H   3.9350944449  0.0002874598  0.0142818519
H   4.8014767735  3.0998954796 -0.0077302816
17
Image 6  Energy = -421.8671811804
C  -1.9914415739  0.4949279918  0.0065045032
O  -1.9940645551  1.7124893592  0.0128278804
C  -0.7499434734 -0.3466665276 -0.0044579362
C   0.5504168019  0.4524969025 -0.0056134884
C   1.8486665030 -0.3437506478  0.0020995651
O   1.9562907324 -1.5329546848  0.0018448252
C   3.0335766850  0.5440949041  0.0098551085
O   4.5027203260  2.2005041173 -0.0060031789
H  -2.9385081192 -0.0088713522  0.0077381871
H  -0.7997006555 -0.9988368015  0.8651609637
H  -0.8053787215 -0.9874478223 -0.8810822903
H   0.5991819679  1.1056868302  0.8679831286
H   0.6033826754  1.0958253473 -0.8861648004
H   2.9875698366  1.1816026655  0.8829582168
H   3.0133382730  1.2006791964 -0.8815128377
H   3.9321184949  0.0003409095  0.0171387206
H   4.8017748025  3.0998796123 -0.0092765672
17
Image 7  Energy = -421.8669814401
C  -1.9900056053  0.4940903836  0.0075887680
O  -1.9930760541  1.7112344393  0.0149663016
C  -0.7499329892 -0.3461092117 -0.0052009835
C   0.5504840049  0.4529116006 -0.0065491837
C   1.8484449333 -0.3426968140  0.0024493972
O   1.9573344425 -1.5301273382  0.0021523521
C   3.0308292785  0.5431095162  0.0114952045
O   4.5031800017  2.2005944362 -0.0070040259
H  -2.9365975782 -0.0103546145  0.0090281611
H  -0.7996508977 -0.9986440327  0.8626875617
H  -0.8062755791 -0.9853566067 -0.8812630927
H   0.5990443611  1.1066347669  0.8659793188
H   0.6039453665  1.0951293860 -0.8871919032
H   2.9854979298  1.1785357801  0.8834518349
H   3.0155619458  1.2007901399 -0.8817625720
H   3.9291432167  0.0003937162  0.0199958326
H   4.8020732230  3.0998644527 -0.0108229713
17
Image 8  Energy = -421.8667356196
C  -1.9885685873  0.4932536496  0.0086731100
O  -1.9920876160  1.7099792343  0.0171048982
C  -0.7499222002 -0.3455515837 -0.0059440645
C   0.5505509025  0.4533260964 -0.0074849337
C   1.8482231727 -0.3416410486  0.0027992111
O   1.9583776678 -1.5273021884  0.0024599012
C   3.0280808571  0.5421242059  0.0131346667
O   4.5036404101  2.2006854772 -0.0080049822
H  -2.9346875334 -0.0118385195  0.0103182432
H  -0.7996011332 -0.9984514875  0.8602141423
H  -0.8071725298 -0.9832654880 -0.8814441246
H   0.5989065874  1.1075828255  0.8639753489
H   0.6045079584  1.0944334180 -0.8882190963
H   2.9834258575  1.1754688728  0.8839457779
H   3.0177857782  1.2009006932 -0.8820117961
H   3.9261684496  0.0004459897  0.0228531966
H   4.8023719586  3.0998498533 -0.0123694986
17
Image 9  Energy = -421.8664429426
C  -1.9871307164  0.4924176346  0.0097575323
O  -1.9910992235  1.7087238135  0.0192436757
C  -0.7499111080 -0.3449936664 -0.0066871810
C   0.5506175356  0.4537404160 -0.0084207408
C   1.8480011718 -0.3405835462  0.0031490077
O   1.9594205115 -1.5244790320  0.0027674732
C   3.0253316472  0.5411390221  0.0147735066
O   4.5041014268  2.2007771141 -0.0090060487
H  -2.9327778826 -0.0133229846  0.0116084364
H  -0.7995513573 -0.9982591543  0.8577407097
H  -0.8080695709 -0.9811744495 -0.8816253971
H   0.5987686698  1.1085310146  0.8619712329
H   0.6050704758  1.0937374480 -0.8892464013
H   2.9813536098  1.1724019627  0.8844400622
H   3.0200097663  1.2010108887 -0.8822605339
H   3.9231940858  0.0004978033  0.0257108191
H   4.8026709581  3.0998357154 -0.0139161530
17
Image 10  Energy = -421.8661031462
C  -1.9856921334  0.4915822285  0.0108420373
O  -1.9901108642  1.7074682263  0.0213826386
C  -0.7498997130 -0.3444354760 -0.0074303344
C   0.5506839330  0.4541545781 -0.0093566071
C   1.8477788918 -0.3395244463  0.0034987880
O   1.9604630483 -1.5216577251  0.0030750684
C   3.0225818136  0.5401540015  0.0164117317
O   4.5045629632  2.2008692569 -0.0100072261
H  -2.9308685523 -0.0148079510  0.0128987433
H  -0.7995015663 -0.9980670255  0.8552672666
H  -0.8089667011 -0.9790834787 -0.8818069186
H   0.5986306247  1.1094793411  0.8599669803
H   0.6056329367  1.0930414793 -0.8902738338
H   2.9792811796  1.1693350634  0.8849347003
H   3.0222339071  1.2011207493 -0.8825088025
H   3.9202200472  0.0005492094  0.0285687055
H   4.8029701852  3.0998219687 -0.0154629373
17
Image 11  Energy = -421.8657148718
C  -1.9842529442  0.4907473486  0.0119266272
O  -1.9891225288  1.7062125093  0.0235217910
C  -0.7498880154 -0.3438770242 -0.0081735259
C   0.5507501167  0.4545685971 -0.0102925345
C   1.8475563000 -0.3384638538  0.0038485523
O   1.9615053348 -1.5188381614  0.0033826872
C   3.0198314826  0.5391691729  0.0180493471
O   4.5050249531  2.2009618384 -0.0110085148
H  -2.9289594868 -0.0162933751  0.0141891661
H  -0.7994517574 -0.9978750954  0.8527938145
H  -0.8098639197 -0.9769925660 -0.8819886960
H   0.5984924642  1.1104278104  0.8579625976
H   0.6061953545  1.0923455143 -0.8913014061
H   2.9772085612  1.1662681853  0.8854297026
H   3.0244581982  1.2012302923 -0.8827566144
H   3.9172462747  0.0006002472  0.0314268605
H   4.8032696124  3.0998085604 -0.0170098544
17
Image 12  Energy = -421.8652783553
C  -1.9828132310  0.4899129311  0.0130113041
O  -1.9881342098  1.7049566905  0.0256611367
C  -0.7498760144 -0.3433183201 -0.0089167566
C   0.5508161031  0.4549824840 -0.0112285244
C   1.8473333680 -0.3374018511  0.0041983012
O   1.9625474160 -1.5160202593  0.0036903298
C   3.0170807546  0.5381845601  0.0196863559
O   4.5054873454  2.2010548063 -0.0120099154
H  -2.9270506421 -0.0177792233  0.0154797070
H  -0.7994019285 -0.9976833600  0.8503203543
H  -0.8107612265 -0.9749017038 -0.8821707349
H   0.5983541974  1.1113764267  0.8559580898
H   0.6067577399  1.0916495545 -0.8923291280
H   2.9751357500  1.1632013367  0.8859250781
H   3.0266826378  1.2013395310 -0.8830039794
H   3.9142727216  0.0006509473  0.0342852883
H   4.8035692185  3.0997954494 -0.0185569066
17
Image 13  Energy = -421.8667977256
C  -1.9813730601  0.4890789251  0.0140960699
O  -1.9871459014  1.7037007924  0.0278006790
C  -0.7498637094 -0.3427593705 -0.0096600273
C   0.5508819058  0.4553962482 -0.0121645783
C   1.8471100702 -0.3363385043  0.0045480346
O   1.9635893285 -1.5132039547  0.0039979967
C   3.0143297125  0.5372001834  0.0213227602
O   4.5059500998  2.2011481194 -0.0130114281
H  -2.9251419829 -0.0192654691  0.0167703677
H  -0.7993520779 -0.9974918164  0.8478468865
H  -0.8116586215 -0.9728108858 -0.8823530406
H   0.5982158318  1.1123251940  0.8539534602
H   0.6073201015  1.0909536013 -0.8933570076
H   2.9730627422  1.1601345242  0.8864208351
H   3.0289072241  1.2014484762 -0.8832509050
H   3.9112993502  0.0007013338  0.0371439931
H   4.8038689865  3.0997826028 -0.0201040962
17
Image 14  Energy = -421.8662703616
C  -1.9799323306  0.4882452954  0.0151809155
O  -1.9861576334  1.7024448069  0.0299404035
C  -0.7498511321 -0.3422001099 -0.0104033302
C   0.5509475031  0.4558099186 -0.0131006897
C   1.8468863103 -0.3352740270  0.0048977477
O   1.9646311544 -1.5103891084  0.0043056865
C   3.0115783898  0.5362160981  0.0229585371
O   4.5064132018  2.2012417452 -0.0140130469
H  -2.9232335009 -0.0207520743  0.0180611399
H  -0.7993021870 -0.9973004538  0.8453734075
H  -0.8125560790 -0.9707201141 -0.8825355917
H   0.5980773651  1.1132740904  0.8519487168
H   0.6078824329  1.0902576446 -0.8943850311
H   2.9709895393  1.1570677552  0.8869169487
H   3.0311319316  1.2015571006 -0.8834973521
H   3.9083261315  0.0007514128  0.0400029514
H   4.8041689030  3.0997700197 -0.0216514129
17
Image 15  Energy = -421.8656973132
C  -1.9784864082  0.4874159784  0.0162662894
O  -1.9851696556  1.7011875589  0.0320813181
C  -0.7498365958 -0.3416389457 -0.0111468606
C   0.5510114450  0.4562225344 -0.0140371769
C   1.8466606243 -0.3341989247  0.0052473418
O   1.9656708440 -1.5075867131  0.0046135247
C   3.0088226150  0.5352330619  0.0245902303
O   4.5068799829  2.2013389449 -0.0150153737
H  -2.9213273326 -0.0222421082  0.0193526409
H  -0.7992521901 -0.9971104496  0.8428998452
H  -0.8134541040 -0.9686298264 -0.8827197327
H   0.5979380076  1.1142238433  0.8499430526
H   0.6084443325  1.0895616736 -0.8954138267
H   2.9689151807  1.1540010421  0.8874153343
H   3.0333575997  1.2016634423 -0.8837406413
H   3.9053552476  0.0007986704  0.0428635967
H   4.8044704072  3.0997602173 -0.0231995619
17
Image 16  Energy = -421.8650759245
C  -1.9770379573  0.4865887926  0.0173519773
O  -1.9841818037  1.6999297466  0.0342229360
C  -0.7498209266 -0.3410767397 -0.0118905270
C   0.5510745264  0.4566346003 -0.0149738881
C   1.8464336816 -0.3331181381  0.0055968681
O   1.9667095413 -1.5047910540  0.0049214499
C   3.0060648246  0.5342507482  0.0262195855
O   4.5073486077  2.2014379246 -0.0160181111
H  -2.9194222601 -0.0237339328  0.0206445715
H  -0.7992021216 -0.9969212065  0.8404262447
H  -0.8143524547 -0.9665397787 -0.8829048227
H   0.5977981886  1.1151741144  0.8479368877
H   0.6090060415  1.0888657059 -0.8964431208
H   2.9668401323  1.1509344127  0.8879150827
H   3.0355838107  1.2017685441 -0.8839821658
H   3.9023854593  0.0008444694  0.0457252341
H   4.8047727099  3.0997517911 -0.0247482020
17
Image 17  Energy = -421.8644047749
C  -1.9755878672  0.4857630101  0.0184379089
O  -1.9831940219  1.6986716022  0.0363650974
C  -0.7498043983 -0.3405137789 -0.0126342994
C   0.5511370122  0.4570462854 -0.0159107737
C   1.8462056960 -0.3320333198  0.0059463432
O   1.9677476300 -1.5020002247  0.0052294422
C   3.0033058383  0.5332690510  0.0278471835
O   4.5078184659  2.2015380870 -0.0170211609
H  -2.9175178745 -0.0252270033  0.0219368333
H  -0.7991519930 -0.9967325259  0.8379526191
H  -0.8152510516 -0.9644498881 -0.8830906493
H   0.5976580508  1.1161247921  0.8459303604
H   0.6095676409  1.0881697468 -0.8974728234
H   2.9647645478  1.1478678760  0.8884158956
H   3.0378104262  1.2018727540 -0.8842223901
H   3.8994163503  0.0008892636  0.0485876344
H   4.8050755481  3.0997442729 -0.0262972212
17
Image 18  Energy = -421.8636832314
C  -1.9741365830  0.4849382669  0.0195240499
O  -1.9822062822  1.6974132414  0.0385077238
C  -0.7497871470 -0.3399502064 -0.0133781632
C   0.5511990344  0.4574576746 -0.0168478095
C   1.8459767668 -0.3309452991  0.0062957745
O   1.9687853040 -1.4992132733  0.0055374917
C   3.0005460716  0.5322879193  0.0294733134
O   4.5082892533  2.2016391341 -0.0180244745
H  -2.9156139699 -0.0267210482  0.0232293779
H  -0.7991018101 -0.9965443094  0.8354789739
H  -0.8161498559 -0.9623601121 -0.8832771075
H   0.5975176654  1.1170758213  0.8439235387
H   0.6101291714  1.0874737985 -0.8985028904
H   2.9626885032  1.1448014376  0.8889176276
H   3.0400373769  1.2019762464 -0.8844615468
H   3.8964477106  0.0009332797  0.0514506846
H   4.8053787905  3.0997374287 -0.0278465641
17
Image 19  Energy = -421.8629103934
C  -1.9726843721  0.4841143449  0.0206103806
O  -1.9812185676  1.6961547331  0.0406507693
C  -0.7497692532 -0.3393861075 -0.0141221097
C   0.5512606722  0.4578688195 -0.0177849814
C   1.8457469473 -0.3298545755  0.0066451659
O   1.9698226808 -1.4964296299  0.0058455925
C   2.9977857786  0.5313073242  0.0310981473
O   4.5087607883  2.2017408877 -0.0190280231
H  -2.9137104216 -0.0282159051  0.0245221768
H  -0.7990515762 -0.9963564981  0.8330053117
H  -0.8170488450 -0.9602704248 -0.8834641349
H   0.5973770746  1.1180271697  0.8419164625
H   0.6106906577  1.0867778621 -0.8995332962
H   2.9606120433  1.1417351022  0.8894201950
H   3.0422646213  1.2020791261 -0.8846997753
H   3.8934794132  0.0009766534  0.0543143176
H   4.8056823585  3.0997311179 -0.0293961986
17
Image 20  Energy = -421.8620852508
C  -1.9712314131  0.4832910988  0.0216968880
O  -1.9802308663  1.6948961232  0.0427942041
C  -0.7497507701 -0.3388215390 -0.0148661336
C   0.5513219779  0.4582797548 -0.0187222804
C   1.8455162682 -0.3287614838  0.0069945192
O   1.9708598400 -1.4936489162  0.0061537411
C   2.9950251326  0.5303272471  0.0327217991
O   4.5092329505  2.2018432292 -0.0200317882
H  -2.9118071456 -0.0297114665  0.0258152115
H  -0.7990012937 -0.9961690533  0.8305316337
H  -0.8179480044 -0.9581808083 -0.8836516910
H   0.5972363066  1.1189788161  0.8399091577
H   0.6112521164  1.0860819381 -0.9005640239
H   2.9585351971  1.1386688743  0.8899235456
H   3.0444921320  1.2021814637 -0.8849371689
H   3.8905113724  0.0010194746  0.0571784896
H   4.8059861995  3.0997252471 -0.0309461037
17
Image 21  Energy = -421.8612073404
C  -1.9697778340  0.4824684249  0.0227835636
O  -1.9792431701  1.6936374441  0.0449380080
C  -0.7497317348 -0.3382565411 -0.0156102309
C   0.5513829889  0.4586905054 -0.0196597005
C   1.8452847467 -0.3276662640  0.0073438347
O   1.9718968397 -1.4908708633  0.0064619348
C   2.9922642609  0.5293476754  0.0343443493
O   4.5097056541  2.2019460742 -0.0210357569
H  -2.9099040810 -0.0312076561  0.0271084693
H  -0.7989509643 -0.9959819478  0.8280579401
H  -0.8188473242 -0.9560912494 -0.8838397472
H   0.5970953813  1.1199307459  0.8379016426
H   0.6118135595  1.0853860266 -0.9015950623
H   2.9564579851  1.1356027584  0.8904276453
H   3.0467198895  1.2022833100 -0.8851737945
H   3.8875435265  0.0010618074  0.0600431696
H   4.8062902763  3.0997197493 -0.0324962648
17
Image 22  Energy = -421.8602759360
C  -1.9683237308  0.4816462456  0.0238704011
O  -1.9782554724  1.6923787202  0.0470821661
C  -0.7497121747 -0.3376911438 -0.0163543990
C   0.5514437329  0.4591010907 -0.0205972374
C   1.8450523920 -0.3265690971  0.0076931122
O   1.9729337245 -1.4880952709  0.0067701718
C   2.9895032619  0.5283685995  0.0359658579
O   4.5101788348  2.2020493591 -0.0220399203
H  -2.9080011816 -0.0327044171  0.0284019408
H  -0.7989005893 -0.9957951616  0.8255842309
H  -0.8197467973 -0.9540017380 -0.8840282827
H   0.5969543134  1.1208829485  0.8358939300
H   0.6123749960  1.0846901277 -0.9026264030
H   2.9543804219  1.1325367591  0.8909324712
H   3.0489478795  1.2023847038 -0.8854097027
H   3.8845758282  0.0011036998  0.0629083347
H   4.8065945609  3.0997145745 -0.0340466716
17
Image 23  Energy = -421.8592903473
C  -1.9668691786  0.4808245005  0.0249573961
O  -1.9772677682  1.6911199701  0.0492266676
C  -0.7496921105 -0.3371253703 -0.0170986359
C   0.5515042316  0.4595115257 -0.0215348880
C   1.8448192080 -0.3254701243  0.0080423507
O   1.9739705300 -1.4853219844  0.0070784507
C   2.9867422149  0.5273900122  0.0375863717
O   4.5106524424  2.2021530340 -0.0230442716
H  -2.9060984109 -0.0342017055  0.0296956191
H  -0.7988501697 -0.9956086791  0.8231105058
H  -0.8206464186 -0.9519122660 -0.8842172819
H   0.5968131145  1.1218354159  0.8338860298
H   0.6129364331  1.0839942412 -0.9036580401
H   2.9523025186  1.1294708814  0.8914380078
H   3.0511760911  1.2024856762 -0.8856449332
H   3.8816082406  0.0011451888  0.0657739676
H   4.8068990317  3.0997096838 -0.0355973163
17
Image 24  Energy = -421.8582500654
C  -1.9654142376  0.4800031417  0.0260445453
O  -1.9762800532  1.6898612088  0.0513715043
C  -0.7496715584 -0.3365592389 -0.0178429399
C   0.5515645022  0.4599218229 -0.0224726500
C   1.8445851950 -0.3243694589  0.0083915489
O   1.9750072856 -1.4825508815  0.0073867705
C   2.9839811855  0.5264119075  0.0392059287
O   4.5111264360  2.2022570585 -0.0240488061
H  -2.9041957393 -0.0356994866  0.0309894989
H  -0.7987997063 -0.9954224885  0.8206367644
H  -0.8215461845 -0.9498228268 -0.8844067328
H   0.5966717937  1.1227881419  0.8318779497
H   0.6134978767  1.0832983669 -0.9046899689
H   2.9502242835  1.1264051296  0.8919442443
H   3.0534045162  1.2025862531 -0.8858795187
H   3.8786407335  0.0011863044  0.0686400542
H   4.8072036712  3.0997050459 -0.0371481929
17
Image 25  Energy = -421.8571548290
C  -1.9639589574  0.4791821297  0.0271318463
O  -1.9752923239  1.6886024488  0.0535166695
C  -0.7496505310 -0.3359927646 -0.0185873098
C   0.5516245588  0.4603319931 -0.0234105216
C   1.8443503511 -0.3232671931  0.0087407054
O   1.9760440163 -1.4797818634  0.0076951303
C   2.9812202297  0.5254342800  0.0408245611
O   4.5116007816  2.2023613986 -0.0250535201
H  -2.9022931424 -0.0371977320  0.0322835760
H  -0.7987491999 -0.9952365802  0.8181630063
H  -0.8224460920 -0.9477334148 -0.8845966261
H   0.5965303585  1.1237411219  0.8298696956
H   0.6140593314  1.0826025046 -0.9057221859
H   2.9481457233  1.1233395080  0.8924511729
H   3.0556331482  1.2026864567 -0.8861134864
H   3.8756732823  0.0012270712  0.0715065832
H   4.8075084655  3.0997006356 -0.0386992967
17
Image 26  Energy = -421.8560038580
C  -1.9625033798  0.4783614318  0.0282192969
O  -1.9743045777  1.6873437006  0.0556621581
C  -0.7496290386 -0.3354259598 -0.0193317446
C   0.5516844133  0.4607420451 -0.0243485015
C   1.8441146727 -0.3221634031  0.0090898187
O   1.9770807440 -1.4770148489  0.0080035292
C   2.9784593957  0.5244571254  0.0424422973
O   4.5120754494  2.2024660249 -0.0260584108
H  -2.9003905994 -0.0386964185  0.0335778469
H  -0.7986986513 -0.9950509465  0.8156892313
H  -0.8233461390 -0.9456440254 -0.8847869541
H   0.5963888151  1.1246943518  0.8278612726
H   0.6146208012  1.0819066542 -0.9067546882
H   2.9460668434  1.1202740197  0.8929587868
H   3.0578619821  1.2027863069 -0.8863468601
H   3.8727058660  0.0012675102  0.0743735452
H   4.8078134027  3.0996964315 -0.0402506239
17
Image 27  Energy = -421.8547972362
C  -1.9610475403  0.4775410204  0.0293068956
O  -1.9733168119  1.6860849733  0.0578079657
C  -0.7496070896 -0.3348588350 -0.0200762432
C   0.5517440760  0.4611519873 -0.0252865884
C   1.8438781558 -0.3210581528  0.0094388877
O   1.9781174879 -1.4742497709  0.0083119666
C   2.9756987258  0.5234804398  0.0440591638
O   4.5125504132  2.2025709114 -0.0270634759
H  -2.8984880927 -0.0401955260  0.0348723086
H  -0.7986480611 -0.9948655810  0.8132154393
H  -0.8242463238 -0.9435546550 -0.8849777108
H   0.5962471689  1.1256478287  0.8258526849
H   0.6151822897  1.0812108155 -0.9077874734
H   2.9439876480  1.1172086670  0.8934670799
H   3.0600910138  1.2028858216 -0.8865796609
H   3.8697384672  0.0013076399  0.0772409320
H   4.8081184729  3.0996924158 -0.0418021714
17
Image 28  Energy = -421.8535347661
C  -1.9595914698  0.4767208716  0.0303946411
O  -1.9723290247  1.6848262751  0.0599540885
C  -0.7495846907 -0.3342913992 -0.0208208050
C   0.5518035558  0.4615618267 -0.0262247812
C   1.8436407955 -0.3199514954  0.0097879112
O   1.9791542655 -1.4714865729  0.0086204418
C   2.9729382573  0.5225042197  0.0456751858
O   4.5130256493  2.2026760345 -0.0280687137
H  -2.8965856073 -0.0416950377  0.0361669585
H  -0.7985974298 -0.9946804785  0.8107416305
H  -0.8251466450 -0.9414653004 -0.8851688915
H   0.5961054245  1.1266015497  0.8238439363
H   0.6157437996  1.0805149885 -0.9088205397
H   2.9419081410  1.1141434508  0.8939760453
H   3.0623202403  1.2029850178 -0.8868119083
H   3.8667710711  0.0013474765  0.0801087365
H   4.8084236675  3.0996885732 -0.0433539363
17
Image 29  Energy = -421.8522162523
C  -1.9581351954  0.4759009648  0.0314825322
O  -1.9713412144  1.6835676136  0.0621005233
C  -0.7495618476 -0.3337236602 -0.0215654289
C   0.5518628607  0.4619715700 -0.0271630788
C   1.8434025870 -0.3188434759  0.0101368883
O   1.9801910925 -1.4687252077  0.0089289541
C   2.9701780231  0.5215284618  0.0472903877
O   4.5135011357  2.2027813728 -0.0290741224
H  -2.8946831300 -0.0431949387  0.0374617945
H  -0.7985467583 -0.9944956347  0.8082678051
H  -0.8260471016 -0.9393759591 -0.8853604920
H   0.5959635859  1.1275555126  0.8218350302
H   0.6163053335  1.0798191733 -0.9098538854
H   2.9398283256  1.1110783715  0.8944856765
H   3.0645496590  1.2030839114 -0.8870436204
H   3.8638036652  0.0013870344  0.0829769522
H   4.8087289791  3.0996848903 -0.0449059162
17
Image 30  Energy = -421.8508417254
C  -1.9566787409  0.4750812813  0.0325705679
O  -1.9703533793  1.6823089957  0.0642472673
C  -0.7495385651 -0.3331556247 -0.0223101144
C   0.5519219978  0.4623812231 -0.0281014806
C   1.8431635253 -0.3177341327  0.0104858178
O   1.9812279836 -1.4659656352  0.0092375028
C   2.9674180521  0.5205531627  0.0489047930
O   4.5139768526  2.2028869068 -0.0300797008
H  -2.8927806493 -0.0446952163  0.0387568146
H  -0.7984960470 -0.9943110460  0.8057939636
H  -0.8269476930 -0.9372866288 -0.8855525090
H   0.5958216566  1.1285097155  0.8198259694
H   0.6168668933  1.0791233698 -0.9108875090
H   2.9377482049  1.1080134297  0.8949959677
H   3.0667792683  1.2031825175 -0.8872748145
H   3.8608362390  0.0014263266  0.0858455731
H   4.8090344009  3.0996813552 -0.0464581089
17
Image 31  Energy = -421.8494109037
C  -1.9552221274  0.4742618043  0.0336587474
O  -1.9693655181  1.6810504280  0.0663943182
C  -0.7495148471 -0.3325872987 -0.0230548608
C   0.5519809734  0.4627907916 -0.0290399858
C   1.8429236047 -0.3166234991  0.0108346980
O   1.9822649523 -1.4632078215  0.0095460875
C   2.9646583698  0.5195783183  0.0505184234
O   4.5144527822  2.2029926189 -0.0310854480
H  -2.8908781547 -0.0461958592  0.0400520169
H  -0.7984452966 -0.9941267090  0.8033201059
H  -0.8278484185 -0.9351973074 -0.8857449395
H   0.5956796397  1.1294641569  0.8178167567
H   0.6174284809  1.0784275781 -0.9119214096
H   2.9356677817  1.1049486270  0.8955069151
H   3.0690090668  1.2032808503 -0.8875055067
H   3.8578687837  0.0014653642  0.0887145940
H   4.8093399272  3.0996779576 -0.0480105126
17
Image 32  Energy = -421.8479237396
C  -1.9537653736  0.4734425181  0.0347470702
O  -1.9683776292  1.6797919167  0.0685416743
C  -0.7494906972 -0.3320186874 -0.0237996677
C   0.5520397931  0.4632002806 -0.0299785940
C   1.8426828190 -0.3155116041  0.0111835267
O   1.9833020113 -1.4604517380  0.0098547075
C   2.9618989984  0.5186039244  0.0521312983
O   4.5149289087  2.2030984934 -0.0320913633
H  -2.8889756367 -0.0476968575  0.0413474004
H  -0.7983945077 -0.9939426213  0.8008462318
H  -0.8287492781 -0.9331079926 -0.8859377810
H   0.5955375377  1.1304188355  0.8158073941
H   0.6179900974  1.0777317982 -0.9129555865
H   2.9335870583  1.1018839666  0.8960185177
H   3.0712390539  1.2033789232 -0.8877357121
H   3.8549012919  0.0015041564  0.0915840097
H   4.8096455527  3.0996746880 -0.0495631258
17
Image 33  Energy = -421.8461382922
C  -1.9523084963  0.4726234081  0.0358355360
O  -1.9673897112  1.6785334679  0.0706893343
C  -0.7494661182 -0.3314497953 -0.0245445348
C   0.5520984621  0.4636096946 -0.0309173049
C   1.8424411616 -0.3143984728  0.0115323014
O   1.9843391722 -1.4576973608  0.0101633624
C   2.9591399575  0.5176299777  0.0537434345
O   4.5154052184  2.2032045165 -0.0330974462
H  -2.8870730865 -0.0491982028  0.0426429637
H  -0.7983436811 -0.9937587802  0.7983723408
H  -0.8296502718 -0.9310186822 -0.8861310311
H   0.5953953530  1.1313737506  0.8137978834
H   0.6185517441  1.0770360298 -0.9139900392
H   2.9315060371  1.0988194520  0.8965307752
H   3.0734692292  1.2034767476 -0.8879654442
H   3.8519337573  0.0015427115  0.0944538160
H   4.8099512726  3.0996715380 -0.0511159473
17
Image 34  Energy = -421.8450491128
C  -1.9508515487  0.4718044984  0.0369241440
O  -1.9664017599  1.6772750609  0.0728372951
C  -0.7494411021 -0.3308806377 -0.0252894658
C   0.5521570110  0.4640190424 -0.0318561195
C   1.8421986224 -0.3132841184  0.0118810669
O   1.9853764597 -1.4549446412  0.0104720502
C   2.9563813026  0.5166564044  0.0553547393
O   4.5158816662  2.2033106474 -0.0341036900
H  -2.8851704929 -0.0506998857  0.0439387051
H  -0.7982928152 -0.9935751844  0.7958984369
H  -0.8305514008 -0.9289293751 -0.8863246885
H   0.5952530970  1.1323289089  0.8117882358
H   0.6191134201  1.0763402729 -0.9150247643
H   2.9294246730  1.0957550854  0.8970437321
H   3.0756996057  1.2035743466 -0.8881947218
H   3.8489661717  0.0015810656  0.0973240202
H   4.8102570904  3.0996685097 -0.0526689757
17
Image 35  Energy = -421.8433882344
C  -1.9493944621  0.4709856158  0.0380128954
O  -1.9654137761  1.6760168223  0.0749855692
C  -0.7494156726 -0.3303111937 -0.0260344515
C   0.5522153874  0.4644283148 -0.0327950350
C   1.8419551730 -0.3121685773  0.0122296839
O   1.9864138509 -1.4521936505  0.0107807754
C   2.9536229666  0.5156834341  0.0569655527
O   4.5163583272  2.2034169566 -0.0351101111
H  -2.8832678425 -0.0522019012  0.0452346288
H  -0.7982419219 -0.9933918301  0.7934245091
H  -0.8314526702 -0.9268400625 -0.8865187576
H   0.5951107456  1.1332842899  0.8097784207
H   0.6196751339  1.0756445259 -0.9160597725
H   2.9273431027  1.0926908621  0.8975572462
H   3.0779301438  1.2036716889 -0.8884235334
H   3.8459985329  0.0016191452  0.1001945934
H   4.8105629814  3.0996655598 -0.0542222136
17
Image 36  Energy = -421.8416691238
C  -1.9479372924  0.4701668671  0.0391017896
O  -1.9644257586  1.6747586640  0.0771341462
C  -0.7493898219 -0.3297414785 -0.0267794973
C   0.5522736249  0.4648375232 -0.0337340524
C   1.8417108256 -0.3110518545  0.0125782426
O   1.9874513749 -1.4494443219  0.0110895339
C   2.9508650131  0.5147109254  0.0585756670
O   4.5168351434  2.2035233858 -0.0361166970
H  -2.8813651360 -0.0537042436  0.0465307309
H  -0.7981909935 -0.9932087163  0.7909505605
H  -0.8323540758 -0.9247507466 -0.8867132301
H   0.5949683155  1.1342399061  0.8077684601
H   0.6202368796  1.0749487899 -0.9170950567
H   2.9252612417  1.0896267826  0.8980714026
H   3.0801608664  1.2037688023 -0.8886518933
H   3.8430308374  0.0016570067  0.1030655515
H   4.8108689556  3.0996627085 -0.0557756580
17
Image 37  Energy = -421.8398901246
C  -1.9464800497  0.4693482401  0.0401908277
O  -1.9634377052  1.6735005894  0.0792830277
C  -0.7493635522 -0.3291714938 -0.0275246038
C   0.5523317262  0.4652466706 -0.0346731720
C   1.8414655664 -0.3099339658  0.0129267424
O   1.9884890401 -1.4466966476  0.0113983252
C   2.9481074590  0.5137388890  0.0601850795
O   4.5173121124  2.2036299317 -0.0371234478
H  -2.8794623656 -0.0552069087  0.0478270120
H  -0.7981400309 -0.9930258413  0.7884765878
H  -0.8332556191 -0.9226614236 -0.8869081044
H   0.5948258075  1.1351957583  0.8057583532
H   0.6207986575  1.0742530642 -0.9181306181
H   2.9231790888  1.0865628481  0.8985862046
H   3.0823917718  1.2038656867 -0.8888798004
H   3.8400630827  0.0016946524  0.1059368960
H   4.8111750104  3.0996599504 -0.0573293094
17
Image 38  Energy = -421.8380490738
C  -1.9450227421  0.4685297226  0.0412800118
O  -1.9624496126  1.6722426007  0.0814322172
C  -0.7493368659 -0.3286012403 -0.0282697723
C   0.5523896932  0.4656557592 -0.0356123953
C   1.8412193760 -0.3088149298  0.0132751800
O   1.9895268537 -1.4439506221  0.0117071494
C   2.9453503213  0.5127673362  0.0617937746
O   4.5177892372  2.2037365956 -0.0381303647
H  -2.8775595217 -0.0567098941  0.0491234738
H  -0.7980890351 -0.9928432032  0.7860025855
H  -0.8341573028 -0.9205720882 -0.8871033799
H   0.5946832214  1.1361518483  0.8037480975
H   0.6213604678  1.0735573476 -0.9191664588
H   2.9210966408  1.0834990681  0.8991016700
H   3.0846228584  1.2039623385 -0.8891072492
H   3.8370952667  0.0017320802  0.1088086307
H   4.8114811438  3.0996572807 -0.0588831701
17
Image 39  Energy = -421.8361427410
C  -1.9435653760  0.4677113023  0.0423693453
O  -1.9614614765  1.6709846989  0.0835817203
C  -0.7493097649 -0.3280307179 -0.0290150048
C   0.5524475266  0.4660647910 -0.0365517244
C   1.8409722292 -0.3076947682  0.0136235505
O   1.9905648218 -1.4412062415  0.0120160066
C   2.9425936189  0.5117962791  0.0634017240
O   4.5182665247  2.2038433826 -0.0391374507
H  -2.8756565939 -0.0582131995  0.0504201194
H  -0.7980380069 -0.9926608002  0.7835285460
H  -0.8350591302 -0.9184827333 -0.8872990564
H   0.5945405566  1.1371081787  0.8017376886
H   0.6219223110  1.0728616381 -0.9202025820
H   2.9190138924  1.0804354596  0.8996178295
H   3.0868541251  1.2040587513 -0.8893342299
H   3.8341273875  0.0017692840  0.1116807615
H   4.8117873544  3.0996546951 -0.0604372436
17
Image 40  Energy = -421.8341683607
C  -1.9421079566  0.4668929674  0.0434588319
O  -1.9604732925  1.6697268841  0.0857315435
C  -0.7492822512 -0.3274599258 -0.0297603034
C   0.5525052267  0.4664737680 -0.0374911620
C   1.8407240982 -0.3065735038  0.0139718487
O   1.9916029495 -1.4384635032  0.0123248972
C   2.9398373730  0.5108257322  0.0650088946
O   4.5187439837  2.2039502987 -0.0401447093
H  -2.8737535709 -0.0597168253  0.0517169525
H  -0.7979869473 -0.9924786309  0.7810544613
H  -0.8359611049 -0.9163933518 -0.8874951346
H   0.5943978125  1.1380647527  0.7997271211
H   0.6224841880  1.0721659335 -0.9212389912
H   2.9169308370  1.0773720408  0.9001347183
H   3.0890855705  1.2041549170 -0.8895607302
H   3.8311594429  0.0018062566  0.1145532958
H   4.8120936413  3.0996521898 -0.0619915340
17
Image 41  Energy = -421.8321239358
C  -1.9406504894  0.4660747082  0.0445484752
O  -1.9594850563  1.6684691563  0.0878816928
C  -0.7492543262 -0.3268888632 -0.0305056697
C   0.5525627940  0.4668826920 -0.0384307103
C   1.8404749561 -0.3054511573  0.0143200717
O   1.9926412412 -1.4357224057  0.0126338210
C   2.9370816086  0.5098557159  0.0666152587
O   4.5192216209  2.2040573483 -0.0411521434
H  -2.8718504427 -0.0612207720  0.0530139763
H  -0.7979358569 -0.9922966939  0.7785803245
H  -0.8368632305 -0.9143039374 -0.8876916161
H   0.5942549885  1.1390215731  0.7977163904
H   0.6230460996  1.0714702318 -0.9222756896
H   2.9148474673  1.0743088216  0.9006523612
H   3.0913171924  1.2042508277 -0.8897867384
H   3.8281914296  0.0018429930  0.1174262411
H   4.8124000038  3.0996497617 -0.0635460454
17
Image 42  Energy = -421.8300084122
C  -1.9391929814  0.4652565172  0.0456382778
O  -1.9584967653  1.6672115159  0.0900321718
C  -0.7492259911 -0.3263175298 -0.0312511048
C   0.5526202300  0.4672915651 -0.0393703705
C   1.8402247814 -0.3043277449  0.0146682212
O   1.9936797010 -1.4329829480  0.0129427776
C   2.9343263546  0.5088862557  0.0682208050
O   4.5196994385  2.2041645314 -0.0421597542
H  -2.8699472015 -0.0627250389  0.0543111926
H  -0.7978847368 -0.9921149888  0.7761061319
H  -0.8377655097 -0.9122144867 -0.8878885029
H   0.5941120849  1.1399786412  0.7957054934
H   0.6236080470  1.0707745318 -0.9233126794
H   2.9127637765  1.0712457977  0.9011707627
H   3.0935489880  1.2043464789 -0.8900122461
H   3.8252233427  0.0018794935  0.1202996041
H   4.8127064412  3.0996474087 -0.0651007801
17
Image 43  Energy = -421.8278225526
C  -1.9377354412  0.4644383899  0.0467282409
O  -1.9575084183  1.6659539645  0.0921829816
C  -0.7491972464 -0.3257459262 -0.0319966085
C   0.5526775372  0.4677003897 -0.0403101421
C   1.8399735602 -0.3032032775  0.0150163020
O   1.9947183330 -1.4302451287  0.0132517657
C   2.9315716414  0.5079173784  0.0698255437
O   4.5201774319  2.2042718417 -0.0431675417
H  -2.8680438424 -0.0642296235  0.0556086018
H  -0.7978335876 -0.9919335157  0.7736318835
H  -0.8386679437 -0.9101249989 -0.8880857976
H   0.5939691025  1.1409359571  0.7936944294
H   0.6241700312  1.0700788332 -0.9243499610
H   2.9106797598  1.0681829508  0.9016899059
H   3.0957809544  1.2044418717 -0.8902372529
H   3.8222551752  0.0019157651  0.1231733880
H   4.8130129527  3.0996451288 -0.0666557386
17
Image 44  Energy = -421.8255673763
C  -1.9362778792  0.4636203241  0.0478183642
O  -1.9565200158  1.6646965049  0.0943341204
C  -0.7491680916 -0.3251740537 -0.0327421797
C   0.5527347195  0.4681091687 -0.0412500241
C   1.8397212883 -0.3020777630  0.0153643196
O   1.9957571414 -1.4275089444  0.0135607841
C   2.9288174971  0.5069491019  0.0714295064
O   4.5206555891  2.2043792660 -0.0441755047
H  -2.8661403630 -0.0657345221  0.0569062024
H  -0.7977824100 -0.9917522753  0.7711575833
H  -0.8395705329 -0.9080354765 -0.8882835031
H   0.5938260432  1.1418935191  0.7916832002
H   0.6247320534  1.0693831360 -0.9253875334
H   2.9085954156  1.0651202581  0.9022097626
H   3.0980130904  1.2045370163 -0.8904617698
H   3.8192869179  0.0019518197  0.1260475916
H   4.8133195367  3.0996429204 -0.0682109197
17
Image 45  Energy = -421.8232452600
C  -1.9348203062  0.4628023179  0.0489086465
O  -1.9555315590  1.6634391416  0.0964855849
C  -0.7491385258 -0.3246019149 -0.0334878169
C   0.5527917810  0.4685179062 -0.0421900150
C   1.8394679696 -0.3009512085  0.0157122752
O   1.9967961305 -1.4247743878  0.0138698312
C   2.9260639420  0.5059814227  0.0730327384
O   4.5211338908  2.2044867848 -0.0451836419
H  -2.8642367626 -0.0672397295  0.0582039921
H  -0.7977312044 -0.9915712691  0.7686832371
H  -0.8404732766 -0.9059459229 -0.8884816220
H   0.5936829095  1.1428513249  0.7896718087
H   0.6252941151  1.0686874407 -0.9264253948
H   2.9065107463  1.0620577077  0.9027303117
H   3.1002453988  1.2046319335 -0.8906858217
H   3.8163185597  0.0019876711  0.1289222075
H   4.8136261914  3.0996407819 -0.0697663209
17
Image 46  Energy = -421.8208577949
C  -1.9333627325  0.4619843693  0.0499990861
O  -1.9545430494  1.6621818801  0.0986373716
C  -0.7491085474 -0.3240295128 -0.0342335184
C   0.5528487264  0.4689266067 -0.0431301141
C   1.8392136150 -0.2998236218  0.0160601630
O   1.9978353045 -1.4220414488  0.0141789063
C   2.9233109848  0.5050143096  0.0746352909
O   4.5216123123  2.2045943734 -0.0461919533
H  -2.8623330409 -0.0687452410  0.0595019685
H  -0.7976799707 -0.9913904989  0.7662088515
H  -0.8413761741 -0.9038563416 -0.8886801565
H   0.5935397046  1.1438093717  0.7876602584
H   0.6258562181  1.0679917472 -0.9274635425
H   2.9044257585  1.0589953086  0.9032515523
H   3.1024778871  1.2047266549 -0.8909094468
H   3.8133500892  0.0020233322  0.1317972228
H   4.8139329144  3.0996387113 -0.0713219397
17
Image 47  Energy = -421.8184070130
C  -1.9319051676  0.4611664753  0.0510896808
O  -1.9535544885  1.6609247268  0.1007894767
C  -0.7490781544 -0.3234568510 -0.0349792826
C   0.5529055602  0.4693352754 -0.0440703211
C   1.8389582405 -0.2986950084  0.0164079722
O   1.9988746676 -1.4193101183  0.0144880084
C   2.9205586230  0.5040477108  0.0762372180
O   4.5220908251  2.2047020046 -0.0472004392
H  -2.8604291980 -0.0702510513  0.0608001290
H  -0.7976287087 -0.9912099663  0.7637344330
H  -0.8422792242 -0.9017667358 -0.8888791079
H   0.5933964320  1.1447676569  0.7856485527
H   0.6264183641  1.0672960552 -0.9285019740
H   2.9023404619  1.0559330856  0.9037734980
H   3.1047105672  1.2048212196 -0.8911326919
H   3.8103814967  0.0020588147  0.1346726208
H   4.8142397031  3.0996367063 -0.0728777730
17
Image 48  Energy = -421.8158950650
C  -1.9304476207  0.4603486322  0.0521804282
O  -1.9525658780  1.6596676887  0.1029418962
C  -0.7490473449 -0.3228839332 -0.0357251080
C   0.5529622862  0.4697439167 -0.0450106353
C   1.8387018644 -0.2975653663  0.0167556921
O   1.9999142231 -1.4165803939  0.0147971366
C   2.9178068485  0.5030815729  0.0778385778
O   4.5225694004  2.2048096516 -0.0482090998
H  -2.8585252344 -0.0717571552  0.0620984708
H  -0.7975774181 -0.9910296730  0.7612599880
H  -0.8431824259 -0.8996771080 -0.8890784764
H   0.5932530957  1.1457261778  0.7836366956
H   0.6269805547  1.0666003648 -0.9295406865
H   2.9002548672  1.0528710624  0.9042961575
H   3.1069434522  1.2049156678 -0.8913556037
H   3.8074127750  0.0020941301  0.1375483847
H   4.8145465547  3.0996347647 -0.0744338177
17
Image 49  Energy = -421.8133237529
C  -1.9289901008  0.4595308363  0.0532713254
O  -1.9515772196  1.6584107724  0.1050946256
C  -0.7490161171 -0.3223107630 -0.0364709937
C   0.5530189078  0.4701525344 -0.0459510555
C   1.8384445041 -0.2964346847  0.0171033165
O   2.0009539735 -1.4138522839  0.0151062894
C   2.9150556545  0.5021158591  0.0794394301
O   4.5230480127  2.2049172914 -0.0492179348
H  -2.8566211514 -0.0732635474  0.0633969908
H  -0.7975260990 -0.9908496202  0.7587855221
H  -0.8440857783 -0.8975874607 -0.8892782606
H   0.5931096990  1.1466849319  0.7816246914
H   0.6275427906  1.0659046763 -0.9305796770
H   2.8981689841  1.0498092479  0.9048195219
H   3.1091765539  1.2050100347 -0.8915782213
H   3.8044439189  0.0021292915  0.1404245003
H   4.8148534669  3.0996328843 -0.0759900707
17
Image 50  Energy = -421.8061400975
C  -1.9275326156  0.4587130827  0.0543623701
O  -1.9505885144  1.6571539840  0.1072476615
C  -0.7489844698 -0.3217373438 -0.0372169391
C   0.5530754271  0.4705611311 -0.0468915805
C   1.8381861718 -0.2953029474  0.0174508436
O   2.0019939211 -1.4111258067  0.0154154648
C   2.9123050398  0.5011505552  0.0810398251
O   4.5235266437  2.2050249075 -0.0502269440
H  -2.8547169495 -0.0747702233  0.0646956866
H  -0.7974747518 -0.9906698086  0.7563110390
H  -0.8449892807 -0.8954977946 -0.8894784579
H   0.5929662450  1.1476439170  0.7796125436
H   0.6281050722  1.0652089904 -0.9316189435
H   2.8960828184  1.0467476373  0.9053435710
H   3.1114098811  1.2051043457 -0.8918005701
H   3.8014749236  0.0021643102  0.1433009589
H   4.8151604379  3.0996310633 -0.0775465291
17
Image 51  Energy = -421.8034362429
C  -1.9260753141  0.4578958396  0.0554536100
O  -1.9495996959  1.6558968962  0.1094010166
C  -0.7489523666 -0.3211637084 -0.0379629657
C   0.5531317427  0.4709697770 -0.0478322254
C   1.8379271975 -0.2941699414  0.0177982944
O   2.0030340698 -1.4084010858  0.0157246621
C   2.9095549234  0.5001856941  0.0826397351
O   4.5240052819  2.2051324348 -0.0512360688
H  -2.8528126435 -0.0762772235  0.0659945785
H  -0.7974233751 -0.9904902713  0.7538364980
H  -0.8458929528 -0.8934081069 -0.8896790743
H   0.5928227061  1.1486031827  0.7776002308
H   0.6286673800  1.0645133316 -0.9326585266
H   2.8939963425  1.0436862527  0.9058683684
H   3.1136433559  1.2051985529 -0.8920227307
H   3.7985059086  0.0021991117  0.1461778126
H   4.8154674395  3.0996292641 -0.0791032148
17
Image 52  Energy = -421.7888276533
C  -1.9246180606  0.4570786346  0.0565449989
O  -1.9486108256  1.6546399323  0.1115546789
C  -0.7489198417 -0.3205898282 -0.0387090550
C   0.5531879558  0.4713784092 -0.0487729753
C   1.8376672461 -0.2930358510  0.0181456470
O   2.0040744272 -1.4056780463  0.0160338792
C   2.9068053959  0.4992212557  0.0842392155
O   4.5244839313  2.2052399297 -0.0522453666
H  -2.8509082129 -0.0777845046  0.0672936466
H  -0.7973719722 -0.9903109739  0.7513619333
H  -0.8467967785 -0.8913183934 -0.8898800970
H   0.5926791128  1.1495626807  0.7755877733
H   0.6292297335  1.0638176748 -0.9336983864
H   2.8919095813  1.0406250710  0.9063938443
H   3.1158770600  1.2052927163 -0.8922446372
H   3.7955367497  0.0022337730  0.1490550073
H   4.8157744977  3.0996275204 -0.0806601067
17
Image 53  Energy = -421.7860042324
C  -1.9231613586  0.4562628048  0.0576366287
O  -1.9476217024  1.6533820360  0.1137085851
C  -0.7488866144 -0.3200157929 -0.0394552291
C   0.5532438067  0.4717870690 -0.0497137988
C   1.8374066110 -0.2919021959  0.0184929371
O   2.0051147766 -1.4029555083  0.0163431036
C   2.9040564393  0.4982572518  0.0858381656
O   4.5249628704  2.2053475408 -0.0532548281
H  -2.8490037881 -0.0792921147  0.0685928888
H  -0.7973205235 -0.9901320202  0.7488874024
H  -0.8477007343 -0.8892287427 -0.8900815962
H   0.5925354745  1.1505224499  0.7735751890
H   0.6297921193  1.0631220695 -0.9347385631
H   2.8898225097  1.0375641800  0.9069201425
H   3.1181110142  1.2053868811 -0.8924663817
H   3.7925675372  0.0022681982  0.1519325614
H   4.8160815626  3.0996258938 -0.0822172072
17
Image 54  Energy = -421.7831128381
C  -1.9217047182  0.4554470210  0.0587284196
O  -1.9466325105  1.6521242366  0.1158628103
C  -0.7488529560 -0.3194415134 -0.0402014728
C   0.5532995473  0.4721957149 -0.0506547313
C   1.8371449509 -0.2907675010  0.0188401291
O   2.0061553226 -1.4002346698  0.0166523452
C   2.9013081104  0.4972937500  0.0874366355
O   4.5254418408  2.2054551316 -0.0542644677
H  -2.8470992236 -0.0808000127  0.0698923153
H  -0.7972690506 -0.9899533032  0.7464128264
H  -0.8486048514 -0.8871390490 -0.8902834988
H   0.5923917841  1.1514824586  0.7715624487
H   0.6303545536  1.0624264623 -0.9357790254
H   2.8877351284  1.0345035061  0.9074471631
H   3.1203452008  1.2054809853 -0.8926878476
H   3.7895981865  0.0023024587  0.1548104741
H   4.8163886850  3.0996243241 -0.0837745234
17
Image 55  Energy = -421.7801489330
C  -1.9202481370  0.4546312728  0.0598203774
O  -1.9456432445  1.6508665311  0.1180173651
C  -0.7488188659 -0.3188669886 -0.0409477896
C   0.5533551761  0.4726043466 -0.0515957765
C   1.8368822183 -0.2896317848  0.0191872224
O   2.0071960635 -1.3975155486  0.0169616032
C   2.8985604429  0.4963308047  0.0890345859
O   4.5259208550  2.2055627117 -0.0552742892
H  -2.8451945082 -0.0823082038  0.0711919320
H  -0.7972175549 -0.9897748202  0.7439381906
H  -0.8495091352 -0.8850493011 -0.8904858043
H   0.5922480414  1.1524427117  0.7695495437
H   0.6309170386  1.0617308498 -0.9368197790
H   2.8856474214  1.0314430556  0.9079749299
H   3.1225796192  1.2055750126 -0.8929090087
H   3.7866287026  0.0023365391  0.1576887598
H   4.8166958667  3.0996228116 -0.0853320626
17
Image 56  Energy = -421.7771083660
C  -1.9187916127  0.4538155515  0.0609125090
O  -1.9446538990  1.6496089149  0.1201722606
C  -0.7487843431 -0.3182922168 -0.0416941830
C   0.5534106915  0.4730129636 -0.0525369384
C   1.8366183617 -0.2884950753  0.0195342159
O   2.0082369964 -1.3947981564  0.0172708771
C   2.8958134772  0.4953684715  0.0906319758
O   4.5263999259  2.2056702903 -0.0562842967
H  -2.8432896304 -0.0838166943  0.0724917453
H  -0.7971660376 -0.9895965682  0.7414634804
H  -0.8504135913 -0.8829594876 -0.8906885132
H   0.5921042460  1.1534032143  0.7675364646
H   0.6314795769  1.0610352286 -0.9378608301
H   2.8835593730  1.0283828357  0.9085034711
H   3.1248142687  1.2056689466 -0.8931298392
H   3.7836590871  0.0023704252  0.1605674332
H   4.8170031097  3.0996213567 -0.0868898323
17
Image 57  Energy = -421.7739902556
C  -1.9173351459  0.4529998510  0.0620048191
O  -1.9436644710  1.6483513858  0.1223275037
C  -0.7487493856 -0.3177171976 -0.0424406543
C   0.5534660952  0.4734215660 -0.0534782191
C   1.8363533458 -0.2873574002  0.0198811090
O   2.0092781199 -1.3920824938  0.0175801662
C   2.8930672472  0.4944067937  0.0922287830
O   4.5268790583  2.2057778692 -0.0572944918
H  -2.8413845827 -0.0853254873  0.0737917592
H  -0.7971144999 -0.9894185451  0.7389886862
H  -0.8513182234 -0.8808696023 -0.8908916275
H   0.5919603984  1.1543639692  0.7655232056
H   0.6320421710  1.0603395960 -0.9389021820
H   2.8814709730  1.0253228481  0.9090328037
H   3.1270491481  1.2057627771 -0.8933503267
H   3.7806893362  0.0024041101  0.1634465030
H   4.8173104153  3.0996199602 -0.0884478372
17
Image 58  Energy = -421.7707959522
C  -1.9158787422  0.4521841690  0.0630973091
O  -1.9426749607  1.6470939459  0.1244830945
C  -0.7487139910 -0.3171419327 -0.0431872018
C   0.5535213930  0.4738301543 -0.0544196182
C   1.8360871631 -0.2862187776  0.0202279035
O   2.0103194359 -1.3893685502  0.0178894686
C   2.8903217691  0.4934457969  0.0938250185
O   4.5273582455  2.2058854391 -0.0583048724
H  -2.8394793634 -0.0868345812  0.0750919731
H  -0.7970629428 -0.9892407493  0.7365138077
H  -0.8522230319 -0.8787796463 -0.8910951495
H   0.5918165004  1.1553249755  0.7635097671
H   0.6326048228  1.0596439514 -0.9399438346
H   2.8793822205  1.0222630816  0.9095629201
H   3.1292842556  1.2058565033 -0.8935704774
H   3.7777194425  0.0024375972  0.1663259683
H   4.8176177837  3.0996186232 -0.0900060766
17
Image 59  Energy = -421.7675275236
C  -1.9144224099  0.4513685052  0.0641899786
O  -1.9416853705  1.6458365996  0.1266390289
C  -0.7486781562 -0.3165664243 -0.0439338220
C   0.5535765916  0.4742387288 -0.0553611339
C   1.8358198209 -0.2850792171  0.0205746033
O   2.0113609468 -1.3866563133  0.0181987823
C   2.8875770494  0.4924854980  0.0954207150
O   4.5278374750  2.2059929858 -0.0593154349
H  -2.8375739747 -0.0883439720  0.0763923845
H  -0.7970113670 -0.9890631802  0.7340388493
H  -0.8531280154 -0.8766896251 -0.8912990829
H   0.5916725546  1.1562862306  0.7614961526
H   0.6331675334  1.0589482950 -0.9409857851
H   2.8772931186  1.0192035159  0.9100937959
H   3.1315195901  1.2059501308 -0.8937903068
H   3.7747493987  0.0024708950  0.1692058227
H   4.8179252145  3.0996173474 -0.0915645474
17
Image 60  Energy = -421.7641843005
C  -1.9129661564  0.4505528599  0.0652828290
O  -1.9406957011  1.6445793486  0.1287953060
C  -0.7486418778 -0.3159906730 -0.0446805121
C   0.5536316948  0.4746472889 -0.0563027656
C   1.8355513163 -0.2839387283  0.0209212102
O   2.0124026522 -1.3839457805  0.0185081054
C   2.8848331003  0.4915259184  0.0970158999
O   4.5283167387  2.2061004996 -0.0603261788
H  -2.8356684164 -0.0898536575  0.0776929922
H  -0.7969597730 -0.9888858372  0.7315638138
H  -0.8540331737 -0.8745995426 -0.8915034331
H   0.5915285626  1.1572477334  0.7594823634
H   0.6337303041  1.0582526268 -0.9420280328
H   2.8752036674  1.0161441347  0.9106254145
H   3.1337551534  1.2060436658 -0.8940098258
H   3.7717792006  0.0025040095  0.1720860628
H   4.8182327079  3.0996161336 -0.0931232488
17
Image 61  Energy = -421.7607628243
C  -1.9115099861  0.4497372323  0.0663758648
O  -1.9397059502  1.6433221899  0.1309519307
C  -0.7486051522 -0.3154146763 -0.0454272715
C   0.5536867013  0.4750558335 -0.0572445154
C   1.8352816223 -0.2827973271  0.0212677214
O   2.0134445476 -1.3812369627  0.0188174365
C   2.8820899501  0.4905670886  0.0986105783
O   4.5287960366  2.2062079793 -0.0613371080
H  -2.8337626824 -0.0913636398  0.0789937990
H  -0.7969081614 -0.9887087200  0.7290886972
H  -0.8549385095 -0.8725093969 -0.8917082074
H   0.5913845245  1.1582094859  0.7574683948
H   0.6342931367  1.0575569450 -0.9430705804
H   2.8731138600  1.0130849365  0.9111577861
H   3.1359909519  1.2061371112 -0.8942290347
H   3.7688088464  0.0025369389  0.1749666930
H   4.8185402644  3.0996149821 -0.0946821844
17
Image 62  Energy = -421.7572586976
C  -1.9100539003  0.4489216198  0.0674690935
O  -1.9387161130  1.6420651176  0.1331089135
C  -0.7485679757 -0.3148384296 -0.0461741012
C   0.5537416066  0.4754643616 -0.0581863877
C   1.8350106938 -0.2816550362  0.0216141298
O   2.0144866270 -1.3785298798  0.0191267751
C   2.8793476395  0.4896090422  0.1002047318
O   4.5292753750  2.2063154291 -0.0623482297
H  -2.8318567625 -0.0928739249  0.0802948110
H  -0.7968565326 -0.9885318290  0.7266134914
H  -0.8558440277 -0.8704191819 -0.8919134152
H   0.5912404395  1.1591714928  0.7554542378
H   0.6348560337  1.0568612465 -0.9441134336
H   2.8710236856  1.0100259360  0.9116909486
H   3.1382269944  1.2062304672 -0.8944479261
H   3.7658383311  0.0025696765  0.1778477228
H   4.8188478855  3.0996138923 -0.0962413618
17
Image 63  Energy = -421.7536677051
C  -1.9085978998  0.4481060198  0.0685625225
O  -1.9377261841  1.6408081257  0.1352662657
C  -0.7485303443 -0.3142619274 -0.0469210028
C   0.5537964067  0.4758728728 -0.0591283872
C   1.8347384848 -0.2805118800  0.0219604254
O   2.0155288856 -1.3758245514  0.0194361205
C   2.8766062098  0.4886518055  0.1017983315
O   4.5297547605  2.2064228531 -0.0633595511
H  -2.8299506455 -0.0943845194  0.0815960344
H  -0.7968048861 -0.9883551651  0.7241381881
H  -0.8567497336 -0.8683288908 -0.8921190665
H   0.5910963065  1.1601337591  0.7534398821
H   0.6354189979  1.0561655280 -0.9451565979
H   2.8689331358  1.0069671576  0.9122249548
H   3.1404632906  1.2063237324 -0.8946664932
H   3.7628676424  0.0026022156  0.1807291630
H   4.8191555726  3.0996128643 -0.0978007891
17
Image 64  Energy = -421.7499878874
C  -1.9071419866  0.4472904303  0.0696561576
O  -1.9367361595  1.6395512109  0.1374239956
C  -0.7484922541 -0.3136851651 -0.0476679770
C   0.5538511000  0.4762813674 -0.0600705174
C   1.8344649626 -0.2793678799  0.0223065986
O   2.0165713218 -1.3731209890  0.0197454722
C   2.8738656931  0.4876953936  0.1033913534
O   4.5302341958  2.2065302513 -0.0643710767
H  -2.8280443229 -0.0958954277  0.0828974741
H  -0.7967532213 -0.9881787304  0.7216627834
H  -0.8576556312 -0.8662385194 -0.8923251717
H   0.5909521253  1.1610962882  0.7514253201
H   0.6359820317  1.0554697865 -0.9462000772
H   2.8668422083  1.0039086239  0.9127598518
H   3.1426998479  1.2064169067 -0.8948847351
H   3.7598967624  0.0026345544  0.1836110204
H   4.8194633269  3.0996118984 -0.0993604719
17
Image 65  Energy = -421.7462203429
C  -1.9056861660  0.4464748510  0.0707500008
O  -1.9357460383  1.6382943738  0.1395821057
C  -0.7484537017 -0.3131081404 -0.0484150234
C   0.5539056892  0.4766898456 -0.0610127794
C   1.8341901152 -0.2782230510  0.0226526443
O   2.0176139370 -1.3704191919  0.0200548288
C   2.8711261063  0.4867398132  0.1049837946
O   4.5307136772  2.2066376175 -0.0653828070
H  -2.8261377918 -0.0974066504  0.0841991311
H  -0.7967015370 -0.9880025283  0.7191872809
H  -0.8585617220 -0.8641480680 -0.8925317393
H   0.5908078967  1.1620590801  0.7494105494
H   0.6365451373  1.0547740204 -0.9472438717
H   2.8647509069  1.0008503424  0.9132956606
H   3.1449366698  1.2065099925 -0.8951026597
H   3.7569256724  0.0026666975  0.1864932961
H   4.8197711488  3.0996109960 -0.1009204117
17
Image 66  Energy = -421.7423691601
C  -1.9042304463  0.4456592841  0.0718440496
O  -1.9347558230  1.6370376196  0.1417405920
C  -0.7484146844 -0.3125308533 -0.0491621403
C   0.5539601800  0.4770983066 -0.0619551717
C   1.8339139514 -0.2770774008  0.0229985628
O   2.0186567348 -1.3677191461  0.0203641884
C   2.8683874509  0.4857850663  0.1065756813
O   4.5311931951  2.2067449403 -0.0663947387
H  -2.8242310551 -0.0989181835  0.0855010025
H  -0.7966498315 -0.9878265636  0.7167116917
H  -0.8594680046 -0.8620575414 -0.8927387747
H   0.5906636228  1.1630221315  0.7473955736
H   0.6371083155  1.0540782300 -0.9482879782
H   2.8626592406  0.9977922993  0.9138323656
H   3.1471737561  1.2066029959 -0.8953202836
H   3.7539543595  0.0026986560  0.1893759847
H   4.8200790382  3.0996101591 -0.1024806049
17
Image 67  Energy = -421.7384386476
C  -1.9027748376  0.4448437322  0.0729382978
O  -1.9337655181  1.6357809559  0.1438994459
C  -0.7483752008 -0.3119533063 -0.0499093265
C   0.5540145803  0.4775067482 -0.0628976910
C   1.8336364918 -0.2759309327  0.0233443591
O   2.0196997190 -1.3650208283  0.0206735485
C   2.8656497174  0.4848311532  0.1081670637
O   4.5316727366  2.2068522056 -0.0674068664
H  -2.8223241199 -0.1004300198  0.0868030827
H  -0.7965981029 -0.9876508419  0.7142360314
H  -0.8603744761 -0.8599669458 -0.8929462787
H   0.5905193064  1.1639854369  0.7453804003
H   0.6376715666  1.0533824169 -0.9493323908
H   2.8605672196  0.9947344646  0.9143699224
H   3.1494111039  1.2066959272 -0.8955376290
H   3.7509828194  0.0027304437  0.1922590757
H   4.8203869943  3.0996093906 -0.1040410451
17
Image 68  Energy = -421.7344327219
C  -1.9013193485  0.4440281972  0.0740327383
O  -1.9327751287  1.6345243901  0.1460586590
C  -0.7483352506 -0.3113755032 -0.0506565826
C   0.5540688972  0.4779151669 -0.0638403346
C   1.8333577525 -0.2747836524  0.0236900375
O   2.0207428919 -1.3623242144  0.0209829072
C   2.8629128962  0.4838780743  0.1097579961
O   4.5321522910  2.2069594023 -0.0684191852
H  -2.8204169935 -0.1019421521  0.0881053661
H  -0.7965463493 -0.9874753690  0.7117603145
H  -0.8612811337 -0.8578762848 -0.8931542478
H   0.5903749500  1.1649489907  0.7433650375
H   0.6382348907  1.0526865825 -0.9503771042
H   2.8584748520  0.9916768090  0.9149082837
H   3.1516487116  1.2067887990 -0.8957547177
H   3.7480110549  0.0027620715  0.1951425576
H   4.8206950164  3.0996086925 -0.1056017255
17
Image 69  Energy = -421.7303503654
C  -1.8998639828  0.4432126778  0.0751273664
O  -1.9317846565  1.6332679248  0.1482182290
C  -0.7482948348 -0.3107974471 -0.0514039126
C   0.5541231338  0.4783235584 -0.0647831022
C   1.8330777226 -0.2736355769  0.0240355963
O   2.0217862516 -1.3596292923  0.0212922632
C   2.8601769945  0.4829258356  0.1113485141
O   4.5326318560  2.2070665276 -0.0694316946
H  -2.8185096777 -0.1034545774  0.0894078511
H  -0.7964945695 -0.9873001492  0.7092845462
H  -0.8621879778 -0.8557855537 -0.8933626751
H   0.5902305552  1.1659127906  0.7413494877
H   0.6387982887  1.0519907269 -0.9514221162
H   2.8563821379  0.9886193228  0.9154474314
H   3.1538865826  1.2068816244 -0.8959715641
H   3.7450390720  0.0027935419  0.1980264242
H   4.8210031042  3.0996080660 -0.1071626445
17
Image 70  Energy = -421.7264972025
C  -1.8984087376  0.4423971684  0.0762221825
O  -1.9307940991  1.6320115565  0.1503781630
C  -0.7482539548 -0.3102191395 -0.0521513243
C   0.5541772880  0.4787319185 -0.0657259975
C   1.8327963515 -0.2724867350  0.0243810253
O   2.0228297913 -1.3569360727  0.0216016171
C   2.8574420473  0.4819744561  0.1129386236
O   4.5331114405  2.2071735896 -0.0704443999
H  -2.8166021656 -0.1049672991  0.0907105414
H  -0.7964427628 -0.9871251846  0.7068087187
H  -0.8630950127 -0.8536947381 -0.8935715524
H   0.5900861223  1.1668768391  0.7393337451
H   0.6393617630  1.0512948472 -0.9524674301
H   2.8542890666  0.9855620225  0.9159873898
H   3.1561247277  1.2069744154 -0.8961881724
H   3.7420668763  0.0028248455  0.2009106774
H   4.8213112583  3.0996075105 -0.1087238072
17
Image 71  Energy = -421.7222482661
C  -1.8969544127  0.4415813547  0.0773172189
O  -1.9298032729  1.6307555257  0.1525384877
C  -0.7482122720 -0.3096406998 -0.0528988558
C   0.5542313411  0.4791402227 -0.0666690287
C   1.8325136533 -0.2713369806  0.0247263238
O   2.0238735195 -1.3542446783  0.0219109714
C   2.8547079790  0.4810239004  0.1145283316
O   4.5335910751  2.2072806094 -0.0714573174
H  -2.8146941561 -0.1064801815  0.0920134445
H  -0.7963909022 -0.9869504633  0.7043328077
H  -0.8640022308 -0.8516037978 -0.8937808717
H   0.5899416443  1.1678411575  0.7373177996
H   0.6399253180  1.0505989485 -0.9535130645
H   2.8521956028  0.9825049127  0.9165282030
H   3.1583631763  1.2070671944 -0.8964045586
H   3.7390944605  0.0028559439  0.2037953360
H   4.8216194764  3.0996070316 -0.1102852275
17
Image 72  Energy = -421.7179219242
C  -1.8955002171  0.4407655320  0.0784124460
O  -1.9288123559  1.6294995926  0.1546991859
C  -0.7481701210 -0.3090620181 -0.0536464784
C   0.5542853152  0.4795484887 -0.0676121915
C   1.8322295338 -0.2701864600  0.0250714692
O   2.0249174291 -1.3515550417  0.0222203245
C   2.8519748932  0.4800742064  0.1161176598
O   4.5340707337  2.2073875693 -0.0724704386
H  -2.8127859366 -0.1079933586  0.0933165579
H  -0.7963390145 -0.9867759941  0.7018568200
H  -0.8649096444 -0.8495127526 -0.8939906258
H   0.5897971296  1.1688057285  0.7353016543
H   0.6404889526  1.0499030225 -0.9545590046
H   2.8501017680  0.9794480278  0.9170698805
H   3.1606019251  1.2071599759 -0.8966207391
H   3.7361218484  0.0028868582  0.2066803780
H   4.8219277608  3.0996066234 -0.1118468981
17
Image 73  Energy = -421.7135242510
C  -1.8940461569  0.4399496949  0.0795078574
O  -1.9278213545  1.6282437720  0.1568602435
C  -0.7481275040 -0.3084831027 -0.0543941847
C   0.5543392258  0.4799567133 -0.0685554793
C   1.8319440336 -0.2690351080  0.0254164613
O   2.0259615375 -1.3488671793  0.0225296745
C   2.8492427234  0.4791253233  0.1177066728
O   4.5345503923  2.2074944460 -0.0734837563
H  -2.8108775194 -0.1095068196  0.0946198727
H  -0.7962871010 -0.9866017721  0.6993807648
H  -0.8658172475 -0.8474216143 -0.8942008092
H   0.5896525817  1.1697705450  0.7332853223
H   0.6410526650  1.0492070729 -0.9556052419
H   2.8480075791  0.9763913546  0.9176123878
H   3.1628409781  1.2072527872 -0.8968367604
H   3.7331490577  0.0029175981  0.2095657829
H   4.8222361091  3.0996062887 -0.1134088081
17
Image 74  Energy = -421.7090561083
C  -1.8925922360  0.4391338391  0.0806034510
O  -1.9268302728  1.6269880725  0.1590216521
C  -0.7480844208 -0.3079039590 -0.0551419672
C   0.5543930819  0.4803648935 -0.0694988877
C   1.8316571668 -0.2678828689  0.0257613016
O   2.0270058559 -1.3461811252  0.0228390201
C   2.8465114362  0.4781772371  0.1192954209
O   4.5350300378  2.2076012270 -0.0744972677
H  -2.8089689115 -0.1110205576  0.0959233834
H  -0.7962351641 -0.9864277911  0.6969046446
H  -0.8667250367 -0.8453303918 -0.8944114206
H   0.5895080031  1.1707356029  0.7312688114
H   0.6416164542  1.0485111020 -0.9566517717
H   2.8459130435  0.9733348724  0.9181556922
H   3.1650803406  1.2073456476 -0.8970526509
H   3.7301761020  0.0029481699  0.2124515402
H   4.8225445201  3.0996060299 -0.1149709516
17
Image 75  Energy = -421.7045148589
C  -1.8911384521  0.4383179607  0.0816992335
O  -1.9258391085  1.6257324901  0.1611834177
C  -0.7480408686 -0.3073245872 -0.0558898231
C   0.5544468787  0.4807730272 -0.0704424177
C   1.8313688829 -0.2667297374  0.0261059875
O   2.0280503815 -1.3434969263  0.0231483605
C   2.8437810714  0.4772299978  0.1208839177
O   4.5355096781  2.2077079198 -0.0755109793
H  -2.8070601070 -0.1125345759  0.0972270935
H  -0.7961832071 -0.9862540448  0.6944284470
H  -0.8676330149 -0.8432390828 -0.8946224641
H   0.5893633934  1.1717009046  0.7292521162
H   0.6421803213  1.0478151083 -0.9576985976
H   2.8438181480  0.9702785673  0.9186997900
H   3.1673200230  1.2074385638 -0.8972684068
H   3.7272029845  0.0029785678  0.2153376582
H   4.8228529950  3.0996058474 -0.1165333331
17
Image 76  Energy = -421.6999029999
C  -1.8896848055  0.4375020579  0.0827952096
O  -1.9248478611  1.6244770230  0.1633455426
C  -0.7479968439 -0.3067449873 -0.0566377478
C   0.5545006133  0.4811811120 -0.0713860692
C   1.8310791496 -0.2655757401  0.0264505178
O   2.0290951084 -1.3408145845  0.0234576951
C   2.8410516604  0.4762836474  0.1224721743
O   4.5359893191  2.2078145299 -0.0765248963
H  -2.8051511031 -0.1140488749  0.0985310040
H  -0.7961312326 -0.9860805287  0.6919521654
H  -0.8685411831 -0.8411476892 -0.8948339451
H   0.5892187529  1.1726664506  0.7272352348
H   0.6427442667  1.0471190910 -0.9587457211
H   2.8417228841  0.9672224233  0.9192446711
H   3.1695600318  1.2075315392 -0.8974840215
H   3.7242297077  0.0030087875  0.2182241412
H   4.8231615351  3.0996057430 -0.1180959548
17
Image 77  Energy = -421.6952270961
C  -1.8882313040  0.4366861321  0.0838913761
O  -1.9238565357  1.6232216797  0.1655080161
C  -0.7479523441 -0.3061651624 -0.0573857325
C   0.5545542913  0.4815891447 -0.0723298367
C   1.8307880015 -0.2644209192  0.0267948963
O   2.0301400334 -1.3381340275  0.0237670222
C   2.8383231781  0.4753381763  0.1240602124
O   4.5364689523  2.2079210490 -0.0775390168
H  -2.8032419093 -0.1155634462  0.0998351081
H  -0.7960792423 -0.9859072406  0.6894758103
H  -0.8694495365 -0.8390562253 -0.8950458678
H   0.5890740831  1.1736322347  0.7252181768
H   0.6433082885  1.0464230526 -0.9597931358
H   2.8396272616  0.9641664184  0.9197903006
H   3.1718003634  1.2076245774 -0.8976994989
H   3.7212562785  0.0030388353  0.2211109782
H   4.8234701400  3.0996057209 -0.1196588085
17
Image 78  Energy = -421.6904920221
C  -1.8867779573  0.4358701861  0.0849877271
O  -1.9228651383  1.6219664705  0.1676708246
C  -0.7479073665 -0.3055851159 -0.0581337694
C   0.5546079199  0.4819971212 -0.0732737142
C   1.8304954901 -0.2632653396  0.0271391281
O   2.0311851509 -1.3354551452  0.0240763404
C   2.8355955883  0.4743935616  0.1256480441
O   4.5369485677  2.2080274673 -0.0785533384
H  -2.8013325374 -0.1170782796  0.1011393972
H  -0.7960272368 -0.9857341813  0.6869993972
H  -0.8703580694 -0.8369647063 -0.8952582346
H   0.5889293858  1.1745982494  0.7232009546
H   0.6438723837  1.0457269963 -0.9608408338
H   2.8375312942  0.9611105336  0.9203366434
H   3.1740410109  1.2077176784 -0.8979148370
H   3.7182827053  0.0030687180  0.2239981552
H   4.8237788089  3.0996057857 -0.1212218843
17
Image 79  Energy = -421.6856992960
C  -1.8853247719  0.4350542225  0.0860842593
O  -1.9218736720  1.6207113999  0.1698339614
C  -0.7478619078 -0.3050048492 -0.0588818559
C   0.5546615013  0.4824050376 -0.0742176989
C   1.8302016361 -0.2621090595  0.0274832155
O   2.0322304550 -1.3327778557  0.0243856487
C   2.8328688803  0.4734498016  0.1272356639
O   4.5374281611  2.2081337810 -0.0795678636
H  -2.7994229933 -0.1185933695  0.1024438670
H  -0.7959752166 -0.9855613538  0.6845229362
H  -0.8712667789 -0.8348731393 -0.8954710468
H   0.5887846612  1.1755644904  0.7211835740
H   0.6444365507  1.0450309232 -0.9618888106
H   2.8354349866  0.9580547559  0.9208836800
H   3.1762819712  1.2078108372 -0.8981300188
H   3.7153089944  0.0030984365  0.2268856658
H   4.8240875424  3.0996059415 -0.1227851769
17
Image 80  Energy = -421.6808484107
C  -1.8838717509  0.4342382425  0.0871809715
O  -1.9208821366  1.6194564680  0.1719974264
C  -0.7478159638 -0.3044243619 -0.0596299939
C   0.5547150352  0.4828128912 -0.0751617907
C   1.8299064288 -0.2609520794  0.0278271598
O   2.0332759481 -1.3301021528  0.0246949465
C   2.8301430602  0.4725069168  0.1288230597
O   4.5379077309  2.2082399886 -0.0805825996
H  -2.7975132768 -0.1201087147  0.1037485169
H  -0.7959231817 -0.9853887626  0.6820464308
H  -0.8721756655 -0.8327815232 -0.8956843042
H   0.5886399088  1.1765309566  0.7191660353
H   0.6450007888  1.0443348329 -0.9629370657
H   2.8333383352  0.9549990715  0.9214314004
H   3.1785232471  1.2079040474 -0.8983450191
H   3.7123351506  0.0031279877  0.2297735121
H   4.8243963416  3.0996061917 -0.1243486860
17
Image 81  Energy = -421.6759391559
C  -1.8824188966  0.4334222462  0.0882778636
O  -1.9198905303  1.6182016740  0.1741612218
C  -0.7477695304 -0.3038436527 -0.0603781872
C   0.5547685207  0.4832206803 -0.0761059910
C   1.8296098451 -0.2597943463  0.0281709630
O   2.0343216412 -1.3274280865  0.0250042330
C   2.8274181330  0.4715649330  0.1304102243
O   4.5383872731  2.2083460868 -0.0815975548
H  -2.7956033855 -0.1216243160  0.1050533480
H  -0.7958711319 -0.9852164129  0.6795698826
H  -0.8730847307 -0.8306898542 -0.8958980060
H   0.5884951277  1.1774976483  0.7171483361
H   0.6455650975  1.0436387246 -0.9639855997
H   2.8312413339  0.9519434638  0.9219797938
H   3.1807648452  1.2079973044 -0.8985598136
H   3.7093611804  0.0031573678  0.2326616990
H   4.8247052077  3.0996065397 -0.1259124127
17
Image 82  Energy = -421.6709710584
C  -1.8809662123  0.4326062348  0.0893749349
O  -1.9188988521  1.6169470177  0.1763253483
C  -0.7477226034 -0.3032627210 -0.0611264391
C   0.5548219563  0.4836284027 -0.0770503009
C   1.8293118654 -0.2586358134  0.0285146271
O   2.0353675459 -1.3247556939  0.0253135066
C   2.8246940989  0.4706238658  0.1319971575
O   4.5388667810  2.2084520698 -0.0826127367
H  -2.7936933188 -0.1231401728  0.1063583604
H  -0.7958190666 -0.9850443098  0.6770932945
H  -0.8739939749 -0.8285981299 -0.8961121508
H   0.5883503172  1.1784645650  0.7151304758
H   0.6461294761  1.0429425981 -0.9650344122
H   2.8291439780  0.9488879180  0.9225288488
H   3.1830067722  1.2080906080 -0.8987743858
H   3.7063870960  0.0031865733  0.2355502290
H   4.8250141412  3.0996069880 -0.1274763572
17
Image 83  Energy = -421.6659391625
C  -1.8795136997  0.4317902080  0.0904721867
O  -1.9179070994  1.6156924974  0.1784898095
C  -0.7476751781 -0.3026815647 -0.0618747530
C   0.5548753384  0.4840360579 -0.0779947229
C   1.8290124528 -0.2574763861  0.0288581528
O   2.0364136813 -1.3220850740  0.0256227660
C   2.8219709645  0.4696837360  0.1335838722
O   4.5393462490  2.2085579323 -0.0836281521
H  -2.7917830732 -0.1246562868  0.1076635561
H  -0.7957669853 -0.9848724575  0.6746166651
H  -0.8749033995 -0.8265063460 -0.8963267386
H   0.5882054763  1.1794317086  0.7131124505
H   0.6466939242  1.0422464528 -0.9660835049
H   2.8270462600  0.9458324192  0.9230785587
H   3.1852490390  1.2081839640 -0.8989887323
H   3.7034129072  0.0032156011  0.2384391080
H   4.8253231424  3.0996075381 -0.1290405219
17
Image 84  Energy = -421.6608339595
C  -1.8780613519  0.4309741581  0.0915696289
O  -1.9169152625  1.6144381044  0.1806546247
C  -0.7476272483 -0.3021001789 -0.0626231367
C   0.5549286584  0.4844436523 -0.0789392660
C   1.8287115051 -0.2563157365  0.0292015381
O   2.0374600998 -1.3194166137  0.0259320090
C   2.8192487629  0.4687446159  0.1351704036
O   4.5398256770  2.2086636721 -0.0846438115
H  -2.7898726317 -0.1261726705  0.1089689462
H  -0.7957148878 -0.9847008570  0.6721399742
H  -0.8758130129 -0.8244144835 -0.8965417710
H   0.5880606023  1.1803990891  0.7110942431
H   0.6472584444  1.0415502851 -0.9671328881
H   2.8249481587  0.9427769401  0.9236289304
H   3.1874916706  1.2082773854 -0.8992028658
H   3.7004386032  0.0032444485  0.2413283611
H   4.8256322126  3.0996081893 -0.1306049201
17
Image 85  Energy = -421.6556537123
C  -1.8766091614  0.4301580758  0.0926672725
O  -1.9159233304  1.6131838295  0.1828198144
C  -0.7475788077 -0.3015185584 -0.0633715980
C   0.5549819037  0.4848511919 -0.0798839407
C   1.8284089097 -0.2551535224  0.0295447797
O   2.0385068568 -1.3167507244  0.0262412332
C   2.8165275375  0.4678065759  0.1367567923
O   4.5403050671  2.2087692882 -0.0856597237
H  -2.7879619755 -0.1276893372  0.1102745429
H  -0.7956627739 -0.9845295082  0.6696631991
H  -0.8767228240 -0.8223225222 -0.8967572507
H   0.5879156924  1.1813667181  0.7090758346
H   0.6478230396  1.0408540918 -0.9681825736
H   2.8228496520  0.9397214583  0.9241799812
H   3.1897346942  1.2083708899 -0.8994168112
H   3.6974641668  0.0032731139  0.2442180146
H   4.8259413528  3.0996089395 -0.1321695666
17
Image 86  Energy = -421.6504125756
C  -1.8751571398  0.4293419665  0.0937651109
O  -1.9149313064  1.6119296805  0.1849853654
C  -0.7475298537 -0.3009367053 -0.0641201329
C   0.5550350625  0.4852586642 -0.0808287436
C   1.8281046909 -0.2539899448  0.0298878754
O   2.0395539335 -1.3140871604  0.0265504370
C   2.8138072899  0.4668695416  0.1383430476
O   4.5407844142  2.2088747770 -0.0866758820
H  -2.7860511164 -0.1292062766  0.1115803379
H  -0.7956106399 -0.9843584155  0.6671863562
H  -0.8776328250 -0.8202304745 -0.8969731766
H   0.5877707484  1.1823345900  0.7070572370
H   0.6483877070  1.0401578773 -0.9692325540
H   2.8207507517  0.9366659997  0.9247317248
H   3.1919781060  1.2084644960 -0.8996305992
H   3.6944896174  0.0033015966  0.2471080477
H   4.8262505597  3.0996097880 -0.1337344516
17
Image 87  Energy = -421.6451287364
C  -1.8737053157  0.4285258512  0.0948631221
O  -1.9139392087  1.6106756782  0.1871512342
C  -0.7474803879 -0.3003546294 -0.0648687284
C   0.5550881349  0.4856660442 -0.0817736583
C   1.8277989995 -0.2528256393  0.0302308211
O   2.0406012511 -1.3114251386  0.0268596221
C   2.8110879662  0.4659333135  0.1399291515
O   4.5412637081  2.2089801327 -0.0876922649
H  -2.7841400926 -0.1307234577  0.1128863051
H  -0.7955584804 -0.9841875871  0.6647094958
H  -0.8785429948 -0.8181383811 -0.8971895430
H   0.5876257760  1.1833026829  0.7050384889
H   0.6489524392  1.0394616518 -0.9702828050
H   2.8186515005  0.9336106273  0.9252841646
H   3.1942218732  1.2085582187 -0.8998442603
H   3.6915150043  0.0033298977  0.2499983987
H   4.8265598269  3.0996107353 -0.1352995441
17
Image 88  Energy = -421.6398064113
C  -1.8722537096  0.4277097484  0.0959612897
O  -1.9129470525  1.6094218343  0.1893173906
C  -0.7474304122 -0.2997723419 -0.0656173774
C   0.5551411371  0.4860733200 -0.0827186722
C   1.8274919446 -0.2516609668  0.0305736079
O   2.0416487673 -1.3087641947  0.0271687927
C   2.8083695007  0.4649977498  0.1415151018
O   4.5417429447  2.2090853529 -0.0887088548
H  -2.7822289313 -0.1322408590  0.1141924260
H  -0.7955062923 -0.9840170291  0.6622326518
H  -0.8794533192 -0.8160462676 -0.8974063411
H   0.5874807809  1.1842709795  0.7030196168
H   0.6495172327  1.0387654206 -0.9713333077
H   2.8165519322  0.9305553815  0.9258372997
H   3.1964659724  1.2086520698 -0.9000578242
H   3.6885403547  0.0033580207  0.2528890227
H   4.8268691499  3.0996117817 -0.1368648221
17
Image 89  Energy = -421.6344382034
C  -1.8708023184  0.4268936574  0.0970596158
O  -1.9119548379  1.6081681429  0.1914838423
C  -0.7473799259 -0.2991898473 -0.0663660868
C   0.5551940846  0.4864805024 -0.0836637881
C   1.8271834898 -0.2504956722  0.0309162255
O   2.0426965224 -1.3061046200  0.0274779517
C   2.8056518735  0.4640628790  0.1431009351
O   4.5422221309  2.2091904401 -0.0897256498
H  -2.7803176265 -0.1337584848  0.1154987051
H  -0.7954540755 -0.9838467424  0.6597558131
H  -0.8803638025 -0.8139541203 -0.8976235615
H   0.5873357636  1.1852394817  0.7010006130
H   0.6500820909  1.0380691799 -0.9723840637
H   2.8144520458  0.9275002462  0.9263911306
H   3.1987104133  1.2087460596 -0.9002713180
H   3.6855656435  0.0033859723  0.2557799265
H   4.8271785286  3.0996129258 -0.1384302909
17
Image 90  Energy = -421.6290176682
C  -1.8693511309  0.4260775651  0.0981581078
O  -1.9109625554  1.6069145952  0.1936506101
C  -0.7473289247 -0.2986071437 -0.0671148693
C   0.5552469698  0.4868876045 -0.0846090161
C   1.8268735461 -0.2493293826  0.0312586704
O   2.0437445699 -1.3034468810  0.0277870980
C   2.8029351177  0.4631288008  0.1446866971
O   4.5427012743  2.2092953971 -0.0907426546
H  -2.7784061602 -0.1352763485  0.1168051543
H  -0.7954018295 -0.9836767267  0.6572789536
H  -0.8812744547 -0.8118619122 -0.8978411942
H   0.5871907216  1.1862082003  0.6989814595
H   0.6506470169  1.0373729249 -0.9734350834
H   2.8123518282  0.9244451833  0.9269456581
H   3.2009552193  1.2088401976 -0.9004847636
H   3.6825908274  0.0034137609  0.2586711374
H   4.8274879643  3.0996141654 -0.1399959649
17
Image 91  Energy = -421.6235441618
C  -1.8679001427  0.4252614602  0.0992567666
O  -1.9099701983  1.6056611900  0.1958177018
C  -0.7472774041 -0.2980242279 -0.0678637331
C   0.5552997679  0.4872946278 -0.0855543628
C   1.8265620706 -0.2481620226  0.0316009450
O   2.0447929205 -1.3007911118  0.0280962283
C   2.8002192861  0.4621955736  0.1462724139
O   4.5431803779  2.2094002242 -0.0917598704
H  -2.7764945253 -0.1367944539  0.1181117781
H  -0.7953495520 -0.9835069830  0.6548020620
H  -0.8821852797 -0.8097696293 -0.8980592291
H   0.5870456524  1.1871771415  0.6969621503
H   0.6512120099  1.0366766552 -0.9744863718
H   2.8102512764  0.9213901716  0.9275008810
H   3.2032004034  1.2089344916 -0.9006981771
H   3.6796158802  0.0034413947  0.2615626668
H   4.8277974569  3.0996154986 -0.1415618492
17
Image 92  Energy = -421.6180193819
C  -1.8664493555  0.4244453378  0.1003555895
O  -1.9089777651  1.6044079302  0.1979851150
C  -0.7472253610 -0.2974410996 -0.0686126813
C   0.5553524604  0.4877015691 -0.0864998294
C   1.8262490591 -0.2469937037  0.0319430502
O   2.0458415583 -1.2981372228  0.0284053409
C   2.7975044177  0.4612632131  0.1478580952
O   4.5436594437  2.2095049225 -0.0927772946
H  -2.7745827237 -0.1383127984  0.1194185744
H  -0.7952972409 -0.9833375123  0.6523251379
H  -0.8830962765 -0.8076772691 -0.8982776572
H   0.5869005552  1.1881463053  0.6949426882
H   0.6517770677  1.0359803720 -0.9755379277
H   2.8081503941  0.9183352067  0.9280567994
H   3.2054459678  1.2090289475 -0.9009115704
H   3.6766407938  0.0034688780  0.2644545119
H   4.8281070049  3.0996169239 -0.1431279419
17
Image 93  Energy = -421.6124432757
C  -1.8649987706  0.4236291956  0.1014545754
O  -1.9079852563  1.6031548170  0.2001528471
C  -0.7471727925 -0.2968577599 -0.0693617139
C   0.5554050399  0.4881084266 -0.0874454157
C   1.8259345033 -0.2458245440  0.0322849841
O   2.0468904661 -1.2954851121  0.0287144355
C   2.7947905426  0.4603317315  0.1494437455
O   4.5441384761  2.2096094947 -0.0937949250
H  -2.7726707578 -0.1398313795  0.1207255417
H  -0.7952448960 -0.9831683129  0.6498481792
H  -0.8840074442 -0.8055848321 -0.8984964728
H   0.5867554300  1.1891156899  0.6929230757
H   0.6523421894  1.0352840750 -0.9765897490
H   2.8060491810  0.9152802892  0.9286134175
H   3.2076919137  1.2091235706 -0.9011249524
H   3.6736655683  0.0034962109  0.2673466681
H   4.8284166070  3.0996184396 -0.1446942408
17
Image 94  Energy = -421.6068131164
C  -1.8635483867  0.4228130293  0.1025537281
O  -1.9069926697  1.6019018486  0.2023209011
C  -0.7471196942 -0.2962742081 -0.0701108296
C   0.5554574974  0.4885151984 -0.0883911231
C   1.8256183644 -0.2446546159  0.0326267442
O   2.0479396334 -1.2928347420  0.0290235111
C   2.7920777101  0.4594011654  0.1510293704
O   4.5446174807  2.2097139451 -0.0948127626
H  -2.7707586249 -0.1413501984  0.1220326813
H  -0.7951925184 -0.9829993801  0.6473711769
H  -0.8849187842 -0.8034923163 -0.8987156756
H   0.5866102760  1.1900852959  0.6909033099
H   0.6529073747  1.0345877628 -0.9776418370
H   2.8039476285  0.9122254161  0.9291707436
H   3.2099382473  1.2092183663 -0.9013383291
H   3.6706902028  0.0035233897  0.2702391383
H   4.8287262626  3.0996200436 -0.1462607478
17
Image 95  Energy = -421.6011252917
C  -1.8620982007  0.4219968317  0.1036530549
O  -1.9060000001  1.6006490218  0.2044892840
C  -0.7470660592 -0.2956904414 -0.0708600256
C   0.5555098179  0.4889218820 -0.0893369554
C   1.8253005765 -0.2434839718  0.0329683291
O   2.0489890532 -1.2901861101  0.0293325652
C   2.7893659936  0.4584715740  0.1526149782
O   4.5450964635  2.2098182778 -0.0958308114
H  -2.7688463185 -0.1428692597  0.1233399976
H  -0.7951401096 -0.9828307072  0.6448941165
H  -0.8858302995 -0.8013997183 -0.8989352696
H   0.5864650915  1.1910551272  0.6888833844
H   0.6534726234  1.0338914331 -0.9786941958
H   2.8018457212  0.9091705795  0.9297287882
H   3.2121849795  1.2093133398 -0.9015517038
H   3.6677146960  0.0035504085  0.2731319317
H   4.8290359713  3.0996217333 -0.1478274680
17
Image 96  Energy = -421.5953767856
C  -1.8606482099  0.4211805963  0.1047525650
O  -1.9050072422  1.5993963333  0.2066580036
C  -0.7470118791 -0.2951064558 -0.0716092976
C   0.5555619853  0.4893284737 -0.0902829163
C   1.8249810672 -0.2423126712  0.0333097376
O   2.0500387184 -1.2875392071  0.0296415950
C   2.7866554731  0.4575430213  0.1542005782
O   4.5455754297  2.2099224967 -0.0968490759
H  -2.7669338317 -0.1443885680  0.1246474948
H  -0.7950876712 -0.9826622864  0.6424169833
H  -0.8867419934 -0.7993070362 -0.8991552630
H   0.5863198742  1.1920251879  0.6868632924
H   0.6540379351  1.0331950838 -0.9797468304
H   2.7997434420  0.9061157703  0.9302875606
H   3.2144321213  1.2094084962 -0.9017650789
H   3.6647390483  0.0035772597  0.2760250586
H   4.8293457329  3.0996235058 -0.1493944067
17
Image 97  Energy = -421.5895647548
C  -1.8591984127  0.4203643177  0.1058522671
O  -1.9040143910  1.5981437807  0.2088270665
C  -0.7469571454 -0.2945222479 -0.0723586398
C   0.5556139862  0.4897349696 -0.0912290092
C   1.8246597683 -0.2411407748  0.0336509675
O   2.0510886230 -1.2848940159  0.0299505976
C   2.7839462224  0.4566155666  0.1557861810
O   4.5460543839  2.2100266051 -0.0978675596
H  -2.7650211584 -0.1459081277  0.1259551770
H  -0.7950352047 -0.9824941104  0.6399397648
H  -0.8876538686 -0.7972142703 -0.8993756661
H   0.5861746220  1.1929954814  0.6848430280
H   0.6546033091  1.0324987130 -0.9807997449
H   2.7976407750  0.9030609796  0.9308470680
H   3.2166796822  1.2095038394 -0.9019784574
H   3.6617632618  0.0036039355  0.2789185283
H   4.8296555467  3.0996253585 -0.1509615686
17
Image 98  Energy = -421.5836860342
C  -1.8577488080  0.4195479919  0.1069521696
O  -1.9030214419  1.5968913618  0.2109964791
C  -0.7469018495 -0.2939378141 -0.0731080471
C   0.5556658100  0.4901413668 -0.0921752371
C   1.8243366171 -0.2399683157  0.0339920172
O   2.0521387655 -1.2822505424  0.0302595697
C   2.7812383051  0.4556892668  0.1573717979
O   4.5465333300  2.2101306057 -0.0988862655
H  -2.7631082930 -0.1474279429  0.1272630478
H  -0.7949827109 -0.9823261727  0.6374624500
H  -0.8885659277 -0.7951214204 -0.8995964897
H   0.5860293333  1.1939660110  0.6828225854
H   0.6551687450  1.0318023184 -0.9818529429
H   2.7955377054  0.9000061970  0.9314073162
H   3.2189276700  1.2095993720 -0.9021918428
H   3.6587873374  0.0036304288  0.2818123504
H   4.8299654120  3.0996272884 -0.1525289581
17
Image 99  Energy = -421.5777380719
C  -1.8562993945  0.4187316150  0.1080522806
O  -1.9020283903  1.5956390745  0.2131662485
C  -0.7468459838 -0.2933531512 -0.0738575161
C   0.5557174480  0.4905476633 -0.0931216038
C   1.8240115561 -0.2387952846  0.0343328853
O   2.0531891510 -1.2796088316  0.0305685074
C   2.7785317742  0.4547641770  0.1589574388
O   4.5470122704  2.2102344996 -0.0999051956
H  -2.7611952295 -0.1489480183  0.1285711113
H  -0.7949301895 -0.9821584691  0.6349850293
H  -0.8894781734 -0.7930284849 -0.8998177434
H   0.5858840066  1.1949367803  0.6808019579
H   0.6557342425  1.0311058979 -0.9829064282
H   2.7934342197  0.8969514105  0.9319683116
H   3.2211760914  1.2096950945 -0.9024052392
H   3.6558112726  0.0036567344  0.2847065359
H   4.8302753284  3.0996292930 -0.1540965800
17
Image 100  Energy = -421.5717188329
C  -1.8548501709  0.4179151842  0.1091526057
O  -1.9010352316  1.5943869175  0.2153363810
C  -0.7467895425 -0.2927682565 -0.0746070460
C   0.5557688939  0.4909538577 -0.0940681126
C   1.8236845417 -0.2376216467  0.0346735712
O   2.0542397891 -1.2769689450  0.0308774063
C   2.7758266662  0.4538403425  0.1605431083
O   4.5474912058  2.2103382863 -0.1009243510
H  -2.7592819624 -0.1504683577  0.1298793711
H  -0.7948776391 -0.9819909973  0.6325074958
H  -0.8903906078 -0.7909354604 -0.9000394345
H   0.5857386405  1.1959077924  0.6787811401
H   0.6562998015  1.0304094495 -0.9839602039
H   2.7913303081  0.8938966104  0.9325300623
H   3.2234249500  1.2097910047 -0.9026186504
H   3.6528350622  0.0036828486  0.2876010952
H   4.8305852951  3.0996313700 -0.1556644383
17
Image 101  Energy = -421.5656296996
C  -1.8534011372  0.4170986994  0.1102531474
O  -1.9000419637  1.5931348907  0.2175068784
C  -0.7467325222 -0.2921831289 -0.0753566374
C   0.5558201454  0.4913599489 -0.0950147655
C   1.8233555593 -0.2364473839  0.0350140746
O   2.0552906882 -1.2743309051  0.0311862625
C   2.7731229916  0.4529177810  0.1621288005
O   4.5479701348  2.2104419638 -0.1019437300
H  -2.7573684905 -0.1519889624  0.1311878282
H  -0.7948250571 -0.9818237575  0.6300298485
H  -0.8913032315 -0.7888423450 -0.9002615660
H   0.5855932350  1.1968790483  0.6767601299
H   0.6568654214  1.0297129721 -0.9850142701
H   2.7892259672  0.8908417943  0.9330925793
H   3.2256742440  1.2098870984 -0.9028320796
H   3.6498587041  0.0037087686  0.2904960333
H   4.8308953112  3.0996335179 -0.1572325339
17
Image 102  Energy = -421.5594748905
C  -1.8519522964  0.4162821639  0.1113539028
O  -1.8990485883  1.5918829970  0.2196777357
C  -0.7466749231 -0.2915977705 -0.0761062911
C   0.5558712062  0.4917659348 -0.0959615610
C   1.8230246358 -0.2352725364  0.0353543949
O   2.0563418496 -1.2716946421  0.0314950740
C   2.7704207265  0.4519964674  0.1637144939
O   4.5484490532  2.2105455285 -0.1029633273
H  -2.7554548183 -0.1535098286  0.1324964793
H  -0.7947724402 -0.9816567522  0.6275520954
H  -0.8922160415 -0.7867491412 -0.9004841365
H   0.5854477908  1.1978505447  0.6747389315
H   0.6574311009  1.0290164661 -0.9860686227
H   2.7871212030  0.8877869726  0.9336558774
H   3.2279239635  1.2099833688 -0.9030455288
H   3.6468822031  0.0037344917  0.2933913454
H   4.8312053752  3.0996357358 -0.1588008627
17
Image 103  Energy = -421.5532619891
C  -1.8505036543  0.4154655859  0.1124548640
O  -1.8980551112  1.5906312417  0.2218489399
C  -0.7466167487 -0.2910121863 -0.0768560071
C   0.5559220872  0.4921718130 -0.0969084940
C   1.8226918414 -0.2340972132  0.0356945304
O   2.0573932661 -1.2690599815  0.0318038408
C   2.7677198105  0.4510763298  0.1653001503
O   4.5489279552  2.2106489759 -0.1039831339
H  -2.7535409574 -0.1550309471  0.1338053164
H  -0.7947197850 -0.9814899852  0.6250742530
H  -0.8931290320 -0.7846558564 -0.9007071404
H   0.5853023105  1.1988222736  0.6727175561
H   0.6579968380  1.0283199332 -0.9871232523
H   2.7850160309  0.8847321709  0.9342199752
H   3.2301740903  1.2100798078 -0.9032589989
H   3.6439055737  0.0037600143  0.2962870156
H   4.8315154847  3.0996380238 -0.1603694149
17
Image 104  Energy = -421.5469989641
C  -1.8490552176  0.4146489754  0.1135560200
O  -1.8970615416  1.5893796318  0.2240204731
C  -0.7465580057 -0.2904263842 -0.0776057848
C   0.5559728060  0.4925775816 -0.0978555564
C   1.8223572769 -0.2329215630  0.0360344783
O   2.0584449250 -1.2664266835  0.0321125651
C   2.7650201539  0.4501572623  0.1668857181
O   4.5494068336  2.2107523011 -0.1050031386
H  -2.7516269237 -0.1565523055  0.1351143286
H  -0.7946670885 -0.9813234604  0.6225963428
H  -0.8940421952 -0.7825625016 -0.9009305687
H   0.5851567977  1.1997942239  0.6706960187
H   0.6585626305  1.0276233758 -0.9881781464
H   2.7829104722  0.8816774262  0.9347848963
H   3.2324246010  1.2101764064 -0.9034724890
H   3.6409288378  0.0037853313  0.2991830200
H   4.8318256376  3.0996403827 -0.1619381770
17
Image 105  Energy = -421.5406935564
C  -1.8476069920  0.4138323429  0.1146573595
O  -1.8960678896  1.5881281736  0.2261923169
C  -0.7464987030 -0.2898403730 -0.0783556229
C   0.5560233850  0.4929832396 -0.0988027397
C   1.8220210509 -0.2317457242  0.0363742347
O   2.0594968140 -1.2637945130  0.0324212502
C   2.7623216525  0.4492391483  0.1684711376
O   4.5498856821  2.2108555001 -0.1060233300
H  -2.7497127332 -0.1580738909  0.1364235048
H  -0.7946143484 -0.9811571811  0.6201183858
H  -0.8949555231 -0.7804690876 -0.9011544116
H   0.5850112565  1.2007663833  0.6686743350
H   0.6591284770  1.0269267961 -0.9892332918
H   2.7808045489  0.8786227816  0.9353506695
H   3.2346754711  1.2102731550 -0.9036859962
H   3.6379520199  0.0038104360  0.3020793339
H   4.8321358315  3.0996428136 -0.1635071355
17
Image 106  Energy = -421.5343503156
C  -1.8461589794  0.4130156958  0.1157588735
O  -1.8950741637  1.5868768710  0.2283644572
C  -0.7464388499 -0.2892541613 -0.0791055201
C   0.5560738471  0.4933887874 -0.0997500365
C   1.8216832564 -0.2305697849  0.0367137955
O   2.0605489261 -1.2611632997  0.0327298991
C   2.7596242079  0.4483218883  0.1700563481
O   4.5503644954  2.2109585696 -0.1070436988
H  -2.7477983981 -0.1595956931  0.1377328362
H  -0.7945615636 -0.9809911479  0.6176403968
H  -0.8958690098 -0.7783756218 -0.9013786598
H   0.5848656908  1.2017387418  0.6666525163
H   0.6596943770  1.0262301949 -0.9902886772
H   2.7786982779  0.8755682779  0.9359173278
H   3.2369266795  1.2103700446 -0.9038995156
H   3.6349751415  0.0038353200  0.3049759373
H   4.8324460649  3.0996453176 -0.1650762797
17
Image 107  Energy = -421.5279700324
C  -1.8447111768  0.4121990366  0.1168605573
O  -1.8940803686  1.5856257247  0.2305368870
C  -0.7463784546 -0.2886677554 -0.0798554757
C   0.5561242109  0.4937942269 -0.1006974425
C   1.8213439510 -0.2293937675  0.0370531567
O   2.0616012617 -1.2585329704  0.0330385137
C   2.7569277477  0.4474054209  0.1716412950
O   4.5508432705  2.2110615079 -0.1080642390
H  -2.7458839240 -0.1611177069  0.1390423185
H  -0.7945087339 -0.9808253591  0.6151623810
H  -0.8967826526 -0.7762821056 -0.9016033062
H   0.5847201035  1.2027112931  0.6646305680
H   0.6602603317  1.0255335717 -0.9913442958
H   2.7765916677  0.8725139480  0.9364849068
H   3.2391782118  1.2104670662 -0.9041130403
H   3.6319982169  0.0038599738  0.3078728201
H   4.8327563370  3.0996478955 -0.1666456044
17
Image 108  Energy = -421.5215501353
C  -1.8432635761  0.4113823628  0.1179624115
O  -1.8930865048  1.5843747317  0.2327096078
C  -0.7463175226 -0.2880811594 -0.0806054894
C   0.5561744875  0.4941995602 -0.1016449578
C   1.8210031463 -0.2282176374  0.0373923144
O   2.0626538284 -1.2559035484  0.0333470941
C   2.7542322412  0.4464897362  0.1732259348
O   4.5513220061  2.2111643138 -0.1090849484
H  -2.7439693092 -0.1626399327  0.1403519524
H  -0.7944558598 -0.9806598105  0.6126843332
H  -0.8976964522 -0.7741885338 -0.9018283470
H   0.5845744960  1.2036840362  0.6626084879
H   0.6608263432  1.0248369247 -0.9924001457
H   2.7744847162  0.8694598114  0.9370534410
H   3.2414300610  1.2105642120 -0.9043265621
H   3.6290212507  0.0038843861  0.3107699837
H   4.8330666481  3.0996505475 -0.1682151103
17
Image 109  Energy = -421.5150856125
C  -1.8418161657  0.4105656674  0.1190644411
O  -1.8920925678  1.5831238856  0.2348826287
C  -0.7462560558 -0.2874943743 -0.0813555618
C   0.5562246786  0.4946047889 -0.1025925862
C   1.8206608057 -0.2270413255  0.0377312653
O   2.0637066388 -1.2532751315  0.0336556389
C   2.7515377062  0.4455748782  0.1748102397
O   4.5518007024  2.2112669874 -0.1101058281
H  -2.7420545452 -0.1641623760  0.1416617431
H  -0.7944029423 -0.9804944958  0.6102062390
H  -0.8986104131 -0.7720948953 -0.9020537815
H   0.5844288678  1.2046569753  0.6605862675
H   0.6613924146  1.0241402508 -0.9934562305
H   2.7723774116  0.8664058728  0.9376229601
H   3.2436822276  1.2106614746 -0.9045400721
H   3.6260442375  0.0039085448  0.3136674407
H   4.8333769990  3.0996532730 -0.1697848037
17
Image 110  Energy = -421.5085686881
C  -1.8403689322  0.4097489404  0.1201666543
O  -1.8910985501  1.5818731779  0.2370559643
C  -0.7461940519 -0.2869073995 -0.0821056938
C   0.5562747784  0.4950099141 -0.1035403347
C   1.8203168517 -0.2258647530  0.0380700058
O   2.0647597080 -1.2506478595  0.0339641452
C   2.7488442068  0.4446609371  0.1763941982
O   4.5522793615  2.2113695295 -0.1111268818
H  -2.7401396185 -0.1656850460  0.1429716992
H  -0.7943499832 -0.9803294079  0.6077280781
H  -0.8995245425 -0.7700011750 -0.9022796116
H   0.5842832172  1.2056301185  0.6585638940
H   0.6619585491  1.0234435466 -0.9945125576
H   2.7702697337  0.8633521216  0.9381934853
H   3.2459347172  1.2107588475 -0.9047535611
H   3.6230671637  0.0039324371  0.3165652113
H   4.8336873912  3.0996560711 -0.1713546948
17
Image 111  Energy = -421.5019925674
C  -1.8389218626  0.4089321713  0.1212690615
O  -1.8901044426  1.5806225993  0.2392296319
C  -0.7461315046 -0.2863202335 -0.0828558872
C   0.5563247767  0.4954149361 -0.1044882118
C   1.8199711782 -0.2246878538  0.0384085319
O   2.0658130511 -1.2480218807  0.0342726099
C   2.7461518428  0.4437480354  0.1779778154
O   4.5527579861  2.2114719417 -0.1121481139
H  -2.7382245136 -0.1672079538  0.1442818308
H  -0.7942969846 -0.9801645402  0.6052498276
H  -0.9004388489 -0.7679073557 -0.9025058412
H   0.5841375413  1.2066034760  0.6565413525
H   0.6625247501  1.0227468087 -0.9955691366
H   2.7681616568  0.8602985348  0.9387650260
H   3.2481875376  1.2108563244 -0.9049670206
H   3.6200900097  0.0039560504  0.3194633201
H   4.8339978262  3.0996589400 -0.1729247959
17
Image 112  Energy = -421.4953495399
C  -1.8374749459  0.4081153505  0.1223716727
O  -1.8891102361  1.5793721404  0.2414036490
C  -0.7460684043 -0.2857328749 -0.0836061438
C   0.5563746632  0.4958198544 -0.1054362263
C   1.8196236650 -0.2235105888  0.0387468391
O   2.0668666808 -1.2453973244  0.0345810297
C   2.7434607355  0.4428363115  0.1795611110
O   4.5532365800  2.2115742269 -0.1131695290
H  -2.7363092150 -0.1687311103  0.1455921481
H  -0.7942439489 -0.9799998868  0.6027714658
H  -0.9013533415 -0.7658134207 -0.9027324748
H   0.5839918370  1.2075770588  0.6545186281
H   0.6630910210  1.0220500338 -0.9966259777
H   2.7660531527  0.8572450795  0.9393375785
H   3.2504406967  1.2109538996 -0.9051804426
H   3.6171127539  0.0039793730  0.3223617916
H   4.8343083058  3.0996618779 -0.1744951192
17
Image 113  Energy = -421.4886340026
C  -1.8360281746  0.4072984712  0.1234744973
O  -1.8881159230  1.5781217927  0.2435780310
C  -0.7460047391 -0.2851453233 -0.0843564657
C   0.5564244298  0.4962246678 -0.1063843858
C   1.8192741896 -0.2223329511  0.0390849220
O   2.0679206067 -1.2427742857  0.0348894020
C   2.7407710158  0.4419259068  0.1811441178
O   4.5537151477  2.2116763887 -0.1141911306
H  -2.7343937093 -0.1702545255  0.1469026602
H  -0.7941908790 -0.9798354441  0.6002929744
H  -0.9022680291 -0.7637193549 -0.9029595167
H   0.5838461011  1.2085508769  0.6524957083
H   0.6636573645  1.0213532195 -0.9976830904
H   2.7639441924  0.8541917164  0.9399111247
H   3.2526942003  1.2110515671 -0.9053938199
H   3.6141353749  0.0040023949  0.3252606474
H   4.8346188314  3.0996648829 -0.1760656756
17
Image 114  Energy = -421.4818412680
C  -1.8345815444  0.4064815294  0.1245775428
O  -1.8871214972  1.5768715494  0.2457527904
C  -0.7459404955 -0.2845575795 -0.0851068555
C   0.5564740721  0.4966293750 -0.1073326966
C   1.8189226343 -0.2211549637  0.0394227752
O   2.0689748350 -1.2401528223  0.0351977247
C   2.7380828147  0.4410169591  0.1827268810
O   4.5541936937  2.2117784317 -0.1152129211
H  -2.7324779857 -0.1717782071  0.1482133743
H  -0.7941377779 -0.9796712102  0.5978143400
H  -0.9031829194 -0.7616251457 -0.9031869707
H   0.5837003306  1.2095249388  0.6504725827
H   0.6642237832  1.0206563639 -0.9987404825
H   2.7618347479  0.8511383999  0.9404856306
H   3.2549480510  1.2111493210 -0.9056071459
H   3.6111578535  0.0040251077  0.3281599049
H   4.8349294042  3.0996679529 -0.1776364740
17
Image 115  Energy = -421.4749682913
C  -1.8331350540  0.4056645231  0.1256808148
O  -1.8861269547  1.5756214049  0.2479279367
C  -0.7458756599 -0.2839696454 -0.0858573160
C   0.5565235892  0.4970339740 -0.1082811633
C   1.8185688889 -0.2199766702  0.0397603924
O   2.0700293696 -1.2375329614  0.0355059960
C   2.7353962598  0.4401096005  0.1843094575
O   4.5546722219  2.2118803604 -0.1162349016
H  -2.7305620361 -0.1733021608  0.1495242958
H  -0.7940846485 -0.9795071849  0.5953355536
H  -0.9040980189 -0.7595307828 -0.9034148394
H   0.5835545229  1.2104992515  0.6484492443
H   0.6647902789  1.0199594655 -0.9997981603
H   2.7597247932  0.8480850797  0.9410610467
H   3.2572022489  1.2112471547 -0.9058204134
H   3.6081801733  0.0040475051  0.3310595774
H   4.8352400254  3.0996710865 -0.1792075210
17
Image 116  Energy = -421.4680135065
C  -1.8316887035  0.4048474524  0.1267843176
O  -1.8851322924  1.5743713544  0.2501034770
C  -0.7458102197 -0.2833815238 -0.0866078503
C   0.5565729830  0.4974384621 -0.1092297895
C   1.8182128514 -0.2187981255  0.0400977673
O   2.0710842135 -1.2349147106  0.0358142146
C   2.7327114719  0.4392039567  0.1858919123
O   4.5551507354  2.2119821792 -0.1172570726
H  -2.7286458545 -0.1748263907  0.1508354288
H  -0.7940314937 -0.9793433687  0.5928566095
H  -0.9050133329 -0.7574362575 -0.9036431239
H   0.5834086753  1.2114738208  0.6464256879
H   0.6653568532  1.0192625238 -1.0008561288
H   2.7576143044  0.8450317019  0.9416373120
H   3.2594567918  1.2113450613 -0.9060336151
H   3.6052023204  0.0040695826  0.3339596750
H   4.8355506961  3.0996742823 -0.1807788217
17
Image 117  Energy = -421.4609740987
C  -1.8302424924  0.4040303174  0.1278880545
O  -1.8841375082  1.5731213934  0.2522794171
C  -0.7457441649 -0.2827932183 -0.0873584620
C   0.5566222573  0.4978428365 -0.1101785781
C   1.8178544284 -0.2176193856  0.0404348925
O   2.0721393690 -1.2322980693  0.0361223786
C   2.7300285624  0.4383001416  0.1874743088
O   4.5556292357  2.2120838913 -0.1182794341
H  -2.7267294361 -0.1763509000  0.1521467766
H  -0.7939783162 -0.9791797627  0.5903775035
H  -0.9059288653 -0.7553415615 -0.9038718242
H   0.5832627856  1.2124486519  0.6444019095
H   0.6659235074  1.0185655381 -1.0019143919
H   2.7555032603  0.8419782178  0.9422143678
H   3.2617116771  1.2114430339 -0.9062467428
H   3.6022242822  0.0040913367  0.3368602050
H   4.8358614176  3.0996775393 -0.1823503803
17
Image 118  Energy = -421.4538476937
C  -1.8287964181  0.4032131172  0.1289920287
O  -1.8831425995  1.5718715172  0.2544557629
C  -0.7456774893 -0.2822047321 -0.0881091551
C   0.5566714173  0.4982470932 -0.1111275322
C   1.8174935357 -0.2164405025  0.0407717583
O   2.0731948375 -1.2296830362  0.0364304850
C   2.7273476289  0.4373982480  0.1890566917
O   4.5561077224  2.2121854976 -0.1193019872
H  -2.7248127756 -0.1778756921  0.1534583426
H  -0.7939251191 -0.9790163669  0.5878982298
H  -0.9068446197 -0.7532466854 -0.9041009386
H   0.5831168513  1.2134237502  0.6423779044
H   0.6664902436  1.0178685076 -1.0029729534
H   2.7533916433  0.8389245965  0.9427921806
H   3.2639669046  1.2115410670 -0.9064597898
H   3.5992460452  0.0041127640  0.3397611735
H   4.8361721915  3.0996808571 -0.1839222014
17
Image 119  Energy = -421.4466305544
C  -1.8273504737  0.4023958484  0.1300962445
O  -1.8821475627  1.5706217192  0.2566325230
C  -0.7456101912 -0.2816160682 -0.0888599345
C   0.5567204692  0.4986512276 -0.1120766555
C   1.8171300998 -0.2152615214  0.0411083515
O   2.0742506185 -1.2270696147  0.0367385293
C   2.7246687507  0.4364983362  0.1906390701
O   4.5565861937  2.2122869967 -0.1203247339
H  -2.7228958653 -0.1794007719  0.1547701317
H  -0.7938719059 -0.9788531801  0.5854187789
H  -0.9077605997 -0.7511516168 -0.9043304638
H   0.5829708703  1.2143991217  0.6403536655
H   0.6670570650  1.0171714306 -1.0040318177
H   2.7512794399  0.8358708402  0.9433707680
H   3.2662224786  1.2116391575 -0.9066727518
H   3.5962675935  0.0041338595  0.3426625860
H   4.8364830195  3.0996842358 -0.1854942910
17
Image 120  Energy = -421.4393169158
C  -1.8259046474  0.4015785047  0.1312007072
O  -1.8811523926  1.5693719913  0.2588097087
C  -0.7455422733 -0.2810272281 -0.0896108061
C   0.5567694197  0.4990552341 -0.1130259532
C   1.8167640601 -0.2140824794  0.0414446540
O   2.0753067081 -1.2244578156  0.0370465040
C   2.7219919838  0.4356004285  0.1922214083
O   4.5570646460  2.2123883845 -0.1213476779
H  -2.7209786947 -0.1809261468  0.1560821506
H  -0.7938186807 -0.9786902000  0.5829391362
H  -0.9086768093 -0.7490563397 -0.9045603956
H   0.5828248405  1.2153747735  0.6383291823
H   0.6676239768  1.0164743041 -1.0050909898
H   2.7491666422  0.8328169916  0.9439502107
H   3.2684784091  1.2117373051 -0.9068856290
H   3.5932889077  0.0041546166  0.3455644471
H   4.8367939040  3.0996876761 -0.1870666574
17
Image 121  Energy = -421.4319022983
C  -1.8244589247  0.4007610783  0.1323054232
O  -1.8801570830  1.5681223241  0.2609873338
C  -0.7454737412 -0.2804382136 -0.0903617761
C   0.5568182757  0.4994591069 -0.1139754314
C   1.8163953696 -0.2129034053  0.0417806441
O   2.0763630999 -1.2218476559  0.0373543999
C   2.7193173609  0.4347045169  0.1938036373
O   4.5575430751  2.2124896542 -0.1223708229
H  -2.7190612515 -0.1824518258  0.1573944074
H  -0.7937654483 -0.9785274232  0.5804592834
H  -0.9095932527 -0.7469608361 -0.9047907287
H   0.5826787601  1.2163507134  0.6363044422
H   0.6681909857  1.0157771239 -1.0061504753
H   2.7470532482  0.8297631249  0.9445306381
H   3.2707347108  1.2118355118 -0.9070984256
H   3.5903099677  0.0041750266  0.3484667611
H   4.8371048478  3.0996911793 -0.1886393104
17
Image 122  Energy = -421.4243819071
C  -1.8230132916  0.3999435620  0.1334103988
O  -1.8791616279  1.5668727086  0.2631654111
C  -0.7454046021 -0.2798490266 -0.0911128503
C   0.5568670441  0.4998628407 -0.1149250964
C   1.8160239967 -0.2117243193  0.0421162989
O   2.0774197863 -1.2192391560  0.0376622070
C   2.7166448937  0.4338105819  0.1953856847
O   4.5580214756  2.2125907978 -0.1233941715
H  -2.7171435238 -0.1839778174  0.1587069096
H  -0.7937122132 -0.9783648461  0.5779792026
H  -0.9105099334 -0.7448650891 -0.9050214581
H   0.5825326274  1.2173269485  0.6342794330
H   0.6687580992  1.0150798856 -1.0072102784
H   2.7449392612  0.8267093208  0.9451121862
H   3.2729913983  1.2119337797 -0.9073111477
H   3.5873307558  0.0041950819  0.3513695301
H   4.8374158537  3.0996947473 -0.1902122595
17
Image 123  Energy = -421.4167531575
C  -1.8215677395  0.3991259527  0.1345156390
O  -1.8781660235  1.5656231381  0.2653439499
C  -0.7453348617 -0.2792596711 -0.0918640328
C   0.5569157319  0.5002664314 -0.1158749533
C   1.8156499237 -0.2105452303  0.0424515986
O   2.0784767608 -1.2166323381  0.0379699156
C   2.7139745799  0.4329186143  0.1969675083
O   4.5584998418  2.2126918068 -0.1244177239
H  -2.7152255033 -0.1855041277  0.1600196626
H  -0.7936589792 -0.9782024658  0.5754988803
H  -0.9114268527 -0.7427690864 -0.9052525792
H   0.5823864410  1.2183034841  0.6322541461
H   0.6693253238  1.0143825849 -1.0082704008
H   2.7428246890  0.8236556374  0.9456949488
H   3.2752484823  1.2120321097 -0.9075238016
H   3.5843512610  0.0042147783  0.3542727541
H   4.8377269247  3.0996983823 -0.1917855114
17
Image 124  Energy = -421.4090173703
C  -1.8201222670  0.3983082524  0.1356211468
O  -1.8771702683  1.5643736085  0.2675229537
C  -0.7452645232 -0.2786701537 -0.0926153258
C   0.5569643464  0.5006698757 -0.1168250053
C   1.8152731459 -0.2093661330  0.0427865281
O   2.0795340204 -1.2140272268  0.0382775178
C   2.7113064086  0.4320286278  0.1985491157
O   4.5589781671  2.2127926732 -0.1254414771
H  -2.7133071872 -0.1870307588  0.1613326684
H  -0.7936057487 -0.9780402807  0.5730183103
H  -0.9123440098 -0.7406728224 -0.9054840890
H   0.5822401997  1.2192803228  0.6302285784
H   0.6698926646  1.0136852186 -1.0093308411
H   2.7407095413  0.8206020928  0.9462789498
H   3.2775059670  1.2121305004 -0.9077363916
H   3.5813714798  0.0042341165  0.3571764301
H   4.8380380633  3.0997020870 -0.1933590692
17
Image 125  Energy = -421.4011760548
C  -1.8186768808  0.3974904684  0.1367269235
O  -1.8761743636  1.5631241194  0.2697024211
C  -0.7451935861 -0.2780804825 -0.0933667295
C   0.5570128954  0.5010731717 -0.1177752534
C   1.8148936681 -0.2081870049  0.0431210780
O   2.0805915653 -1.2114238546  0.0385850069
C   2.7086403647  0.4311406602  0.2001305633
O   4.5594564453  2.2128933896 -0.1264654257
H  -2.7113885770 -0.1885577095  0.1626459258
H  -0.7935525233 -0.9778782908  0.5705374934
H  -0.9132614019 -0.7385762981 -0.9057159860
H   0.5820939028  1.2202574649  0.6282027318
H   0.6704601252  1.0129877847 -1.0103915950
H   2.7385938288  0.8175486661  0.9468641452
H   3.2797638511  1.2122289490 -0.9079489208
H   3.5783914143  0.0042531026  0.3600805538
H   4.8383492717  3.0997058641 -0.1949329322
17
Image 126  Energy = -421.3932323499
C  -1.8172315932  0.3966726119  0.1378329701
O  -1.8751783122  1.5618746715  0.2718823478
C  -0.7451220467 -0.2774906668 -0.0941182429
C   0.5570613870  0.5014763182 -0.1187256978
C   1.8145114997 -0.2070078051  0.0434552429
O   2.0816493986 -1.2088222689  0.0388923767
C   2.7059764315  0.4302547674  0.2017119399
O   4.5599346710  2.2129939497 -0.1274895636
H  -2.7094696774 -0.1900849765  0.1639594323
H  -0.7934993036 -0.9777164977  0.5680564346
H  -0.9141790250 -0.7364795184 -0.9059482709
H   0.5819475494  1.2212349094  0.6261766108
H   0.6710277084  1.0122902812 -1.0114526571
H   2.7364775618  0.8144953093  0.9474504469
H   3.2820221297  1.2123274517 -0.9081613916
H   3.5754110691  0.0042717471  0.3629851201
H   4.8386605519  3.0997097164 -0.1965070981
17
Image 127  Energy = -421.3851892870
C  -1.8157864197  0.3958546956  0.1389392874
O  -1.8741821172  1.5606252666  0.2740627294
C  -0.7450498990 -0.2769007156 -0.0948698642
C   0.5571098302  0.5018793142 -0.1196763383
C   1.8141266507 -0.2058284747  0.0437890195
O   2.0827075249 -1.2062225374  0.0391996208
C   2.7033145928  0.4293710182  0.2032933506
O   4.5604128400  2.2130943480 -0.1285138846
H  -2.7075504935 -0.1916125563  0.1652731848
H  -0.7934460901 -0.9775549038  0.5655751400
H  -0.9150968752 -0.7343824900 -0.9061809461
H   0.5818011389  1.2222126547  0.6241502206
H   0.6715954167  1.0115927063 -1.0125140213
H   2.7343607494  0.8114419610  0.9480377462
H   3.2842807978  1.2124260045 -0.9083738057
H   3.5724304477  0.0042900628  0.3658901252
H   4.8389719056  3.0997136464 -0.1980815640
17
Image 128  Energy = -421.3770491069
C  -1.8143413766  0.3950367324  0.1400458772
O  -1.8731857814  1.5593759061  0.2762435619
C  -0.7449771358 -0.2763106371 -0.0956215914
C   0.5571582349  0.5022821592 -0.1206271750
C   1.8137391270 -0.2046489406  0.0441224052
O   2.0837659496 -1.2036247481  0.0395067322
C   2.7006548354  0.4284894927  0.2048749074
O   4.5608909494  2.2131945799 -0.1295383838
H  -2.7056310299 -0.1931404460  0.1665871808
H  -0.7933928828 -0.9773935120  0.5630936156
H  -0.9160149491 -0.7322852198 -0.9064140157
H   0.5816546703  1.2231906992  0.6221235660
H   0.6721632527  1.0108950576 -1.0135756825
H   2.7322433995  0.8083885530  0.9486259261
H   3.2865398504  1.2125246029 -0.9085861632
H   3.5694495521  0.0043080644  0.3687955669
H   4.8392833342  3.0997176567 -0.1996563275
17
Image 129  Energy = -421.3688138250
C  -1.8128964792  0.3942187345  0.1411527415
O  -1.8721893076  1.5581265913  0.2784248424
C  -0.7449037511 -0.2757204384 -0.0963734214
C   0.5572066117  0.5026848528 -0.1215782081
C   1.8133489296 -0.2034691190  0.0444553980
O   2.0848246788 -1.2010290066  0.0398137031
C   2.6979971512  0.4276102834  0.2064567273
O   4.5613689984  2.2132946420 -0.1305630577
H  -2.7037112905 -0.1946686431  0.1679014183
H  -0.7933396814 -0.9772323249  0.5606118661
H  -0.9169332439 -0.7301877146 -0.9066474847
H   0.5815081425  1.2241690415  0.6200966513
H   0.6727312187  1.0101973322 -1.0146376359
H   2.7301255185  0.8053350114  0.9492148629
H   3.2887992829  1.2126232414 -0.9087984615
H   3.5664683823  0.0043257670  0.3717014454
H   4.8395948391  3.0997217494 -0.2012313868
17
Image 130  Energy = -421.3604858003
C  -1.8114517406  0.3934007123  0.1422598826
O  -1.8711926981  1.5568773231  0.2806065680
C  -0.7448297410 -0.2751301256 -0.0971253504
C   0.5572549726  0.5030873951 -0.1225294379
C   1.8129560545 -0.2022889222  0.0447879959
O   2.0858837187 -1.1984354273  0.0401205257
C   2.6953415373  0.4267334940  0.2080389326
O   4.5618469870  2.2133945321 -0.1315879042
H  -2.7017912789 -0.1961971449  0.1692158954
H  -0.7932864851 -0.9770713442  0.5581298954
H  -0.9178517568 -0.7280899812 -0.9068813592
H   0.5813615542  1.2251476803  0.6180694806
H   0.6732993164  1.0094995272 -1.0156998773
H   2.7280071115  0.8022812558  0.9498044242
H   3.2910590898  1.2127219133 -0.9090106937
H   3.5634869376  0.0043431865  0.3746077625
H   4.8399064210  3.0997259261 -0.2028067401
17
Image 131  Energy = -421.3520675627
C  -1.8100071715  0.3925826753  0.1433673021
O  -1.8701959557  1.5556281020  0.2827887356
C  -0.7447551055 -0.2745397042 -0.0978773732
C   0.5573033307  0.5034897860 -0.1234808641
C   1.8125604956 -0.2011082637  0.0451201973
O   2.0869430758 -1.1958441256  0.0404271926
C   2.6926879942  0.4258592346  0.2096216487
O   4.5623249169  2.2134942489 -0.1326129223
H  -2.6998709988 -0.1977259485  0.1705306101
H  -0.7932332930 -0.9769105705  0.5556477073
H  -0.9187704848 -0.7259920269 -0.9071156454
H   0.5812149039  1.2261266138  0.6160420587
H   0.6738675466  1.0088016396 -1.0167624026
H   2.7258881834  0.7992272011  0.9503944689
H   3.2933192642  1.2128206106 -0.9092228491
H   3.5605052174  0.0043603393  0.3775145209
H   4.8402180805  3.0997301885 -0.2043823854
17
Image 132  Energy = -421.3435613399
C  -1.8085627800  0.3917646311  0.1444750012
O  -1.8691990833  1.5543789287  0.2849713410
C  -0.7446798479 -0.2739491786 -0.0986294837
C   0.5573516998  0.5038920259 -0.1244324858
C   1.8121622482 -0.1999270633  0.0454520000
O   2.0880027566 -1.1932552086  0.0407336968
C   2.6900365223  0.4249876139  0.2112049988
O   4.5628027904  2.2135937923 -0.1336381115
H  -2.6979504544 -0.1992550503  0.1718455600
H  -0.7931801033 -0.9767500034  0.5531653053
H  -0.9196894246 -0.7238938596 -0.9073503498
H   0.5810681898  1.2271058395  0.6140143910
H   0.6744359092  1.0081036668 -1.0178252076
H   2.7237687400  0.7961727618  0.9509848537
H   3.2955797977  1.2129193247 -0.9094349134
H   3.5575232219  0.0043772419  0.3804217240
H   4.8405298175  3.0997345377 -0.2059583201
17
Image 133  Energy = -421.3349713397
C  -1.8071185726  0.3909465873  0.1455829808
O  -1.8682020839  1.5531298038  0.2871543792
C  -0.7446039748 -0.2733585529 -0.0993816750
C   0.5574000938  0.5042941147 -0.1253843014
C   1.8117613140 -0.1987452483  0.0457834020
O   2.0890627672 -1.1906687699  0.0410400325
C   2.6873871166  0.4241187296  0.2127890987
O   4.5632806108  2.2136931628 -0.1346634715
H  -2.6960296508 -0.2007844459  0.1731607420
H  -0.7931269142 -0.9765896419  0.5506826941
H  -0.9206085725 -0.7217954882 -0.9075854787
H   0.5809214104  1.2280853545  0.6119864839
H   0.6750044032  1.0074056068 -1.0188882881
H   2.7216487895  0.7931178564  0.9515754388
H   3.2978406798  1.2130180463 -0.9096468709
H   3.5545409519  0.0043939108  0.3833293748
H   4.8408416317  3.0997389747 -0.2075345408
17
Image 134  Energy = -421.3262998642
C  -1.8056745560  0.3901285515  0.1466912409
O  -1.8672049614  1.5518807282  0.2893378434
C  -0.7445274943 -0.2727678310 -0.1001339403
C   0.5574485257  0.5046960528 -0.1263363085
C   1.8113577069 -0.1975627552  0.0461144009
O   2.0901231134 -1.1880848841  0.0413461947
C   2.6847397600  0.4232526589  0.2143740507
O   4.5637583821  2.2137923617 -0.1356890013
H  -2.6941085936 -0.2023141297  0.1744761522
H  -0.7930737236 -0.9764294852  0.5481998798
H  -0.9215279239 -0.7196969226 -0.9078210390
H   0.5807745638  1.2290651552  0.6099583450
H   0.6755730267  1.0067074581 -1.0199516394
H   2.7195283440  0.7900624124  0.9521660943
H   3.3001018986  1.2131167666 -0.9098587053
H   3.5515584096  0.0044103628  0.3862374753
H   4.8411535220  3.0997435002 -0.2091110432
17
Image 135  Energy = -421.3175528211
C  -1.8042307390  0.3893105338  0.1477997816
O  -1.8662077198  1.5506317036  0.2915217254
C  -0.7444504135 -0.2721770169 -0.1008862733
C   0.5574970068  0.5050978404 -0.1272885039
C   1.8109514575 -0.1963795277  0.0464449957
O   2.0911838014 -1.1855036048  0.0416521800
C   2.6820944194  0.4223894527  0.2159599419
O   4.5642361086  2.2138913908 -0.1367146988
H  -2.6921872902 -0.2038440954  0.1757917856
H  -0.7930205293 -0.9762695335  0.5457168718
H  -0.9224474733 -0.7175981743 -0.9080570371
H   0.5806276486  1.2300452367  0.6079299830
H   0.6761417771  1.0060092201 -1.0210152561
H   2.7174074206  0.7870063673  0.9527567021
H   3.3023634401  1.2132154776 -0.9100704018
H   3.5485755980  0.0044266148  0.3891460259
H   4.8414654872  3.0997481151 -0.2106878218
17
Image 136  Energy = -421.3087360106
C  -1.8027871343  0.3884925469  0.1489086023
O  -1.8652103646  1.5493827331  0.2937060140
C  -0.7443727382 -0.2715861152 -0.1016386685
C   0.5575455459  0.5054994782 -0.1282408831
C   1.8105426197 -0.1951955167  0.0467751866
O   2.0922448378 -1.1829249586  0.0419579870
C   2.6794510401  0.4215291289  0.2175468436
O   4.5647137950  2.2139902521 -0.1377405601
H  -2.6902657500 -0.2053743344  0.1771076358
H  -0.7929673292 -0.9761097887  0.5432336836
H  -0.9233672137 -0.7154992569 -0.9082934799
H   0.5804806629  1.2310255932  0.6059014094
H   0.6767106509  1.0053108935 -1.0220791319
H   2.7152860423  0.7839496684  0.9533471541
H   3.3046252878  1.2133141723 -0.9102819477
H   3.5455925222  0.0044426843  0.3920550240
H   4.8417775253  3.0997528200 -0.2122648690
17
Image 137  Energy = -421.2998567115
C  -1.8013437596  0.3876746077  0.1500177012
O  -1.8642129025  1.5481338214  0.2958906947
C  -0.7442944709 -0.2709951321 -0.1023911219
C   0.5575941486  0.5059009668 -0.1291934402
C   1.8101312746 -0.1940106807  0.0471049771
O   2.0933062297 -1.1803489416  0.0422636168
C   2.6768095433  0.4206716694  0.2191348133
O   4.5651914455  2.2140889480 -0.1387665787
H  -2.6883439850 -0.2069048364  0.1784236939
H  -0.7929141210 -0.9759502549  0.5407503344
H  -0.9242871362 -0.7134001871 -0.9085303733
H   0.5803336051  1.2320062170  0.6038726379
H   0.6772796436  1.0046124802 -1.0231432588
H   2.7131642389  0.7808922716  0.9539373483
H   3.3068874225  1.2134128450 -0.9104933331
H   3.5426091894  0.0044585903  0.3949644634
H   4.8420896341  3.0997576159 -0.2138421750
17
Image 138  Energy = -421.2909243317
C  -1.7999006377  0.3868567366  0.1511270752
O  -1.8632153424  1.5468849757  0.2980757487
C  -0.7442156123 -0.2704040750 -0.1031436307
C   0.5576428167  0.5063023075 -0.1301461673
C   1.8097175336 -0.1928249876  0.0474343745
O   2.0943679850 -1.1777755137  0.0425690733
C   2.6741698251  0.4198170191  0.2207238981
O   4.5656690636  2.2141874807 -0.1397927452
H  -2.6864220114 -0.2084355878  0.1797399487
H  -0.7928609024 -0.9757909383  0.5382668495
H  -0.9252072299 -0.7113009844 -0.9087677223
H   0.5801864740  1.2329870982  0.6018436863
H   0.6778487494  1.0039139836 -1.0242076266
H   2.7110420469  0.7778341382  0.9545271830
H   3.3091498215  1.2135114916 -0.9107045510
H   3.5396256097  0.0044743526  0.3978743327
H   4.8424018105  3.0997625036 -0.2154197267
17
Image 139  Energy = -421.2819508923
C  -1.7984577952  0.3860389571  0.1522367185
O  -1.8622176955  1.5456362059  0.3002611521
C  -0.7441361620 -0.2698129532 -0.1038961929
C   0.5576915487  0.5067035014 -0.1310990548
C   1.8093015397 -0.1916384161  0.0477633901
O   2.0954301117 -1.1752045955  0.0428743641
C   2.6715317579  0.4189650856  0.2223141385
O   4.5661466513  2.2142858517 -0.1408190473
H  -2.6844998491 -0.2099665714  0.1810563858
H  -0.7928076710 -0.9756318466  0.5357832612
H  -0.9261274808 -0.7092016721 -0.9090055293
H   0.5800392681  1.2339682246  0.5998145765
H   0.6784179614  1.0032154090 -1.0252722231
H   2.7089195093  0.7747752325  0.9551165512
H   3.3114124579  1.2136101095 -0.9109155975
H   3.5366417963  0.0044899936  0.4007846148
H   4.8427140514  3.0997674845 -0.2169975077
17
Image 140  Energy = -421.2729503660
C  -1.7970152612  0.3852212945  0.1533466224
O  -1.8612199760  1.5443875249  0.3024468757
C  -0.7440561202 -0.2692217776 -0.1046488069
C   0.5577403394  0.5071045503 -0.1320520904
C   1.8088834657 -0.1904509583  0.0480920405
O   2.0964926180 -1.1726360656  0.0431795004
C   2.6688951933  0.4181157428  0.2239055713
O   4.5666242091  2.2143840621 -0.1418454697
H  -2.6825775229 -0.2114977668  0.1823729877
H  -0.7927544244 -0.9754729884  0.5332996076
H  -0.9270478725 -0.7071022767 -0.9092437939
H   0.5798919863  1.2349495814  0.5977853348
H   0.6789872709  1.0025167635 -1.0263370329
H   2.7067966749  0.7717155195  0.9557053365
H   3.3136753010  1.2137086975 -0.9111264709
H   3.5336577658  0.0045055373  0.4036952857
H   4.8430263527  3.0997725602 -0.2185754976
17
Image 141  Energy = -421.2639379545
C  -1.7955730654  0.3844037749  0.1544567748
O  -1.8602222005  1.5431389480  0.3046328855
C  -0.7439754892 -0.2686305606 -0.1054014712
C   0.5577891808  0.5075054557 -0.1330052599
C   1.8084635105 -0.1892626190  0.0484203464
O   2.0975555118 -1.1700697642  0.0434844972
C   2.6662599677  0.4172688348  0.2254982333
O   4.5671017352  2.2144821121 -0.1428719945
H  -2.6806550616 -0.2130291494  0.1836897336
H  -0.7927011601 -0.9753143721  0.5308159320
H  -0.9279683859 -0.7050028279 -0.9094825119
H   0.5797446278  1.2359311510  0.5957559915
H   0.6795566680  1.0018180559 -1.0274020385
H   2.7046735969  0.7686549627  0.9562934108
H   3.3159383166  1.2138072559 -0.9113371717
H   3.5306735373  0.0045210102  0.4066063152
H   4.8433387101  3.0997777324 -0.2201536725
17
Image 142  Energy = -421.2549310672
C  -1.7941312364  0.3835864237  0.1555671606
O  -1.8592243884  1.5418904930  0.3068191429
C  -0.7438942739 -0.2680393153 -0.1061541830
C   0.5578380623  0.5079062191 -0.1339585469
C   1.8080418935 -0.1880734161  0.0487483332
O   2.0986188002 -1.1675054966  0.0437893728
C   2.6636259085  0.4164241829  0.2270921623
O   4.5675792260  2.2145800003 -0.1438986019
H  -2.6787324979 -0.2145606917  0.1850066004
H  -0.7926478755 -0.9751560053  0.5283322814
H  -0.9288889999 -0.7029033578 -0.9097216763
H   0.5795971919  1.2369129140  0.5937265806
H   0.6801261414  1.0011192965 -1.0284672198
H   2.7025503312  0.7655935236  0.9568806338
H   3.3182014673  1.2139057858 -0.9115477012
H   3.5276891309  0.0045364410  0.4095176668
H   4.8436511188  3.0997830034 -0.2217320054
17
Image 143  Energy = -421.2459477906
C  -1.7926898010  0.3827692645  0.1566777617
O  -1.8582265610  1.5406421795  0.3090056064
C  -0.7438124816 -0.2674480556 -0.1069069384
C   0.5578869717  0.5083068417 -0.1349119335
C   1.8076188470 -0.1868833776  0.0490760295
O   2.0996824901 -1.1649430427  0.0440941482
C   2.6609928417  0.4155815927  0.2286873982
O   4.5680566754  2.2146777242 -0.1449252709
H  -2.6768098671 -0.2160923637  0.1863235630
H  -0.7925945680 -0.9749978942  0.5258487050
H  -0.9298096923 -0.7008039005 -0.9099612775
H   0.5794496782  1.2378948491  0.5916971383
H   0.6806956794  1.0004204969 -1.0295325553
H   2.7004269345  0.7625311609  0.9574668556
H   3.3204647138  1.2140042892 -0.9117580620
H   3.5247045656  0.0045518606  0.4124292989
H   4.8439635737  3.0997883755 -0.2233104671
17
Image 144  Energy = -421.2370057510
C  -1.7912487840  0.3819523192  0.1577885585
O  -1.8572287410  1.5393940283  0.3111922329
C  -0.7437301208 -0.2668567945 -0.1076597311
C   0.5579358958  0.5087073242 -0.1358654009
C   1.8071946084 -0.1856925398  0.0494034671
O   2.1007465873 -1.1623821662  0.0443988462
C   2.6583605980  0.4147408622  0.2302839825
O   4.5685340757  2.2147752799 -0.1459519802
H  -2.6748872062 -0.2176241343  0.1876405954
H  -0.7925412351 -0.9748400435  0.5233652524
H  -0.9307304406 -0.6987044919 -0.9102013053
H   0.5793020868  1.2388769341  0.5896677017
H   0.6812652697  0.9997216696 -1.0305980225
H   2.6983034625  0.7594678313  0.9580519203
H   3.3227280162  1.2141027687 -0.9119682561
H   3.5217198576  0.0045673017  0.4153411660
H   4.8442760696  3.0997938514 -0.2248890270
17
Image 145  Energy = -421.2281238387
C  -1.7898082079  0.3811356080  0.1588995309
O  -1.8562309513  1.5381460603  0.3133789794
C  -0.7436471994 -0.2662655445 -0.1084125529
C   0.5579848209  0.5091076671 -0.1368189300
C   1.8067694118 -0.1845009433  0.0497306797
O   2.1018110974 -1.1598226255  0.0447034908
C   2.6557290197  0.4139017896  0.2318819557
O   4.5690114179  2.2148726620 -0.1469787093
H  -2.6729645518 -0.2191559720  0.1889576717
H  -0.7924878745 -0.9746824565  0.5208819724
H  -0.9316512234 -0.6966051679 -0.9104417506
H   0.5791544177  1.2398591469  0.5876383076
H   0.6818349003  0.9990228273 -1.0316635987
H   2.6961799680  0.7564034906  0.9586356728
H   3.3249913355  1.2142012266 -0.9121782855
H   3.5187350178  0.0045827984  0.4182532207
H   4.8445886012  3.0997994336 -0.2264676545
17
Image 146  Energy = -421.2193186244
C  -1.7883680938  0.3803191492  0.1600106596
O  -1.8552332144  1.5368982957  0.3155658047
C  -0.7435637231 -0.2656743160 -0.1091653935
C   0.5580337348  0.5095078699 -0.1377725024
C   1.8063434802 -0.1833086307  0.0500577015
O   2.1028760252 -1.1572641848  0.0450081056
C   2.6530979651  0.4130641799  0.2334813546
O   4.5694886918  2.2149698639 -0.1480054391
H  -2.6710419394 -0.2206878466  0.1902747671
H  -0.7924344841 -0.9745251361  0.5183989111
H  -0.9325720211 -0.6945059644 -0.9106826067
H   0.5790066714  1.2408414660  0.5856089902
H   0.6824045600  0.9983239828 -1.0327292620
H   2.6940564991  0.7533380966  0.9592179662
H   3.3272546348  1.2142996652 -0.9123881514
H   3.5157500500  0.0045983852  0.4211654149
H   4.8449011633  3.0998051249 -0.2280463203
17
Image 147  Energy = -421.2106027467
C  -1.7869284610  0.3795029591  0.1611219272
O  -1.8542355514  1.5356507532  0.3177526715
C  -0.7434796946 -0.2650831178 -0.1099182421
C   0.5580826268  0.5099079319 -0.1387261007
C   1.8059170168 -0.1821156434  0.0503845660
O   2.1039413751 -1.1547066247  0.0453127131
C   2.6504673136  0.4122278524  0.2350822087
O   4.5699658873  2.2150668783 -0.1490321527
H  -2.6691194013 -0.2222197303  0.1915918589
H  -0.7923810620 -0.9743680843  0.5159161114
H  -0.9334928167 -0.6924069149 -0.9109238696
H   0.5788588485  1.2418238715  0.5835797804
H   0.6829742390  0.9976251481 -1.0337949925
H   2.6919330984  0.7502716112  0.9597986695
H   3.3295178807  1.2143980859 -0.9125978538
H   3.5127649496  0.0046140965  0.4240777024
H   4.8452137510  3.0998109278 -0.2296249976
17
Image 148  Energy = -421.2019887569
C  -1.7854893274  0.3786870527  0.1622333193
O  -1.8532379808  1.5344034490  0.3199395478
C  -0.7433951126 -0.2644919563 -0.1106710885
C   0.5581314902  0.5103078519 -0.1396797096
C   1.8054901968 -0.1809220189  0.0507113050
O   2.1050071513 -1.1521497528  0.0456173333
C   2.6478369675  0.4113926464  0.2366845357
O   4.5704429949  2.2151636973 -0.1500588359
H  -2.6671969652 -0.2237515992  0.1929089278
H  -0.7923276066 -0.9742113042  0.5134336106
H  -0.9344135966 -0.6903080490 -0.9111655385
H   0.5787109502  1.2428063462  0.5815507037
H   0.6835439291  0.9969263340 -1.0348607728
H   2.6898098015  0.7472040043  0.9603776775
H   3.3317810446  1.2144964893 -0.9128073921
H   3.5097797031  0.0046299653  0.4269900402
H   4.8455263599  3.0998168445 -0.2312036632
17
Image 149  Energy = -421.1934840652
C  -1.7840507082  0.3778714428  0.1633448249
O  -1.8522405176  1.5331563957  0.3221264084
C  -0.7433099720 -0.2639008358 -0.1114239253
C   0.5581803227  0.5107076280 -0.1406333164
C   1.8050631596 -0.1797277894  0.0510379462
O   2.1060733581 -1.1495934113  0.0459219830
C   2.6452068551  0.4105584268  0.2382883372
O   4.5709200064  2.2152603131 -0.1510854776
H  -2.6652746529 -0.2252834340  0.1942259586
H  -0.7922741163 -0.9740547994  0.5109514399
H  -0.9353343510 -0.6882093901 -0.9114076141
H   0.5785629774  1.2437888758  0.5795217792
H   0.6841136244  0.9962275495 -1.0359265888
H   2.6876866368  0.7441352563  0.9609549180
H   3.3340441039  1.2145948744 -0.9130167645
H   3.5067942879  0.0046460217  0.4299023905
H   4.8458389858  3.0998228765 -0.2327822988
17
Image 150  Energy = -421.1850934270
C  -1.7826126153  0.3770561398  0.1644564372
O  -1.8512431729  1.5319096015  0.3243132366
C  -0.7432242655 -0.2633097582 -0.1121767496
C   0.5582291284  0.5111072583 -0.1415869111
C   1.8046360006 -0.1785329798  0.0513645120
O   2.1071400009 -1.1470374870  0.0462266750
C   2.6425769319  0.4097250893  0.2398935954
O   4.5713969155  2.2153567181 -0.1521120700
H  -2.6633524789 -0.2268152212  0.1955429411
H  -0.7922205892 -0.9738985756  0.5084696226
H  -0.9362550740 -0.6861109531 -0.9116500984
H   0.5784149317  1.2447714498  0.5774930184
H   0.6846833213  0.9955288012 -1.0369924308
H   2.6855636244  0.7410653617  0.9615303599
H   3.3363070427  1.2146932389 -0.9132259689
H   3.5038086733  0.0046622921  0.4328147228
H   4.8461516251  3.0998290248 -0.2343608918
17
Image 151  Energy = -421.1768164941
C  -1.7811750563  0.3762411516  0.1655681537
O  -1.8502459525  1.5306630693  0.3265000249
C  -0.7431379838 -0.2627187228 -0.1129295642
C   0.5582779196  0.5115067406 -0.1425404873
C   1.8042087624 -0.1773376069  0.0516910178
O   2.1082070868 -1.1444819157  0.0465314174
C   2.6399471832  0.4088925662  0.2415002708
O   4.5718737182  2.2154529056 -0.1531386088
H  -2.6614304494 -0.2283469541  0.1968598709
H  -0.7921670229 -0.9737426404  0.5059881735
H  -0.9371757639 -0.6840127433 -0.9118929928
H   0.5782668147  1.2457540617  0.5754644242
H   0.6852530185  0.9948300927 -1.0380582938
H   2.6834407759  0.7379943304  0.9621040181
H   3.3385698530  1.2147915792 -0.9134350027
H   3.5008228213  0.0046787969  0.4357270147
H   4.8464642752  3.0998352897 -0.2359394362
17
Image 152  Energy = -421.1686488592
C  -1.7797380331  0.3754264835  0.1666799764
O  -1.8492488570  1.5294167958  0.3286867756
C  -0.7430511178 -0.2621277263 -0.1136823783
C   0.5583267177  0.5119060723 -0.1434940416
C   1.8037814282 -0.1761416765  0.0520174703
O   2.1092746269 -1.1419266894  0.0468362137
C   2.6373176238  0.4080608304  0.2431083019
O   4.5723504131  2.2155488699 -0.1541650929
H  -2.6595085616 -0.2298786331  0.1981767496
H  -0.7921134142 -0.9735870032  0.5035070973
H  -0.9380964236 -0.6819147550 -0.9121362985
H   0.5781186285  1.2467367092  0.5734359906
H   0.6858227176  0.9941314246 -1.0391241777
H   2.6813180938  0.7349221890  0.9626759561
H   3.3408325351  1.2148898898 -0.9136438629
H   3.4978366886  0.0046955494  0.4386392536
H   4.8467769339  3.0998416701 -0.2375179331
17
Image 153  Energy = -421.1605810466
C  -1.7783015417  0.3746121378  0.1677919121
O  -1.8482518814  1.5281707715  0.3308735014
C  -0.7429636590 -0.2615367622 -0.1144352070
C   0.5583755545  0.5123052507 -0.1444475738
C   1.8033539158 -0.1749451829  0.0523438663
O   2.1103426378 -1.1393718576  0.0471410628
C   2.6346883004  0.4072298994  0.2447176078
O   4.5728270016  2.2156446065 -0.1551915244
H  -2.6575868035 -0.2314102658  0.1994935849
H  -0.7920597587 -0.9734316755  0.5010263885
H  -0.9390170600 -0.6798169715 -0.9123800159
H   0.5779703751  1.2477193945  0.5714077022
H   0.6863924225  0.9934327940 -1.0401900878
H   2.6791955713  0.7318489798  0.9632462836
H   3.3430950975  1.2149881638 -0.9138525465
H   3.4948502280  0.0047125540  0.4415514369
H   4.8470895997  3.0998481641 -0.2390963909
17
Image 154  Energy = -421.1526007724
C  -1.7768655717  0.3737981141  0.1689039714
O  -1.8472550156  1.5269249805  0.3330602241
C  -0.7428756018 -0.2609458215 -0.1151880702
C   0.5584244730  0.5127042718 -0.1454010865
C   1.8029260762 -0.1737481046  0.0526701919
O   2.1114111447 -1.1368175293  0.0474459595
C   2.6320592900  0.4063998369  0.2463280940
O   4.5733034872  2.2157401120 -0.1562179082
H  -2.6556651542 -0.2329418667  0.2008103903
H  -0.7920060511 -0.9732766692  0.4985460314
H  -0.9399376840 -0.6777193660 -0.9126241448
H   0.5778220569  1.2487021234  0.5693795351
H   0.6869621390  0.9927341948 -1.0412560340
H   2.6770731926  0.7287747572  0.9638151494
H   3.3453575563  1.2150863930 -0.9140610500
H   3.4918633905  0.0047298054  0.4444635715
H   4.8474022720  3.0998547687 -0.2406748247
17
Image 155  Energy = -421.1446928021
C  -1.7754301066  0.3729844087  0.1700161689
O  -1.8462582444  1.5256794013  0.3352469730
C  -0.7427869434 -0.2603548932 -0.1159409907
C   0.5584735271  0.5131031309 -0.1463545841
C   1.8024976953 -0.1725504002  0.0529964224
O   2.1124801837 -1.1342638703  0.0477508960
C   2.6294306983  0.4055707518  0.2479396618
O   4.5737798755  2.2158353843 -0.1572442513
H  -2.6537435859 -0.2344734558  0.2021271842
H  -0.7919522851 -0.9731219952  0.4960660002
H  -0.9408583097 -0.6756219038 -0.9128686848
H   0.5776736761  1.2496849047  0.5673514586
H   0.6875318744  0.9920356182 -1.0423220303
H   2.6749509335  0.7256995827  0.9643827280
H   3.3476199335  1.2151845679 -0.9142693693
H   3.4888761267  0.0047472887  0.4473756726
H   4.8477149509  3.0998614799 -0.2422532552
17
Image 156  Energy = -421.1368393932
C  -1.7739951250  0.3721710152  0.1711285213
O  -1.8452615496  1.5244340085  0.3374337828
C  -0.7426976853 -0.2597639653 -0.1166939923
C   0.5585227808  0.5135018210 -0.1473080719
C   1.8020685021 -0.1713520026  0.0533225229
O   2.1135498054 -1.1317110986  0.0480558634
C   2.6268026555  0.4047427939  0.2495522206
O   4.5742561729  2.2159304220 -0.1582705625
H  -2.6518220657 -0.2360050574  0.2034439880
H  -0.7918984537 -0.9729676621  0.4935862610
H  -0.9417789534 -0.6735245449 -0.9131136345
H   0.5775252350  1.2506677494  0.5653234374
H   0.6881016364  0.9913370532 -1.0433880930
H   2.6728287638  0.7226235174  0.9649492017
H   3.3498822556  1.2152826785 -0.9144774989
H   3.4858883887  0.0047649795  0.4502877612
H   4.8480276365  3.0998682929 -0.2438317071
17
Image 157  Energy = -421.1290248579
C  -1.7725606021  0.3713579240  0.1722410465
O  -1.8442649107  1.5231887745  0.3396206900
C  -0.7426078334 -0.2591730261 -0.1174470968
C   0.5585723063  0.5139003327 -0.1482615553
C   1.8016381787 -0.1701528137  0.0536484487
O   2.1146200768 -1.1291594771  0.0483608533
C   2.6241753112  0.4039161461  0.2511657019
O   4.5747323859  2.2160252241 -0.1592968513
H  -2.6499005587 -0.2375366972  0.2047608247
H  -0.7918445501 -0.9728136741  0.4911067741
H  -0.9426996319 -0.6714272469 -0.9133589924
H   0.5773767350  1.2516506692  0.5632954344
H   0.6886714320  0.9906384876 -1.0444542393
H   2.6707066493  0.7195466138  0.9655147391
H   3.3521445502  1.2153807146 -0.9146854319
H   3.4829001316  0.0047828464  0.4531998616
H   4.8483403297  3.0998752025 -0.2454102071
17
Image 158  Energy = -421.1212332718
C  -1.7711265117  0.3705451230  0.1733537617
O  -1.8432683067  1.5219436720  0.3418077298
C  -0.7425173982 -0.2585820654 -0.1182003232
C   0.5586221816  0.5142986538 -0.1492150388
C   1.8012063759 -0.1689526995  0.0539741478
O   2.1156910833 -1.1266093039  0.0486658597
C   2.6215488262  0.4030910133  0.2527800717
O   4.5752085200  2.2161197897 -0.1603231277
H  -2.6479790308 -0.2390684005  0.2060777165
H  -0.7917905678 -0.9726600306  0.4886274969
H  -0.9436203613 -0.6693299687 -0.9136047554
H   0.5772281771  1.2526336751  0.5612674142
H   0.6892412668  0.9899399094 -1.0455204860
H   2.6685845550  0.7164689093  0.9660794758
H   3.3544068445  1.2154786667 -0.9148931597
H   3.4799113146  0.0048008530  0.4561119981
H   4.8486530315  3.0998822039 -0.2469887813
17
Image 159  Energy = -421.1134508591
C  -1.7696928286  0.3697325979  0.1744666825
O  -1.8422717177  1.5206986755  0.3439949336
C  -0.7424263946 -0.2579910757 -0.1189536857
C   0.5586724868  0.5146967698 -0.1501685251
C   1.8007727280 -0.1677514902  0.0542995615
O   2.1167629285 -1.1240608994  0.0489708804
C   2.6189233651  0.4022676100  0.2543953395
O   4.5756845785  2.2162141169 -0.1613494013
H  -2.6460574517 -0.2406001902  0.2073946833
H  -0.7917365010 -0.9725067250  0.4861483875
H  -0.9445411557 -0.6672326730 -0.9138509198
H   0.5770795615  1.2536167760  0.5592393454
H   0.6898111439  0.9892413072 -1.0465868474
H   2.6664624489  0.7133904209  0.9666434986
H   3.3566691622  1.2155765269 -0.9151006716
H   3.4769219031  0.0048189606  0.4590241921
H   4.8489657428  3.0998892925 -0.2485674534
17
Image 160  Energy = -421.1056694344
C  -1.7682595302  0.3689203330  0.1755798212
O  -1.8412751259  1.5194537635  0.3461823262
C  -0.7423348408 -0.2574000522 -0.1197071936
C   0.5587233012  0.5150946638 -0.1511220152
C   1.8003368686 -0.1665489841  0.0546246263
O   2.1178357321 -1.1215145919  0.0492759176
C   2.6162990862  0.4014461454  0.2560115621
O   4.5761605627  2.2163082034 -0.1623756810
H  -2.6441357964 -0.2421320849  0.2087117411
H  -0.7916823452 -0.9723537465  0.4836694073
H  -0.9454620263 -0.6651353285 -0.9140974803
H   0.5769308874  1.2545999785  0.5572112027
H   0.6903810638  0.9885426712 -1.0476533346
H   2.6643403043  0.7103111453  0.9672068387
H   3.3589315230  1.2156742892 -0.9153079561
H   3.4739318704  0.0048371306  0.4619364608
H   4.8492784648  3.0998964647 -0.2501462431
17
Image 161  Energy = -421.0978822488
C  -1.7668265981  0.3681083123  0.1766931868
O  -1.8402785160  1.5182089190  0.3483699252
C  -0.7422427575 -0.2568089936 -0.1204608512
C   0.5587746993  0.5154923190 -0.1520755080
C   1.7998984460 -0.1653449598  0.0549492753
O   2.1189096259 -1.1189706996  0.0495809782
C   2.6136761330  0.4006268109  0.2576288399
O   4.5766364709  2.2164020457 -0.1634019746
H  -2.6422140465 -0.2436640981  0.2100289016
H  -0.7916280969 -0.9722010798  0.4811905235
H  -0.9463829806 -0.6630379109 -0.9143444309
H   0.5767821532  1.2555832854  0.5551829682
H   0.6909510242  0.9878439934 -1.0487199548
H   2.6622181033  0.7072310618  0.9677694717
H   3.3611939415  1.2157719506 -0.9155150008
H   3.4709411996  0.0048553264  0.4648488153
H   4.8495911986  3.0999037179 -0.2517251652
17
Image 162  Energy = -421.0900868710
C  -1.7653940194  0.3672965204  0.1778067848
O  -1.8392818764  1.5169641304  0.3505577405
C  -0.7421501661 -0.2562179015 -0.1212146586
C   0.5588267483  0.5158897196 -0.1530290004
C   1.7994571390 -0.1641391943  0.0552734398
O   2.1199847460 -1.1164295097  0.0498860736
C   2.6110546233  0.3998097665  0.2592473076
O   4.5771122990  2.2164956393 -0.1644282882
H  -2.6402921907 -0.2451962380  0.2113461717
H  -0.7915737539 -0.9720487077  0.4787117106
H  -0.9473040227 -0.6609404038 -0.9145917651
H   0.5766333570  1.2565666962  0.5531546312
H   0.6915210204  0.9871452685 -1.0497867114
H   2.6600958383  0.7041501387  0.9683313262
H   3.3634564265  1.2158695107 -0.9157217934
H   3.4679498862  0.0048735143  0.4677612604
H   4.8499039453  3.0999110508 -0.2533042292
17
Image 163  Energy = -421.0822844991
C  -1.7639617868  0.3664849431  0.1789206172
O  -1.8382851994  1.5157193916  0.3527457742
C  -0.7420570876 -0.2556267795 -0.1219686120
C   0.5588795048  0.5162868531 -0.1539824878
C   1.7990126752 -0.1629314836  0.0555970521
O   2.1210612250 -1.1138912563  0.0501912189
C   2.6084346381  0.3989951306  0.2608671218
O   4.5775880407  2.2165889794 -0.1654546256
H  -2.6383702245 -0.2467285073  0.2126635535
H  -0.7915193151 -0.9718966122  0.4762329518
H  -0.9482251533 -0.6588427990 -0.9148394762
H   0.5764844964  1.2575502072  0.5511261881
H   0.6920910456  0.9864464933 -1.0508536040
H   2.6579735143  0.7010683412  0.9688922957
H   3.3657189813  1.2159669714 -0.9159283228
H   3.4649579394  0.0048916642  0.4706737944
H   4.8502167060  3.0999184633 -0.2548834392
17
Image 164  Energy = -421.0744784955
C  -1.7625298992  0.3656735688  0.1800346828
O  -1.8372884813  1.5144747019  0.3549340212
C  -0.7419635406 -0.2550356328 -0.1227227045
C   0.5589330135  0.5166837118 -0.1549359639
C   1.7985648497 -0.1617216660  0.0559200476
O   2.1221391810 -1.1113560983  0.0504964319
C   2.6058162111  0.3981829704  0.2624884446
O   4.5780636889  2.2166820607 -0.1664809875
H  -2.6364481500 -0.2482609032  0.2139810446
H  -0.7914647811 -0.9717447764  0.4737542390
H  -0.9491463698 -0.6567450963 -0.9150875584
H   0.5763355689  1.2585338114  0.5490976424
H   0.6926610919  0.9857476675 -1.0519206287
H   2.6558511491  0.6979856389  0.9694522527
H   3.3679816025  1.2160643361 -0.9161345790
H   3.4619653835  0.0049097497  0.4735864091
H   4.8505294818  3.0999259563 -0.2564627939
17
Image 165  Energy = -421.0666764654
C  -1.7610983621  0.3648623892  0.1811489777
O  -1.8362917231  1.5132300657  0.3571224699
C  -0.7418695391 -0.2544444669 -0.1234769267
C   0.5589873048  0.5170802941 -0.1558894210
C   1.7981135435 -0.1605096387  0.0562423692
O   2.1232187095 -1.1088241012  0.0508017329
C   2.6031993183  0.3973732954  0.2641114285
O   4.5785392360  2.2167748785 -0.1675073712
H  -2.6345259755 -0.2497934176  0.2152986383
H  -0.7914101532 -0.9715931856  0.4712755736
H  -0.9500676668 -0.6546473040 -0.9153360065
H   0.5761865723  1.2595174993  0.5470690032
H   0.6932311502  0.9850487934 -1.0529877780
H   2.6537287739  0.6949020117  0.9700110617
H   3.3702442791  1.2161616081 -0.9163405540
H   3.4589722591  0.0049277476  0.4764990895
H   4.8508422732  3.0999335316 -0.2580422868
17
Image 166  Energy = -421.0588875033
C  -1.7596671873  0.3640513997  0.1822634954
O  -1.8352949305  1.5119854927  0.3593111023
C  -0.7417750919 -0.2538532872 -0.1242312669
C   0.5590423946  0.5174766049 -0.1568428505
C   1.7976587384 -0.1592953669  0.0565639708
O   2.1242998758 -1.1062952282  0.0511071429
C   2.6005838723  0.3965660536  0.2657362020
O   4.5790146753  2.2168674290 -0.1685337699
H  -2.6326037150 -0.2513260373  0.2166163236
H  -0.7913554346 -0.9714418285  0.4687969661
H  -0.9509890370 -0.6525494387 -0.9155848173
H   0.5760375041  1.2605012594  0.5450402855
H   0.6938012107  0.9843498757 -1.0540550417
H   2.6516064317  0.6918174534  0.9705685903
H   3.3725069919  1.2162587891 -0.9165462412
H   3.4559786214  0.0049456381  0.4794118149
H   4.8511550802  3.0999411917 -0.2596219062
17
Image 167  Energy = -421.0511233589
C  -1.7582363942  0.3632406008  0.1833782277
O  -1.8342981137  1.5107409967  0.3614998944
C  -0.7416802001 -0.2532620988 -0.1249857114
C   0.5590982827  0.5178726550 -0.1577962427
C   1.7972005285 -0.1580788782  0.0568848232
O   2.1253827118 -1.1037693412  0.0514126832
C   2.5979697171  0.3957611284  0.2673628596
O   4.5794900015  2.2169597100 -0.1695601724
H  -2.6306813883 -0.2528587445  0.2179340862
H  -0.7913006295 -0.9712906981  0.4663184361
H  -0.9519104706 -0.6504515253 -0.9158339893
H   0.5758883625  1.2614850787  0.5430115092
H   0.6943712637  0.9836509216 -1.0551224065
H   2.6494841758  0.6887319728  0.9711247162
H   3.3747697123  1.2163558779 -0.9167516358
H   3.4529845386  0.0049634047  0.4823245583
H   4.8514679018  3.0999489399 -0.2612016358
17
Image 168  Energy = -421.0433985480
C  -1.7568060109  0.3624299992  0.1844931646
O  -1.8333012880  1.5094965962  0.3636888167
C  -0.7415848554 -0.2526709070 -0.1257402444
C   0.5591549523  0.5182684607 -0.1587495875
C   1.7967391323 -0.1568602482  0.0572049194
O   2.1264672151 -1.1012462114  0.0517183734
C   2.5953566259  0.3949583337  0.2689914546
O   4.5799652119  2.2170517211 -0.1705865640
H  -2.6287590208 -0.2543915164  0.2192519075
H  -0.7912457436 -0.9711397919  0.4638400127
H  -0.9528319563 -0.6483535971 -0.9160835240
H   0.5757391459  1.2624689433  0.5409826999
H   0.6949412989  0.9829519410 -1.0561898564
H   2.6473620680  0.6856455922  0.9716793291
H   3.3770324013  1.2164528696 -0.9169567347
H   3.4499900871  0.0049810361  0.4852372874
H   4.8517807363  3.0999567795 -0.2627814542
17
Image 169  Energy = -421.0357302699
C  -1.7553760774  0.3616196096  0.1856082944
O  -1.8323044739  1.5082523152  0.3658778322
C  -0.7414890377 -0.2520797191 -0.1264948480
C   0.5592123667  0.5186640426 -0.1597028744
C   1.7962749105 -0.1556395774  0.0575242844
O   2.1275533486 -1.0987255313  0.0520242295
C   2.5927442944  0.3941574022  0.2706219988
O   4.5804403055  2.2171434640 -0.1716129258
H  -2.6268366444 -0.2559243247  0.2205697646
H  -0.7911907843 -0.9709891136  0.4613617367
H  -0.9537534807 -0.6462556975 -0.9163334262
H   0.5755898535  1.2634528380  0.5389538898
H   0.6955113058  0.9822529472 -1.0572573723
H   2.6452401787  0.6825583450  0.9722323246
H   3.3792950088  1.2165497567 -0.9171615370
H   3.4469953459  0.0049985298  0.4881499631
H   4.8520935799  3.0999647138 -0.2643613341
17
Image 170  Energy = -421.0281404881
C  -1.7539466494  0.3608094573  0.1867236032
O  -1.8313076985  1.5070081845  0.3680668951
C  -0.7413927117 -0.2514885462 -0.1272495017
C   0.5592704647  0.5190594258 -0.1606560930
C   1.7958083921 -0.1544169675  0.0578429848
O   2.1286410402 -1.0962069257  0.0523302623
C   2.5901323302  0.3933579663  0.2722544651
O   4.5809152839  2.2172349432 -0.1726392354
H  -2.6249142999 -0.2574571344  0.2218876290
H  -0.7911357605 -0.9708386738  0.4588836634
H  -0.9546750277 -0.6441578820 -0.9165837054
H   0.5754404858  1.2644367469  0.5369251207
H   0.6960812728  0.9815539584 -1.0583249324
H   2.6431185879  0.6794702730  0.9727835923
H   3.3815574731  1.2166465301 -0.9173660441
H   3.4440003900  0.0050158984  0.4910625371
H   4.8524064270  3.0999727461 -0.2659412409
17
Image 171  Energy = -421.0206559915
C  -1.7525178008  0.3599995796  0.1878390739
O  -1.8303109963  1.5057642430  0.3702559487
C  -0.7412958257 -0.2508974052 -0.1280041816
C   0.5593291566  0.5194546396 -0.1616092329
C   1.7953402916 -0.1531925082  0.0581611374
O   2.1297301823 -1.0936899567  0.0526364761
C   2.5875202471  0.3925595436  0.2738887951
O   4.5813901498  2.2173261658 -0.1736654677
H  -2.6229920384 -0.2589899022  0.2232054651
H  -0.7910806836 -0.9706884910  0.4564058660
H  -0.9555965792 -0.6420602195 -0.9168343755
H   0.5752910452  1.2654206528  0.5348964462
H   0.6966511871  0.9808549997 -1.0593925115
H   2.6409973860  0.6763814241  0.9733330032
H   3.3838197219  1.2167431829 -0.9175702605
H   3.4410052870  0.0050331743  0.4939749493
H   4.8527192694  3.0999808782 -0.2675211310
17
Image 172  Energy = -421.0133061034
C  -1.7510896225  0.3591900264  0.1889546871
O  -1.8293144088  1.5045205372  0.3724449264
C  -0.7411983114 -0.2503063182 -0.1287588619
C   0.5593883235  0.5198497166 -0.1625622842
C   1.7948714915 -0.1519662802  0.0584789066
O   2.1308206343 -1.0911741331  0.0529428690
C   2.5849074795  0.3917615480  0.2755249059
O   4.5818649070  2.2174171408 -0.1746915955
H  -2.6210699201 -0.2605225777  0.2245232310
H  -0.7910255668 -0.9705385918  0.4539284336
H  -0.9565181151 -0.6399627915 -0.9170854552
H   0.5751415358  1.2664045376  0.5328679308
H   0.6972210351  0.9801561024 -1.0604600822
H   2.6388766718  0.6732918507  0.9738804081
H   3.3860816765  1.2168397128 -0.9177741948
H   3.4380100937  0.0050504101  0.4968871279
H   4.8530320959  3.0999891105 -0.2691009525
17
Image 173  Energy = -421.0061195798
C  -1.7496622152  0.3583808575  0.1900704226
O  -1.8283179815  1.5032771154  0.3746337570
C  -0.7411000899 -0.2497153098 -0.1295135169
C   0.5594478250  0.5202446903 -0.1635152376
C   1.7944029691 -0.1507383724  0.0587964876
O   2.1319122309 -1.0886589289  0.0532494353
C   2.5822934247  0.3909633379  0.2771626915
O   4.5823395594  2.2175078791 -0.1757175930
H  -2.6191480097 -0.2620551071  0.2258408821
H  -0.7909704243 -0.9703890084  0.4514514648
H  -0.9574396161 -0.6378656850 -0.9173369657
H   0.5749919643  1.2673883833  0.5308396450
H   0.6977908044  0.9794573012 -1.0615276161
H   2.6367565449  0.6702016104  0.9744256559
H   3.3883432603  1.2169361243 -0.9179778590
H   3.4350148598  0.0050676711  0.4997989965
H   4.8533448938  3.0999974415 -0.2706806498
17
Image 174  Energy = -420.9991219523
C  -1.7482356775  0.3575721379  0.1911862632
O  -1.8273217590  1.5020340197  0.3768223735
C  -0.7410010810 -0.2491244027 -0.1302681247
C   0.5595075158  0.5206395900 -0.1644680846
C   1.7939356770 -0.1495089091  0.0591140774
O   2.1330047956 -1.0861438125  0.0535561683
C   2.5796775077  0.3901642978  0.2788020148
O   4.5828141108  2.2175983916 -0.1767434378
H  -2.6172263671 -0.2635874404  0.2271583765
H  -0.7909152700 -0.9702397751  0.4489750541
H  -0.9583610662 -0.6357689812 -0.9175889289
H   0.5748423391  1.2683721744  0.5288116557
H   0.6983604873  0.9787586289 -1.0625950870
H   2.6346370948  0.6671107654  0.9749686325
H   3.3906044086  1.2170324279 -0.9181812690
H   3.4320196333  0.0050850192  0.5027104863
H   4.8536576507  3.1000058688 -0.2722601702
17
Image 175  Energy = -420.9923282911
C  -1.7468100907  0.3567639307  0.1923021979
O  -1.8263257790  1.5007912781  0.3790107227
C  -0.7409012163 -0.2485336127 -0.1310226706
C   0.5595672648  0.5210344337 -0.1654208165
C   1.7934704181 -0.1482780752  0.0594318437
O   2.1340981557 -1.0836282743  0.0538630639
C   2.5770592455  0.3893639239  0.2804426901
O   4.5832885635  2.2176886877 -0.1777691133
H  -2.6153050381 -0.2651195380  0.2284756811
H  -0.7908601151 -0.9700909235  0.4464992782
H  -0.9592824550 -0.6336727447 -0.9178413637
H   0.5746926707  1.2693559003  0.5267840174
H   0.6989300831  0.9780601103 -1.0636624740
H   2.6325183902  0.6640193830  0.9755093059
H   3.3928650762  1.2171286363 -0.9183844429
H   3.4290244697  0.0051024955  0.5056215527
H   4.8539703565  3.1000143896 -0.2738394724
17
Image 176  Energy = -420.9881161900
C  -1.7453855078  0.3559562912  0.1934182235
O  -1.8253300680  1.4995488984  0.3811987717
C  -0.7408004507 -0.2479429463 -0.1317771485
C   0.5596269708  0.5214292209 -0.1663734244
C   1.7930077495 -0.1470461315  0.0597499040
O   2.1351921539 -1.0811118442  0.0541701231
C   2.5744382966  0.3885618858  0.2820844634
O   4.5837629187  2.2177787743 -0.1787946083
H  -2.6133840472 -0.2666513764  0.2297927757
H  -0.7908049665 -0.9699424780  0.4440241849
H  -0.9602037784 -0.6315770142 -0.9180942838
H   0.5745429720  1.2703395579  0.5247567653
H   0.6994996004  0.9773617591 -1.0647297649
H   2.6304004724  0.6609275325  0.9760477629
H   3.3951252411  1.2172247598 -0.9185874002
H   3.4260294375  0.0051201086  0.5085321873
H   4.8542830057  3.1000230026 -0.2754185317
17
Image 177  Energy = -420.9817400534
C  -1.7439618106  0.3551489858  0.1945342670
O  -1.8243346318  1.4983070322  0.3833865246
C  -0.7406989014 -0.2473523418 -0.1325315176
C   0.5596865737  0.5218238987 -0.1673259029
C   1.7925480051 -0.1458135010  0.0600683503
O   2.1362866631 -1.0785940073  0.0544773781
C   2.5718145773  0.3877581195  0.2837267964
O   4.5842371947  2.2178688749 -0.1798199681
H  -2.6114634078 -0.2681829513  0.2311096481
H  -0.7907498382 -0.9697943946  0.4415497543
H  -0.9611250316 -0.6294817709 -0.9183476354
H   0.5743932568  1.2713231554  0.5227299144
H   0.7000690436  0.9766635846 -1.0657969396
H   2.6282833197  0.6578352476  0.9765843137
H   3.3973849287  1.2173208108 -0.9187900550
H   3.4230345711  0.0051378617  0.5114423881
H   4.8545954874  3.1000313964 -0.2769973162
17
Image 178  Energy = -420.9755498119
C  -1.7425391180  0.3543423141  0.1956504250
O  -1.8233394721  1.4970654870  0.3855739890
C  -0.7405964489 -0.2467618506 -0.1332858357
C   0.5597460323  0.5222184517 -0.1682782433
C   1.7920909991 -0.1445805860  0.0603871426
O   2.1373815682 -1.0760744517  0.0547848206
C   2.5691881313  0.3869526680  0.2853695046
O   4.5847113772  2.2179587728 -0.1808451363
H  -2.6095430780 -0.2697142789  0.2324263184
H  -0.7906947096 -0.9696467368  0.4390759948
H  -0.9620462245 -0.6273870160 -0.9186014828
H   0.5742435471  1.2723067086  0.5207034512
H   0.7006384532  0.9759655722 -1.0668640347
H   2.6261669380  0.6547426101  0.9771192273
H   3.3996441368  1.2174167725 -0.9189925357
H   3.4200399539  0.0051556824  0.5143522652
H   4.8549079142  3.1000398812 -0.2785758701
17
Image 179  Energy = -420.9695198684
C  -1.7411173880  0.3535362866  0.1967667268
O  -1.8223445706  1.4958242227  0.3877612086
C  -0.7404931273 -0.2461714652 -0.1340401259
C   0.5598053266  0.5226128220 -0.1692304483
C   1.7916363258 -0.1433479823  0.0607062219
O   2.1384767760 -1.0735527939  0.0550924725
C   2.5665593494  0.3861458202  0.2870121905
O   4.5851854796  2.2180484766 -0.1818701071
H  -2.6076230079 -0.2712453928  0.2337428142
H  -0.7906395666 -0.9694995033  0.4366028529
H  -0.9629673620 -0.6252926960 -0.9188558282
H   0.5740938681  1.2732902421  0.5186773413
H   0.7012078621  0.9752677079 -1.0679310812
H   2.6240512783  0.6516496450  0.9776529401
H   3.4019029004  1.2175126269 -0.9191948700
H   3.4170455653  0.0051735301  0.5172619196
H   4.8552202906  3.1000484539 -0.2801542276
17
Image 180  Energy = -420.9636334922
C  -1.7396965774  0.3527309119  0.1978832038
O  -1.8213499068  1.4945832015  0.3899482293
C  -0.7403889736 -0.2455811802 -0.1347944133
C   0.5598644180  0.5230069600 -0.1701825281
C   1.7911835170 -0.1421162973  0.0610255200
O   2.1395722013 -1.0710286484  0.0554003583
C   2.5639287583  0.3853378478  0.2886545293
O   4.5856595293  2.2181380061 -0.1828948671
H  -2.6057031466 -0.2727763280  0.2350591643
H  -0.7905843929 -0.9693526947  0.4341302751
H  -0.9638884436 -0.6231987551 -0.9191106755
H   0.5739442487  1.2742737751  0.5166515449
H   0.7017773009  0.9745699791 -1.0689981111
H   2.6219362995  0.6485563622  0.9781858430
H   3.4041612426  1.2176083485 -0.9193970895
H   3.4140513069  0.0051914054  0.5201714393
H   4.8555326183  3.1000571067 -0.2817324224
17
Image 181  Energy = -420.9578913799
C  -1.7382766749  0.3519262136  0.1989998755
O  -1.8203554753  1.4933424034  0.3921350666
C  -0.7402840072 -0.2449909909 -0.1355487130
C   0.5599232152  0.5234008457 -0.1711344931
C   1.7907323957 -0.1408859021  0.0613450170
O   2.1406677711 -1.0685016770  0.0557084987
C   2.5612967113  0.3845287155  0.2902963810
O   4.5861335631  2.2182273931 -0.1839193905
H  -2.6037834724 -0.2743070980  0.2363753791
H  -0.7905291767 -0.9692063232  0.4316582459
H  -0.9648094594 -0.6211051737 -0.9193660301
H   0.5737947157  1.2752573047  0.5146260433
H   0.7023467885  0.9738723838 -1.0700651394
H   2.6198220094  0.6454627864  0.9787181039
H   3.4064191500  1.2177039178 -0.9195992292
H   3.4110570549  0.0052093762  0.5230808476
H   4.8558448906  3.1000658253 -0.2833104630
17
Image 182  Energy = -420.9523059097
C  -1.7368577168  0.3511222367  0.2001167452
O  -1.8193612903  1.4921018258  0.3943216952
C  -0.7401782155 -0.2444008874 -0.1363030240
C   0.5599815781  0.5237944931 -0.1720863480
C   1.7902831654 -0.1396567045  0.0616647434
O   2.1417634646 -1.0659717698  0.0560169007
C   2.5586632072  0.3837180073  0.2919379095
O   4.5866076133  2.2183166695 -0.1849436477
H  -2.6018640031 -0.2758376883  0.2376914448
H  -0.7904739150 -0.9690604148  0.4291867969
H  -0.9657303942 -0.6190119821 -0.9196218986
H   0.5736452863  1.2762408075  0.5126008482
H   0.7029163288  0.9731749353 -1.0711321580
H   2.6177084641  0.6423689774  0.9792495702
H   3.4086765918  1.2177993444 -0.9198013322
H   3.4080627432  0.0052275618  0.5259900813
H   4.8561570922  3.1000745887 -0.2848883267
17
Image 183  Energy = -420.9468961405
C  -1.7354397711  0.3503190311  0.2012338092
O  -1.8183673731  1.4908614714  0.3965080717
C  -0.7400715534 -0.2438108455 -0.1370573328
C   0.5600393558  0.5241879340 -0.1730380915
C   1.7898361678 -0.1384281241  0.0619847263
O   2.1428593508 -1.0634392383  0.0563255476
C   2.5560279682  0.3829051338  0.2935796262
O   4.5870816889  2.2184058466 -0.1859676235
H  -2.5999447764 -0.2773680727  0.2390073369
H  -0.7904186120 -0.9689150017  0.4267159766
H  -0.9666512410 -0.6169192397 -0.9198782910
H   0.5734959603  1.2772242616  0.5105759849
H   0.7034859147  0.9724776601 -1.0721991520
H   2.6155957173  0.6392750322  0.9797798385
H   3.4109335775  1.2178946933 -0.9200034664
H   3.4050684223  0.0052460872  0.5288990174
H   4.8564692033  3.1000833712 -0.2864659780
17
Image 184  Energy = -420.9416689633
C  -1.7340229046  0.3495166285  0.2023510653
O  -1.8173737420  1.4896213417  0.3986941613
C  -0.7399639527 -0.2432208212 -0.1378116178
C   0.5600964156  0.5245811990 -0.1739897191
C   1.7893916872 -0.1371992263  0.0623049707
O   2.1439555729 -1.0609048415  0.0566343919
C   2.5533905528  0.3820895379  0.2952222275
O   4.5875557736  2.2184949091 -0.1869913246
H  -2.5980258280 -0.2788982306  0.2403230357
H  -0.7903632746 -0.9687701130  0.4242458166
H  -0.9675720106 -0.6148270079 -0.9201352206
H   0.5733467195  1.2782076655  0.5085514741
H   0.7040555339  0.9717805937 -1.0732661177
H   2.6134837781  0.6361810875  0.9803084639
H   3.4131901950  1.2179900884 -0.9202057412
H   3.4020742771  0.0052650395  0.5318075240
H   4.8567812068  3.1000921502 -0.2880433898
17
Image 185  Energy = -420.9366003427
C  -1.7326071444  0.3487150207  0.2034685275
O  -1.8163803951  1.4883814237  0.4008799724
C  -0.7398553464 -0.2426307608 -0.1385658635
C   0.5601526809  0.5249743021 -0.1749412344
C   1.7889497087 -0.1359689450  0.0626254476
O   2.1450523197 -1.0583697347  0.0569433612
C   2.5507505514  0.3812709953  0.2968662671
O   4.5880298543  2.2185838421 -0.1880147791
H  -2.5961071582 -0.2804281710  0.2416385464
H  -0.7903079070 -0.9686257556  0.4217762887
H  -0.9684927349 -0.6127353077 -0.9203926998
H   0.5731975343  1.2791910455  0.5065273046
H   0.7046251800  0.9710837574 -1.0743330771
H   2.6113725859  0.6330872916  0.9808352594
H   3.4154466054  1.2180856705 -0.9204082930
H   3.3990805696  0.0052844157  0.5347155408
H   4.8570930957  3.1001009107 -0.2896205686
17
Image 186  Energy = -420.9316249029
C  -1.7311924375  0.3479141427  0.2045862527
O  -1.8153872795  1.4871416610  0.4030656067
C  -0.7397457038 -0.2420406216 -0.1393200864
C   0.5602081966  0.5253672325 -0.1758926698
C   1.7885094110 -0.1347363761  0.0629460054
O   2.1461498479 -1.0558354601  0.0572523789
C   2.5481080275  0.3804501448  0.2985119273
O   4.5885039615  2.2186726677 -0.1890380430
H  -2.5941886829 -0.2819579680  0.2429539297
H  -0.7902525021 -0.9684818933  0.4193072466
H  -0.9694134695 -0.6106440529 -0.9206507337
H   0.5730483727  1.2801744582  0.5045033870
H   0.7051948691  0.9703871214 -1.0754000906
H   2.6092619841  0.6299937137  0.9813605454
H   3.4177030244  1.2181815258 -0.9206112329
H   3.3960875006  0.0053040622  0.5376231669
H   4.8574048797  3.1001096427 -0.2911975901
17
Image 187  Energy = -420.9266524926
C  -1.7297786557  0.3471138829  0.2057043403
O  -1.8143942875  1.4859019483  0.4052512554
C  -0.7396350460 -0.2414503847 -0.1400743418
C   0.5602631319  0.5257599649 -0.1768440944
C   1.7880690839 -0.1335009977  0.0632663319
O   2.1472484777 -1.0533037271  0.0575613858
C   2.5454637288  0.3796285680  0.3001590789
O   4.5889781703  2.2187614478 -0.1900611979
H  -2.5922702332 -0.2834877584  0.2442693011
H  -0.7901970404 -0.9683384495  0.4168384365
H  -0.9703342852 -0.6085530438 -0.9209093195
H   0.5728992070  1.2811579795  0.5024795516
H   0.7057646391  0.9696905998 -1.0764672468
H   2.6071517408  0.6269002828  0.9818850683
H   3.4199596816  1.2182776542 -0.9208146078
H   3.3930951044  0.0053236986  0.5405306537
H   4.8577165824  3.1001183349 -0.2927745952
17
Image 188  Energy = -420.9216131864
C  -1.7283656556  0.3463141234  0.2068228884
O  -1.8134013044  1.4846621800  0.4074371151
C  -0.7395234249 -0.2408600479 -0.1408286944
C   0.5603176775  0.5261524861 -0.1777955868
C   1.7876268999 -0.1322626978  0.0635860838
O   2.1483484846 -1.0507759006  0.0578703459
C   2.5428187154  0.3788080511  0.3018075167
O   4.5894525550  2.2188502455 -0.1910843239
H  -2.5903516307 -0.2850176814  0.2455847789
H  -0.7901415019 -0.9681953456  0.4143696069
H  -0.9712552453 -0.6064620625 -0.9211684496
H   0.5727500156  1.2821416753  0.5004556207
H   0.7063345251  0.9689940971 -1.0775346282
H   2.6050416252  0.6238068427  0.9824096006
H   3.4222167624  1.2183740095 -0.9210184168
H   3.3901032739  0.0053430487  0.5434382701
H   4.8580282282  3.1001269769 -0.2943517272
17
Image 189  Energy = -420.9164766405
C  -1.7269533362  0.3455147750  0.2079419500
O  -1.8124082574  1.4834222988  0.4096233076
C  -0.7394108963 -0.2402696157 -0.1415831846
C   0.5603719483  0.5265448123 -0.1787472046
C   1.7871817437 -0.1310216814  0.0639050509
O   2.1494499786 -1.0482526089  0.0581792375
C   2.5401738563  0.3779898076  0.3034571349
O   4.5899271483  2.2189390891 -0.1921074754
H  -2.5884327615 -0.2865478206  0.2469004356
H  -0.7900858769 -0.9680525357  0.4119006081
H  -0.9721763868 -0.6043709685 -0.9214281157
H   0.5726007835  1.2831255794  0.4984314816
H   0.7069045355  0.9682975573 -1.0786022821
H   2.6029314622  0.6207132432  0.9829345990
H   3.4244743709  1.2184705533 -0.9212226489
H   3.3871118549  0.0053619507  0.5463461799
H   4.8583398329  3.1001355646 -0.2959290735
17
Image 190  Energy = -420.9112480484
C  -1.7255416542  0.3447157867  0.2090615261
O  -1.8114151265  1.4821823053  0.4118098642
C  -0.7392975060 -0.2396790954 -0.1423378196
C   0.5604259704  0.5269369831 -0.1796989725
C   1.7867334240 -0.1297783344  0.0642232054
O   2.1505528784 -1.0457337513  0.0584880433
C   2.5375296050  0.3771742691  0.3051079457
O   4.5904019352  2.2190279677 -0.1931306772
H  -2.5865135920 -0.2880781930  0.2482162876
H  -0.7900301680 -0.9679100121  0.4094314080
H  -0.9730977195 -0.6022797214 -0.9216883101
H   0.5724515025  1.2841096933  0.4964071038
H   0.7074746504  0.9676009738 -1.0796702196
H   2.6008211347  0.6176193863  0.9834601425
H   3.4267325285  1.2185672744 -0.9214272973
H   3.3841207342  0.0053803657  0.5492544241
H   4.8586514028  3.1001441028 -0.2975066540
17
Image 191  Energy = -420.9059504796
C  -1.7241306115  0.3439171408  0.2101815819
O  -1.8104219291  1.4809422380  0.4139967505
C  -0.7391832847 -0.2390884984 -0.1430925826
C   0.5604797105  0.5273290459 -0.1806508872
C   1.7862824426 -0.1285330683  0.0645406568
O   2.1516569684 -1.0432187650  0.0587967432
C   2.5348859961  0.3763612540  0.3067600122
O   4.5908768674  2.2191168450 -0.1941539346
H  -2.5845941463 -0.2896087679  0.2495323111
H  -0.7899743859 -0.9677677911  0.4069620547
H  -0.9740192346 -0.6001883540 -0.9219490244
H   0.5723021699  1.2850939982  0.4943825205
H   0.7080448347  0.9669043733 -1.0807384282
H   2.5987105667  0.6145252373  0.9839860529
H   3.4289911967  1.2186641793 -0.9216323547
H   3.3811299000  0.0053983298  0.5521629692
H   4.8589629390  3.1001526037 -0.2990844410
17
Image 192  Energy = -420.9006075163
C  -1.7227202304  0.3431188386  0.2113020733
O  -1.8094286948  1.4797021444  0.4161839092
C  -0.7390682470 -0.2384978426 -0.1438474487
C   0.5605331151  0.5277210428 -0.1816029308
C   1.7858295495 -0.1272862155  0.0648575568
O   2.1527619946 -1.0407069703  0.0591053111
C   2.5322428125  0.3755503076  0.3084133864
O   4.5913518839  2.2192056773 -0.1951772485
H  -2.5826744690 -0.2911394991  0.2508484685
H  -0.7899185424 -0.9676258929  0.4044926196
H  -0.9749409176 -0.5980969246 -0.9222102483
H   0.5721527856  1.2860784727  0.4923577932
H   0.7086150554  0.9662077911 -1.0818068913
H   2.5965997039  0.6114308116  0.9845120775
H   3.4312503128  1.2187612776 -0.9218378068
H   3.3781394454  0.0054158978  0.5550717700
H   4.8592744424  3.1001610840 -0.3006623910
17
Image 193  Energy = -420.8952189526
C  -1.7213105241  0.3423208820  0.2124229748
O  -1.8084354370  1.4784620506  0.4183713082
C  -0.7389523952 -0.2379071554 -0.1446024047
C   0.5605861579  0.5281130028 -0.1825550912
C   1.7853751759 -0.1260380246  0.0651739690
O   2.1538677749 -1.0381979051  0.0594137182
C   2.5295999173  0.3747411526  0.3100681110
O   4.5918269348  2.2192944323 -0.1962006314
H  -2.5807545804 -0.2926703599  0.2521647386
H  -0.7898626443 -0.9674843234  0.4020231372
H  -0.9758627611 -0.5960054611 -0.9224719688
H   0.5720033497  1.2870631096  0.4903329658
H   0.7091852970  0.9655112463 -1.0828756062
H   2.5944884879  0.6083361347  0.9850380635
H   3.4335098329  1.2188585672 -0.9220436268
H   3.3751494951  0.0054330928  0.5579808234
H   4.8595859184  3.1001695591 -0.3022404802
17
Image 194  Energy = -420.8897558727
C  -1.7199014771  0.3415232590  0.2135443003
O  -1.8074421322  1.4772219392  0.4205589763
C  -0.7388357260 -0.2373164730 -0.1453574641
C   0.5606388754  0.5285049430 -0.1835073793
C   1.7849189897 -0.1247886967  0.0654897604
O   2.1549742911 -1.0356915495  0.0597219417
C   2.5269575721  0.3739340482  0.3117242793
O   4.5923020029  2.2193831034 -0.1972241187
H  -2.5788344455 -0.2942013694  0.2534811377
H  -0.7898066891 -0.9673430652  0.3995535631
H  -0.9767847724 -0.5939139209 -0.9227341703
H   0.5718538624  1.2880479253  0.4883080266
H   0.7097555687  0.9648147257 -1.0839445947
H   2.5923768383  0.6052411998  0.9855640525
H   3.4357697601  1.2189560234 -0.9222497694
H   3.3721601037  0.0054498715  0.5608901893
H   4.8598973778  3.1001780369 -0.3038187304
17
Image 195  Energy = -420.8841684399
C  -1.7184930449  0.3407259415  0.2146661056
O  -1.8064487190  1.4759817464  0.4227470076
C  -0.7387182348 -0.2367258354 -0.1461126704
C   0.5606913747  0.5288968732 -0.1844598352
C   1.7844598003 -0.1235384055  0.0658045691
O   2.1560817248 -1.0331883595  0.0600299742
C   2.5243165429  0.3731298677  0.3133820924
O   4.5927771140  2.2194717173 -0.1982477678
H  -2.5769139699 -0.2957325956  0.2547977227
H  -0.7897506667 -0.9672020817  0.3970837729
H  -0.9777069742 -0.5918221856 -0.9229968345
H   0.5717043254  1.2890329568  0.4862828987
H   0.7103259021  0.9641181825 -1.0850138992
H   2.5902646560  0.6021459521  0.9860902688
H   3.4380301426  1.2190535941 -0.9224561688
H   3.3691711931  0.0054661186  0.5637999757
H   4.8602088334  3.1001865138 -0.3053972118
17
Image 196  Energy = -420.8783987348
C  -1.7170851720  0.3399288959  0.2157884720
O  -1.8054551168  1.4747413797  0.4249355332
C  -0.7385999138 -0.2361352753 -0.1468680872
C   0.5607438082  0.5292888043 -0.1854125168
C   1.7839958887 -0.1222872961  0.0661178780
O   2.1571904078 -1.0306890834  0.0603378252
C   2.5216779018  0.3723298404  0.3150418401
O   4.5932523307  2.2195603289 -0.1992716440
H  -2.5749930262 -0.2972641350  0.2561145736
H  -0.7896945645 -0.9670613324  0.3946135993
H  -0.9786293974 -0.5897300954 -0.9232599425
H   0.5715547447  1.2900182485  0.4842574610
H   0.7108963419  0.9634215502 -1.0860835676
H   2.5881518517  0.5990503152  0.9866170354
H   3.4402910422  1.2191512042 -0.9226627419
H   3.3661825765  0.0054816760  0.5667103042
H   4.8605202964  3.1001949751 -0.3069760219
17
Image 197  Energy = -420.8724075925
C  -1.7156778192  0.3391321009  0.2169114793
O  -1.8044612577  1.4735007479  0.4271246732
C  -0.7384807467 -0.2355448067 -0.1476237795
C   0.5607963262  0.5296807543 -0.1863654775
C   1.7835256418 -0.1210354957  0.0664291712
O   2.1583006890 -1.0281944202  0.0606455127
C   2.5190426124  0.3715350764  0.3167037952
O   4.5937277270  2.2196490024 -0.2002957996
H  -2.5730714986 -0.2987960774  0.2574317639
H  -0.7896383732 -0.9669207916  0.3921428944
H  -0.9795520718 -0.5876375057 -0.9235234789
H   0.5714051327  1.2910038361  0.4822315933
H   0.7114669348  0.9627247657 -1.0871536344
H   2.5860383835  0.5959542438  0.9871446647
H   3.4425524919  1.2192487693 -0.9228694011
H   3.3631940546  0.0054963988  0.5696212736
H   4.8608317735  3.1002034022 -0.3085552502
17
Image 198  Energy = -420.8661836666
C  -1.7142709847  0.3383355632  0.2180351810
O  -1.8034671125  1.4722597901  0.4293144940
C  -0.7383607072 -0.2349544201 -0.1483797963
C   0.5608490330  0.5300727503 -0.1873187441
C   1.7830481539 -0.1197831713  0.0667380975
O   2.1594127796 -1.0257046668  0.0609530524
C   2.5164111502  0.3707461488  0.3183680797
O   4.5942033603  2.2197377895 -0.2013202558
H  -2.5711493222 -0.3003284741  0.2587493347
H  -0.7895820894 -0.9667804616  0.3896715831
H  -0.9804750165 -0.5855443385 -0.9237874355
H   0.5712555074  1.2919897355  0.4802052211
H   0.7120377194  0.9620277906 -1.0882241085
H   2.5839242783  0.5928577634  0.9876733777
H   3.4448144674  1.2193462134 -0.9230760706
H   3.3602055157  0.0055102059  0.5725329375
H   4.8611432673  3.1002117821 -0.3101349478
17
Image 199  Energy = -420.8597458606
C  -1.7128647090  0.3375393212  0.2191595958
O  -1.8024726984  1.4710184878  0.4315049921
C  -0.7382397626 -0.2343640861 -0.1491361598
C   0.5609019676  0.5304648241 -0.1882723092
C   1.7825634952 -0.1185306041  0.0670445613
O   2.1605266543 -1.0232195332  0.0612604505
C   2.5137833717  0.3699629534  0.3200345909
O   4.5946792530  2.2198267132 -0.2023449984
H  -2.5692264972 -0.3018613252  0.2600672840
H  -0.7895257136 -0.9666403739  0.3871996812
H  -0.9813982350 -0.5834506019 -0.9240518141
H   0.5711058902  1.2929759419  0.4781783377
H   0.7126087210  0.9613306198 -1.0892949743
H   2.5818096254  0.5897609656  0.9882032731
H   3.4470768879  1.2194434826 -0.9232826977
H   3.3572169720  0.0055231016  0.5754453018
H   4.8614547776  3.1002201138 -0.3117151146
17
Image 200  Energy = -420.8531313306
C  -1.7114590690  0.3367434413  0.2202847117
O  -1.8014780694  1.4697768602  0.4336960998
C  -0.7381178783 -0.2337737659 -0.1498928649
C   0.5609551049  0.5308570042 -0.1892261372
C   1.7820726326 -0.1172782095  0.0673487290
O   2.1616420435 -1.0207381813  0.0615677027
C   2.5111586152  0.3691848206  0.3217030116
O   4.5951553854  2.2199157615 -0.2033699867
H  -2.5673030809 -0.3033945852  0.2613855712
H  -0.7894692458 -0.9665005801  0.3847272830
H  -0.9823217151 -0.5813563815 -0.9243166261
H   0.5709563001  1.2939624366  0.4761510048
H   0.7131799506  0.9606332789 -1.0903662024
H   2.5796945535  0.5866639704  0.9887343319
H   3.4493396411  1.2195405550 -0.9234892559
H   3.3542285287  0.0055351658  0.5783583332
H   4.8617663028  3.1002284096 -0.3132957057
17
Image 201  Energy = -420.8463906099
C  -1.7100541659  0.3359480069  0.2214104976
O  -1.8004832971  1.4685349510  0.4358877068
C  -0.7379950165 -0.2331834206 -0.1506498826
C   0.5610083741  0.5312493079 -0.1901801775
C   1.7815771117 -0.1160264878  0.0676509683
O   2.1627585053 -1.0182594350  0.0618747984
C   2.5085359299  0.3684107687  0.3233728796
O   4.5956316999  2.2200048893 -0.2043951688
H  -2.5653791672 -0.3049281785  0.2627041299
H  -0.7894126822 -0.9663611388  0.3822545295
H  -0.9832454309 -0.5792618142 -0.9245818891
H   0.5708067480  1.2949491966  0.4741233365
H   0.7137514055  0.9599358137 -1.0914377615
H   2.5775792069  0.5835668806  0.9892664472
H   3.4516026174  1.2196374440 -0.9236957417
H   3.3512403201  0.0055465245  0.5812719732
H   4.8620778410  3.1002366924 -0.3148766456
17
Image 202  Energy = -420.8395713864
C  -1.7086501109  0.3351531065  0.2225369187
O  -1.7994884516  1.4672928106  0.4380796873
C  -0.7378711332 -0.2325930186 -0.1514071685
C   0.5610616914  0.5316417364 -0.1911343777
C   1.7810786243 -0.1147759537  0.0679517408
O   2.1638755409 -1.0157820532  0.0621817274
C   2.5059143355  0.3676398042  0.3250436763
O   4.5961081139  2.2200940285 -0.2054204977
H  -2.5634548620 -0.3064620207  0.2640228847
H  -0.7893560129 -0.9662221031  0.3797815712
H  -0.9841693474 -0.5771670546 -0.9248476238
H   0.5706572324  1.2959362029  0.4720954709
H   0.7143230721  0.9592382776 -1.0925096282
H   2.5754637296  0.5804697459  0.9897994740
H   3.4538657373  1.2197341942 -0.9239021661
H   3.3482524507  0.0055573085  0.5841861603
H   4.8623893898  3.1002449891 -0.3164578495
17
Image 203  Energy = -420.8327143692
C  -1.7072470138  0.3343588245  0.2236639476
O  -1.7984935865  1.4660504817  0.4402719247
C  -0.7377461757 -0.2320025375 -0.1521646739
C   0.5611149901  0.5320342759 -0.1920886932
C   1.7805786493 -0.1135270715  0.0682514974
O   2.1649926992 -1.0133049532  0.0624884864
C   2.5032930028  0.3668711489  0.3267148911
O   4.5965845370  2.2201831027 -0.2064459414
H  -2.5615302614 -0.3079960351  0.2653417664
H  -0.7892992230 -0.9660835144  0.3773085401
H  -0.9850934260 -0.5750722457 -0.9251138514
H   0.5705077394  1.2969234437  0.4700675413
H   0.7148949290  0.9585407193 -1.0935817900
H   2.5733482628  0.5773725512  0.9903332839
H   3.4561289624  1.2198308687 -0.9241085436
H   3.3452649680  0.0055676156  0.5871008542
H   4.8627009465  3.1002533256 -0.3180392393
17
Image 204  Energy = -420.8258526492
C  -1.7058449800  0.3335652388  0.2247915684
O  -1.7974987379  1.4648079932  0.4424643196
C  -0.7376200819 -0.2314119617 -0.1529223534
C   0.5611682220  0.5324269055 -0.1930430889
C   1.7800783436 -0.1122801814  0.0685506318
O   2.1661096369 -1.0108273209  0.0627950804
C   2.5006712763  0.3661042768  0.3283860440
O   4.5970608832  2.2202720392 -0.2074714828
H  -2.5596054453 -0.3095301588  0.2666607168
H  -0.7892422960 -0.9659454033  0.3748355425
H  -0.9860176292 -0.5729775072 -0.9253805926
H   0.5703582462  1.2979109100  0.4680396600
H   0.7154669502  0.9578431769 -1.0946542401
H   2.5712329508  0.5742752352  0.9908677907
H   3.4583922866  1.2199275385 -0.9243148873
H   3.3422778655  0.0055774949  0.5900160421
H   4.8630125090  3.1002617249 -0.3196207510
17
Image 205  Energy = -420.8190137929
C  -1.7044441086  0.3327724206  0.2259197730
O  -1.7965039288  1.4635653630  0.4446567901
C  -0.7374927839 -0.2308212795 -0.1536801709
C   0.5612213446  0.5328196065 -0.1939975350
C   1.7795786043 -0.1110354291  0.0688494830
O   2.1672261309 -1.0083486514  0.0631015174
C   2.4980486107  0.3653388472  0.3300566929
O   4.5975370808  2.2203607775 -0.2084971141
H  -2.5576804787 -0.3110643406  0.2679796886
H  -0.7891852169 -0.9658077944  0.3723626655
H  -0.9869419249 -0.5708829350 -0.9256478668
H   0.5702087271  1.2988985890  0.4660119118
H   0.7160391072  0.9571456770 -1.0957269694
H   2.5691179367  0.5711777187  0.9914029491
H   3.4606557222  1.2200242742 -0.9245212123
H   3.3392911012  0.0055869496  0.5929317305
H   4.8633240761  3.1002702074 -0.3212023331
17
Image 206  Energy = -420.8122176653
C  -1.7030444854  0.3319804298  0.2270485590
O  -1.7955091740  1.4623226007  0.4468492731
C  -0.7373642163 -0.2302304822 -0.1544381032
C   0.5612743157  0.5332123675 -0.1949520049
C   1.7790801195 -0.1097927369  0.0691483422
O   2.1683420682 -1.0058687782  0.0634077991
C   2.4954245433  0.3645746783  0.3317264591
O   4.5980130785  2.2204492760 -0.2095228329
H  -2.5557554111 -0.3125985413  0.2692986462
H  -0.7891279738 -0.9656707074  0.3698899767
H  -0.9878662897 -0.5687885990 -0.9259156908
H   0.5700591598  1.2998864615  0.4639843482
H   0.7166113697  0.9564482362 -1.0967999631
H   2.5670033432  0.5680799164  0.9919387371
H   3.4629192887  1.2201211403 -0.9247275397
H   3.3363046147  0.0055959471  0.5958479429
H   4.8636356488  3.1002787917 -0.3227839486
17
Image 207  Energy = -420.8054778777
C  -1.7016461750  0.3311893096  0.2281779262
O  -1.7945144823  1.4610797118  0.4490417249
C  -0.7372343241 -0.2296395659 -0.1551961407
C   0.5613270903  0.5336051839 -0.1959064736
C   1.7785834078 -0.1085518322  0.0694474613
O   2.1694574192 -1.0033878420  0.0637139145
C   2.4927986890  0.3638117349  0.3333950539
O   4.5984888486  2.2205375144 -0.2105486391
H  -2.5538302772 -0.3141327327  0.2706175649
H  -0.7890705577 -0.9655341555  0.3674175252
H  -0.9887907106 -0.5666945427 -0.9261840758
H   0.5699095305  1.3008745010  0.4619569875
H   0.7171837072  0.9557508648 -1.0978732002
H   2.5648892533  0.5649817348  0.9924751265
H   3.4651830053  1.2202181897 -0.9249338984
H   3.3333183448  0.0056044307  0.5987647164
H   4.8639472309  3.1002874960 -0.3243655732
17
Image 208  Energy = -420.7988113667
C  -1.7002492189  0.3303990836  0.2293078683
O  -1.7935198626  1.4598367072  0.4512341114
C  -0.7371030680 -0.2290485352 -0.1559542822
C   0.5613796108  0.5339980548 -0.1968609174
C   1.7780889179 -0.1073123092  0.0697470812
O   2.1705722005 -1.0009061586  0.0640198454
C   2.4901706976  0.3630500407  0.3350622714
O   4.5989643823  2.2206254903 -0.2115745302
H  -2.5519051056 -0.3156668904  0.2719364251
H  -0.7890129632 -0.9653981435  0.3649453513
H  -0.9897151810 -0.5646007934 -0.9264530243
H   0.5697598349  1.3018626728  0.4599298286
H   0.7177560872  0.9550535723 -1.0989466520
H   2.5627757087  0.5618830753  0.9930120451
H   3.4674468816  1.2203154630 -0.9251403223
H   3.3303322501  0.0056123331  0.6016820891
H   4.8642588277  3.1002963377 -0.3259471883
17
Image 209  Energy = -420.7922373816
C  -1.6988536379  0.3296097569  0.2304383651
O  -1.7925253293  1.4585936119  0.4534263958
C  -0.7369704269 -0.2284574040 -0.1567125273
C   0.5614317939  0.5343909791 -0.1978153136
C   1.7775971415 -0.1060737006  0.0700474640
O   2.1716864410 -0.9984240451  0.0643255779
C   2.4875401999  0.3622895520  0.3367279536
O   4.5994396819  2.2207132134 -0.2126004962
H  -2.5499799300 -0.3172009844  0.2732552036
H  -0.7889551889 -0.9652626681  0.3624734997
H  -0.9906396945 -0.5625073758 -0.9267225268
H   0.5696100766  1.3028509319  0.4579028694
H   0.7183284760  0.9543563727 -1.1000202806
H   2.5606627225  0.5587838456  0.9935493533
H   3.4697109098  1.2204129900 -0.9253468456
H   3.3273463196  0.0056195906  0.6046000781
H   4.8645704449  3.1003053345 -0.3275287700
17
Image 210  Energy = -420.7857786196
C  -1.6974594342  0.3288213179  0.2315693797
O  -1.7915309035  1.4573504676  0.4556185332
C  -0.7368363997 -0.2278661947 -0.1574708729
C   0.5614835264  0.5347839537 -0.1987696441
C   1.7771086421 -0.1048355404  0.0703488975
O   2.1728001693 -0.9959417153  0.0646311134
C   2.4849068060  0.3615301009  0.3383919601
O   4.5999147553  2.2208007006 -0.2136265205
H  -2.5480547930 -0.3187349767  0.2745738716
H  -0.7888972389 -0.9651277187  0.3600020225
H  -0.9915642414 -0.5604143188 -0.9269925604
H   0.5694602638  1.3038392264  0.4558761168
H   0.7189008392  0.9536592855 -1.1010940408
H   2.5585502957  0.5556839703  0.9940868583
H   3.4719750642  1.2205107916 -0.9255534950
H   3.3243605623  0.0056261490  0.6075186670
H   4.8648820864  3.1003145017 -0.3291102862
17
Image 211  Energy = -420.7794561529
C  -1.6960665905  0.3280337388  0.2327008653
O  -1.7905366098  1.4561073262  0.4578104779
C  -0.7367010035 -0.2272749322 -0.1582293139
C   0.5615346751  0.5351769731 -0.1997239005
C   1.7766239862 -0.1035974095  0.0706516652
O   2.1739134157 -0.9934592806  0.0649364694
C   2.4822701622  0.3607714386  0.3400541630
O   4.6003896126  2.2208879719 -0.2146525847
H  -2.5461297403 -0.3202688268  0.2758923979
H  -0.7888391223 -0.9649932794  0.3575309706
H  -0.9924888084 -0.5583216516 -0.9272630899
H   0.5693104049  1.3048275054  0.4538495845
H   0.7194731456  0.9529623330 -1.1021678860
H   2.5564384290  0.5525833980  0.9946243585
H   3.4742393105  1.2206088814 -0.9257602839
H   3.3213749797  0.0056319642  0.6104378073
H   4.8651937533  3.1003238501 -0.3306917005
17
Image 212  Energy = -420.7732855268
C  -1.6946750709  0.3272469776  0.2338327747
O  -1.7895424707  1.4548642384  0.4600021939
C  -0.7365642687 -0.2266836376 -0.1589878473
C   0.5615851033  0.5355700323 -0.2006780878
C   1.7761436440 -0.1023589667  0.0709560009
O   2.1750262185 -0.9909768101  0.0652416730
C   2.4796300193  0.3600133344  0.3417144672
O   4.6008642647  2.2209750473 -0.2156786764
H  -2.5442048098 -0.3218025004  0.2772107564
H  -0.7887808533 -0.9648593313  0.3550603796
H  -0.9934133817 -0.5562293945 -0.9275340711
H   0.5691605049  1.3058157270  0.4518232835
H   0.7200453705  0.9522655352 -1.1032417745
H   2.5543271303  0.5494821012  0.9951616882
H   3.4765036175  1.2207072662 -0.9259672079
H   3.3183895384  0.0056369981  0.6133574293
H   4.8655054438  3.1003333836 -0.3322729813
17
Image 213  Energy = -420.7672718241
C  -1.6932848213  0.3264609814  0.2349650691
O  -1.7885485031  1.4536212448  0.4621936644
C  -0.7364262311 -0.2260923241 -0.1597464765
C   0.5616346865  0.5359631307 -0.2016322248
C   1.7756679204 -0.1011199727  0.0712620526
O   2.1761386187 -0.9884943917  0.0655467509
C   2.4769862768  0.3592556675  0.3433728477
O   4.6013387228  2.2210619445 -0.2167047936
H  -2.5422800237 -0.3233359769  0.2785289319
H  -0.7887224493 -0.9647258546  0.3525902610
H  -0.9943379513 -0.5541375521 -0.9278054563
H   0.5690105643  1.3068038634  0.4497972120
H   0.7206174987  0.9515689052 -1.1043156731
H   2.5522164115  0.5463800724  0.9956987366
H   3.4787679656  1.2208059473 -0.9261742467
H   3.3154041601  0.0056412164  0.6162774539
H   4.8658171543  3.1003430991 -0.3338541090
17
Image 214  Energy = -420.7614105317
C  -1.6918957719  0.3256756891  0.2360977229
O  -1.7875547157  1.4523783705  0.4643848956
C  -0.7362869248 -0.2255009971 -0.1605052152
C   0.5616833229  0.5363562794 -0.2025863420
C   1.7751969245 -0.0998803018  0.0715698642
O   2.1772506552 -0.9860121726  0.0658517224
C   2.4743390007  0.3584984841  0.3450293867
O   4.6018130003  2.2211486790 -0.2177309445
H  -2.5403553843 -0.3248692529  0.2798469238
H  -0.7886639295 -0.9645928309  0.3501205983
H  -0.9952625145 -0.5520461073 -0.9280771972
H   0.5688605815  1.3077919016  0.4477713492
H   0.7211895254  0.9508724471 -1.1053895564
H   2.5501062764  0.5432773174  0.9962354413
H   3.4810323487  1.2209049190 -0.9263813679
H   3.3124187242  0.0056445876  0.6191978001
H   4.8661288808  3.1003529884 -0.3354350810
17
Image 215  Energy = -420.7556867194
C  -1.6905078402  0.3248910342  0.2372307246
O  -1.7865611088  1.4511356245  0.4665759167
C  -0.7361463791 -0.2249096573 -0.1612640888
C   0.5617309372  0.5367495072 -0.2035404770
C   1.7747305770 -0.0986399454  0.0718793769
O   2.1783623591 -0.9835303705  0.0661565961
C   2.4716884197  0.3577420132  0.3466842948
O   4.6022871154  2.2212352667 -0.2187571453
H  -2.5384308742 -0.3264023427  0.2811647459
H  -0.7886053133 -0.9644602427  0.3476513493
H  -0.9961870791 -0.5499550205 -0.9283492477
H   0.5687105570  1.3087798410  0.4457456524
H   0.7217614567  0.9501761564 -1.1064634062
H   2.5479967022  0.5401738456  0.9967717658
H   3.4832967697  1.2210041670 -0.9265885344
H   3.3094330804  0.0056470836  0.6221183886
H   4.8664406203  3.1003630403 -0.3370159116
17
Image 216  Energy = -420.7500803338
C  -1.6891209347  0.3241069451  0.2383640730
O  -1.7855676749  1.4498930033  0.4687667743
C  -0.7360046191 -0.2243183043 -0.1620231323
C   0.5617774752  0.5371428626 -0.2044946711
C   1.7742686568 -0.0973990043  0.0721904527
O   2.1794737521 -0.9810492474  0.0664613736
C   2.4690348933  0.3569866367  0.3483378948
O   4.6027610942  2.2213217263 -0.2197834146
H  -2.5365064615 -0.3279352742  0.2824824239
H  -0.7885466205 -0.9643280732  0.3451824528
H  -0.9971116625 -0.5478642334 -0.9286215641
H   0.5685604955  1.3097676906  0.4437200626
H   0.7223333072  0.9494800224 -1.1075372093
H   2.5458876301  0.5370696615  0.9973076794
H   3.4855612323  1.2211036672 -0.9267957089
H   3.3064470653  0.0056486786  0.6250391426
H   4.8667523712  3.1003732430 -0.3385966291
17
Image 217  Energy = -420.7445710556
C  -1.6877349627  0.3233233482  0.2394977715
O  -1.7845744015  1.4486504979  0.4709575213
C  -0.7358616674 -0.2237269383 -0.1627823831
C   0.5618228910  0.5375364076 -0.2054489676
C   1.7738108896 -0.0961576728  0.0725029180
O   2.1805848415 -0.9785690392  0.0667660573
C   2.4663788498  0.3562328052  0.3499905671
O   4.6032349697  2.2214080812 -0.2208097686
H  -2.5345821089 -0.3294680810  0.2837999882
H  -0.7884878716 -0.9641963056  0.3427138414
H  -0.9980362870 -0.5457736800 -0.9288941062
H   0.5684104046  1.3107554663  0.4416945156
H   0.7229050961  0.9487840331 -1.1086109565
H   2.5437789714  0.5339647572  0.9978431385
H   3.4878257307  1.2212033850 -0.9270028555
H   3.3034605208  0.0056493503  0.6279599862
H   4.8670641338  3.1003835855 -0.3401772675
17
Image 218  Energy = -420.7391457080
C  -1.6863498380  0.3225401692  0.2406318196
O  -1.7835812773  1.4474081029  0.4731482027
C  -0.7357175483 -0.2231355586 -0.1635418712
C   0.5618671290  0.5379302082 -0.2064034102
C   1.7733570561 -0.0949162175  0.0728166178
O   2.1816956161 -0.9760898548  0.0670706637
C   2.4637207077  0.3554809148  0.3516426715
O   4.6037087788  2.2214943576 -0.2218362161
H  -2.5326577856 -0.3310007918  0.2851174648
H  -0.7884290893 -0.9640649226  0.3402454581
H  -0.9989609728 -0.5436833021 -0.9291668379
H   0.5682602910  1.3117431865  0.4396689586
H   0.7234768434  0.9480881806 -1.1096846398
H   2.5416706293  0.5308591089  0.9983780704
H   3.4900902393  1.2213032770 -0.9272099363
H   3.3004733118  0.0056490829  0.6308808404
H   4.8673759088  3.1003940594 -0.3417578558
17
Image 219  Energy = -420.7337988863
C  -1.6849654867  0.3217573355  0.2417662065
O  -1.7825882962  1.4461658236  0.4753388435
C  -0.7355722920 -0.2225441624 -0.1643016100
C   0.5619101126  0.5383243238 -0.2073580418
C   1.7729070688 -0.0936749566  0.0731314560
O   2.1828060421 -0.9736115898  0.0673752321
C   2.4610608140  0.3547311924  0.3532944750
O   4.6041825583  2.2215805831 -0.2228627564
H  -2.5307334764 -0.3325334220  0.2864348678
H  -0.7883702983 -0.9639339057  0.3377772695
H  -0.9998857318 -0.5415930635 -0.9294397288
H   0.5681101559  1.3127308696  0.4376433626
H   0.7240485667  0.9473924647 -1.1107582503
H   2.5395625220  0.5277526798  0.9989123694
H   3.4923547064  1.2214032917 -0.9274169063
H   3.2974853379  0.0056478769  0.6338016202
H   4.8676876966  3.1004046595 -0.3433384088
17
Image 220  Energy = -420.7285325924
C  -1.6835818479  0.3209747759  0.2429009097
O  -1.7815954604  1.4449236776  0.4775294478
C  -0.7354259396 -0.2219527445 -0.1650615951
C   0.5619517498  0.5387188009 -0.2083129018
C   1.7724609602 -0.0924342300  0.0734474025
O   2.1839160738 -0.9711339252  0.0676798261
C   2.4583994349  0.3539836511  0.3549461201
O   4.6046563447  2.2216667860 -0.2238893802
H  -2.5288091830 -0.3340659708  0.2877521982
H  -0.7883115253 -0.9638032356  0.3353092683
H  -1.0008105651 -0.5395029514 -0.9297127542
H   0.5679599941  1.3137185328  0.4356177249
H   0.7246202802  0.9466968944 -1.1118317791
H   2.5374545948  0.5246454268  0.9994459116
H   3.4946190563  1.2215033717 -0.9276237113
H   3.2944965350  0.0056457575  0.6367222381
H   4.8679994975  3.1004153834 -0.3449189253
17
Image 221  Energy = -420.7231108777
C  -1.6821988671  0.3201924201  0.2440358990
O  -1.7806027771  1.4436816906  0.4797200086
C  -0.7352785502 -0.2213612984 -0.1658218087
C   0.5619919597  0.5391136693 -0.2092680199
C   1.7720187726 -0.0911943590  0.0737644561
O   2.1850256795 -0.9686564264  0.0679845227
C   2.4557368010  0.3532381373  0.3565976479
O   4.6051301756  2.2217529967 -0.2249160735
H  -2.5268849150 -0.3355984279  0.2890694495
H  -0.7882527966 -0.9636728912  0.3328414619
H  -1.0017354652 -0.5374129674 -0.9299858952
H   0.5678097949  1.3147061948  0.4335920593
H   0.7251919949  0.9460014849 -1.1129052234
H   2.5353468117  0.5215373121  0.9999785892
H   3.4968832019  1.2216034561 -0.9278302927
H   3.2915068681  0.0056427789  0.6396426149
H   4.8683113113  3.1004262303 -0.3464993954
17
Image 222  Energy = -420.7180096875
C  -1.6808165580  0.3194102945  0.2451711930
O  -1.7796102357  1.4424398219  0.4819105126
C  -0.7351301781 -0.2207698665 -0.1665822568
C   0.5620307840  0.5395089757 -0.2102233700
C   1.7715800751 -0.0899557422  0.0740824801
O   2.1861347058 -0.9661785408  0.0682894132
C   2.4530737940  0.3524940529  0.3582490083
O   4.6056040614  2.2218392271 -0.2259428568
H  -2.5249606582 -0.3371307784  0.2903866192
H  -0.7881941252 -0.9635428592  0.3303738595
H  -1.0026604234 -0.5353231154 -0.9302591608
H   0.5676595676  1.3156938750  0.4315663765
H   0.7257637267  0.9453062568 -1.1139785959
H   2.5332391240  0.5184281621  1.0005104189
H   3.4991470905  1.2217034860 -0.9280365275
H   3.2885160984  0.0056395257  0.6425627086
H   4.8686231511  3.1004372255 -0.3480798218
17
Image 223  Energy = -420.7129801507
C  -1.6794347923  0.3186282347  0.2463067232
O  -1.7786178550  1.4411981536  0.4841009884
C  -0.7349809472 -0.2201784010 -0.1673428984
C   0.5620682049  0.5399046783 -0.2111789839
C   1.7711448426 -0.0887183638  0.0744014825
O   2.1872433976 -0.9637002765  0.0685945221
C   2.4504101347  0.3517516600  0.3599002840
O   4.6060780820  2.2219255374 -0.2269696905
H  -2.5230364182 -0.3386630303  0.2917037126
H  -0.7881355398 -0.9634131098  0.3279064397
H  -1.0035854317 -0.5332333713 -0.9305325181
H   0.5675092771  1.3166816117  0.4295406859
H   0.7263354738  0.9446112164 -1.1150519267
H   2.5311314826  0.5153181233  1.0010413526
H   3.5014106433  1.2218034077 -0.9282424544
H   3.2855244394  0.0056355902  0.6454824809
H   4.8689350061  3.1004483400 -0.3496601996
17
Image 224  Energy = -420.7080060658
C  -1.6780535072  0.3178461805  0.2474424831
O  -1.7776256279  1.4399566886  0.4862914755
C  -0.7348309583 -0.2195869051 -0.1681037317
C   0.5621043689  0.5403007533 -0.2121348333
C   1.7707124726 -0.0874822148  0.0747212861
O   2.1883518871 -0.9612217479  0.0688998539
C   2.4477461933  0.3510109636  0.3615515646
O   4.6065522873  2.2220119655 -0.2279965727
H  -2.5211121628 -0.3401952012  0.2930207499
H  -0.7880770534 -0.9632836245  0.3254391641
H  -1.0045104918 -0.5311436949 -0.9308059626
H   0.5673589135  1.3176694444  0.4275149762
H   0.7269072415  0.9439163646 -1.1161252655
H   2.5290237922  0.5122072158  1.0015714761
H   3.5036738406  1.2219031799 -0.9284480669
H   3.2825319252  0.0056310643  0.6484019538
H   4.8692468790  3.1004595687 -0.3512405503
17
Image 225  Energy = -420.7030659390
C  -1.6766726456  0.3170640797  0.2485784767
O  -1.7766335414  1.4387154216  0.4884820265
C  -0.7346802981 -0.2189953859 -0.1688647655
C   0.5621394945  0.5406971652 -0.2130908746
C   1.7702822285 -0.0862471571  0.0750416715
O   2.1894603329 -0.9587432912  0.0692053783
C   2.4450823180  0.3502720773  0.3632029923
O   4.6070267230  2.2220985453 -0.2290235031
H  -2.5191878497 -0.3417273193  0.2943377600
H  -0.7880186748 -0.9631543893  0.3229719825
H  -1.0054356147 -0.5290540320 -0.9310794940
H   0.5672084709  1.3186574120  0.4254892258
H   0.7274790359  0.9432216919 -1.1171986688
H   2.5269159341  0.5090954727  1.0021008995
H   3.5059366888  1.2220027736 -0.9286533822
H   3.2795386252  0.0056260313  0.6513211806
H   4.8695587724  3.1004709050 -0.3528209053
17
Image 226  Energy = -420.6981406426
C  -1.6752921639  0.3162818903  0.2497147131
O  -1.7756415805  1.4374743443  0.4906726945
C  -0.7345290286 -0.2184038538 -0.1696260132
C   0.5621738370  0.5410938732 -0.2140470560
C   1.7698533747 -0.0850129440  0.0753624269
O   2.1905688962 -0.9562653716  0.0695110436
C   2.4424187826  0.3495351656  0.3648547417
O   4.6075014257  2.2221853033 -0.2300504785
H  -2.5172634368 -0.3432594151  0.2956547726
H  -0.7879604105 -0.9630253936  0.3205048460
H  -1.0063608172 -0.5269643268 -0.9313531151
H   0.5670579487  1.3196455462  0.4234634119
H   0.7280508627  0.9425271811 -1.1182721899
H   2.5248077779  0.5059829262  1.0026297075
H   3.5081992069  1.2221021718 -0.9288584340
H   3.2765446378  0.0056205637  0.6542402266
H   4.8698706873  3.1004823401 -0.3544012975
17
Image 227  Energy = -420.6932158796
C  -1.6739120346  0.3154995793  0.2508512020
O  -1.7746497322  1.4362334515  0.4928635254
C  -0.7343771894 -0.2178123226 -0.1703874856
C   0.5622076606  0.5414908329 -0.2150033235
C   1.7694252551 -0.0837792315  0.0756833808
O   2.1916777363 -0.9537885320  0.0698167919
C   2.4397557895  0.3488004081  0.3665070218
O   4.6079764222  2.2222722593 -0.2310774913
H  -2.5153388900 -0.3447915162  0.2969718137
H  -0.7879022649 -0.9628966292  0.3180377143
H  -1.0072861157 -0.5248745313 -0.9316268314
H   0.5669073504  1.3206338716  0.4214375169
H   0.7286227253  0.9418328140 -1.1193458765
H   2.5226991847  0.5028695896  1.0031579171
H   3.5104614185  1.2222013686 -0.9290632678
H   3.2735500620  0.0056147253  0.6571591472
H   4.8701826220  3.1004938632 -0.3559817547
17
Image 228  Energy = -420.6881910445
C  -1.6725322453  0.3147171211  0.2519879515
O  -1.7736579884  1.4349927440  0.4950545525
C  -0.7342248109 -0.2172208080 -0.1711491832
C   0.5622412217  0.5418879930 -0.2159596229
C   1.7689973252 -0.0825455801  0.0760044164
O   2.1927870230 -0.9513133669  0.0701225742
C   2.4370935010  0.3480679800  0.3681600937
O   4.6084517308  2.2223594290 -0.2321045284
H  -2.5134141868 -0.3463236427  0.2982889010
H  -0.7878442398 -0.9627680884  0.3155705582
H  -1.0082115184 -0.5227846125 -0.9319006508
H   0.5667566827  1.3216224082  0.4194115339
H   0.7291946205  0.9411385792 -1.1204197736
H   2.5205900076  0.4997554420  1.0036854450
H   3.5127233441  1.2223003689 -0.9292679379
H   3.2705549612  0.0056085736  0.6600779665
H   4.8704945719  3.1005054601 -0.3575622958
17
Image 229  Energy = -420.6832585032
C  -1.6711531802  0.3139344413  0.2531250418
O  -1.7726662811  1.4337521817  0.4972457662
C  -0.7340720488 -0.2166293473 -0.1719110799
C   0.5622747145  0.5422852953 -0.2169158919
C   1.7685691460 -0.0813114849  0.0763254595
O   2.1938969600 -0.9488404331  0.0704283866
C   2.4344321516  0.3473379750  0.3698142358
O   4.6089274058  2.2224468712 -0.2331315538
H  -2.5114888992 -0.3478556441  0.2996059608
H  -0.7877863137 -0.9626397754  0.3131033372
H  -1.0091370175 -0.5206945676 -0.9321745502
H   0.5666059629  1.3226111664  0.4173854634
H   0.7297665315  0.9404444670 -1.1214939090
H   2.5184800832  0.4966404155  1.0042121171
H   3.5149849518  1.2223991494 -0.9294725072
H   3.2675593072  0.0056021853  0.6629966511
H   4.8708065260  3.1005171049 -0.3591429271
17
Image 230  Energy = -420.6783462311
C  -1.6697744975  0.3131515946  0.2542623834
O  -1.7716746960  1.4325118492  0.4994371642
C  -0.7339188055 -0.2160379274 -0.1726731510
C   0.5623083292  0.5426826538 -0.2178720934
C   1.7681406668 -0.0800764307  0.0766465828
O   2.1950077219 -0.9463700429  0.0707342762
C   2.4317716913  0.3466103401  0.3714697275
O   4.6094033946  2.2225345400 -0.2341585520
H  -2.5095634763 -0.3493876589  0.3009230510
H  -0.7877285054 -0.9625116760  0.3106361096
H  -1.0100625804 -0.5186044254 -0.9324485686
H   0.5664551847  1.3236001548  0.4153593588
H   0.7303384361  0.9397505046 -1.1225683208
H   2.5163693441  0.4935244180  1.0047375773
H   3.5172462624  1.2224977691 -0.9296770201
H   3.2645630570  0.0055955482  0.6659150984
H   4.8711184730  3.1005287895 -0.3607236231
17
Image 231  Energy = -420.6734827837
C  -1.6683962454  0.3123685911  0.2553999532
O  -1.7706832648  1.4312717926  0.5016286955
C  -0.7337651045 -0.2154465507 -0.1734353499
C   0.5623421476  0.5430799843 -0.2188281905
C   1.7677120264 -0.0788399589  0.0769679140
O   2.1961194833 -0.9439022632  0.0710403556
C   2.4291121116  0.3458848336  0.3731267569
O   4.6098796736  2.2226224248 -0.2351854860
H  -2.5076379708 -0.3509196524  0.3022401359
H  -0.7876708118 -0.9623837902  0.3081689312
H  -1.0109881580 -0.5165142493 -0.9327227110
H   0.5663043510  1.3245893668  0.4133332841
H   0.7309103027  0.9390567164 -1.1236430157
H   2.5142577404  0.4904073383  1.0052614378
H   3.5195072374  1.2225962529 -0.9298815108
H   3.2615660834  0.0055886648  0.6688331420
H   4.8714303977  3.1005404995 -0.3623043419
17
Image 232  Energy = -420.6686956103
C  -1.6670184726  0.3115854486  0.2565377258
O  -1.7696920274  1.4300320623  0.5038203015
C  -0.7336109682 -0.2148552133 -0.1741976325
C   0.5623761919  0.5434772186 -0.2197841582
C   1.7672835400 -0.0776016773  0.0772896376
O   2.1972323829 -0.9414370369  0.0713467432
C   2.4264533529  0.3451611212  0.3747854318
O   4.6103562081  2.2227105055 -0.2362123205
H  -2.5057124432 -0.3524515837  0.3035571748
H  -0.7876132250 -0.9622561223  0.3057018657
H  -1.0119136965 -0.5144241129 -0.9329969798
H   0.5661534665  1.3255787893  0.4113073065
H   0.7314821017  0.9383631246 -1.1247179842
H   2.5121452399  0.4872890862  1.0057833361
H   3.5217678366  1.2226946258 -0.9300860015
H   3.2585682257  0.0055815405  0.6717505904
H   4.8717422865  3.1005522244 -0.3638850363
17
Image 233  Energy = -420.6640075539
C  -1.6656412174  0.3108021879  0.2576756808
O  -1.7687010262  1.4287927053  0.5060119320
C  -0.7334564201 -0.2142639064 -0.1749599650
C   0.5624104509  0.5438743198 -0.2207399802
C   1.7668556419 -0.0763612719  0.0776119689
O   2.1983465071 -0.9389742833  0.0716535198
C   2.4237952978  0.3444388281  0.3764457733
O   4.6108329577  2.2227987561 -0.2372390288
H  -2.5037869466 -0.3539834162  0.3048741317
H  -0.7875557301 -0.9621286818  0.3032349699
H  -1.0128391504 -0.5123340842 -0.9332713789
H   0.5660025394  1.3265684077  0.4092814845
H   0.7320538122  0.9376697414 -1.1257932050
H   2.5100318135  0.4841696302  1.0063030127
H   3.5240280331  1.2227929102 -0.9302905052
H   3.2555693081  0.0055741998  0.6746672551
H   4.8720541290  3.1005639581 -0.3654656654
17
Image 234  Energy = -420.6594430203
C  -1.6642645142  0.3100188348  0.2588138015
O  -1.7677103037  1.4275537640  0.5082035412
C  -0.7333014815 -0.2136726138 -0.1757223229
C   0.5624448897  0.5442712825 -0.2216956447
C   1.7664288958 -0.0751185628  0.0779351317
O   2.1994618841 -0.9365138098  0.0719607412
C   2.4211377426  0.3437175036  0.3781076896
O   4.6113098746  2.2228871433 -0.2382655927
H  -2.5018615287 -0.3555151150  0.3061909735
H  -0.7874983088 -0.9620014860  0.3007683013
H  -1.0137644845 -0.5102442283 -0.9335459170
H   0.5658515784  1.3275582048  0.4072558730
H   0.7326254193  0.9369765697 -1.1268686483
H   2.5079174605  0.4810490168  1.0068203372
H   3.5262878118  1.2228911269 -0.9304950206
H   3.2525691468  0.0055666713  0.6775829488
H   4.8723659177  3.1005756988 -0.3670461926
17
Image 235  Energy = -420.6550267963
C  -1.6628884062  0.3092354204  0.2599520708
O  -1.7667199018  1.4263152788  0.5103950760
C  -0.7331461671 -0.2130813090 -0.1764846846
C   0.5624794452  0.5446681173 -0.2226511425
C   1.7660040109 -0.0738735909  0.0782593336
O   2.2005784775 -0.9340551277  0.0722684857
C   2.4184803854  0.3429965781  0.3797709597
O   4.6117869022  2.2229756257 -0.2392919999
H  -2.4999362400 -0.3570466398  0.3075076635
H  -0.7874409439 -0.9618745604  0.2983019312
H  -1.0146896685 -0.5081546173 -0.9338206074
H   0.5657005858  1.3285481601  0.4052305342
H   0.7331969080  0.9362836091 -1.1279442792
H   2.5058022443  0.4779273613  1.0073352898
H   3.5285471575  1.2229892949 -0.9306995244
H   3.2495675643  0.0055589507  0.6804974718
H   4.8726776464  3.1005874494 -0.3686265783
17
Image 236  Energy = -420.6507842307
C  -1.6615129475  0.3084519750  0.2610904696
O  -1.7657298580  1.4250772871  0.5125864744
C  -0.7329904842 -0.2124899517 -0.1772470260
C   0.5625140223  0.5450648344 -0.2236064710
C   1.7655818071 -0.0726266676  0.0785847437
O   2.2016961704 -0.9315973846  0.0725768724
C   2.4158228369  0.3422754076  0.3814352572
O   4.6122639807  2.2230641585 -0.2403182415
H  -2.4980111343 -0.3585779450  0.3088241608
H  -0.7873836229 -0.9617479344  0.2958359430
H  -1.0156146740 -0.5060653286 -0.9340954673
H   0.5655495533  1.3295382518  0.4032055397
H   0.7337682606  0.9355908583 -1.1290200637
H   2.5036862926  0.4748048294  1.0078479344
H   3.5308060478  1.2230874284 -0.9309039709
H   3.2465644397  0.0055509656  0.6834106250
H   4.8729893096  3.1005992165 -0.3702067794
17
Image 237  Energy = -420.6467296742
C  -1.6601381896  0.3076685137  0.2622289806
O  -1.7647401962  1.4238398172  0.5147776811
C  -0.7328344367 -0.2118984900 -0.1780093213
C   0.5625484984  0.5454614345 -0.2245616448
C   1.7651631318 -0.0713783445  0.0789114881
O   2.2028147388 -0.9291394919  0.0728860215
C   2.4131646409  0.3415533970  0.3831001985
O   4.6127410600  2.2231527029 -0.2413443133
H  -2.4960862563 -0.3601089900  0.3101404298
H  -0.7873263372 -0.9616216309  0.2933704100
H  -1.0165394776 -0.5039764278 -0.9343705144
H   0.5653984615  1.3305284612  0.4011809550
H   0.7343394615  0.9348983112 -1.1300959775
H   2.5015697540  0.4716816256  1.0083584137
H   3.5330644575  1.2231855314 -0.9311083021
H   3.2435597840  0.0055425708  0.6863222550
H   4.8733009053  3.1006110102 -0.3717867597
17
Image 238  Energy = -420.6428632296
C  -1.6587641641  0.3068850245  0.2633675955
O  -1.7637509183  1.4226028798  0.5169686660
C  -0.7326780296 -0.2113068638 -0.1787715451
C   0.5625827344  0.5458579103 -0.2255167033
C   1.7647487663 -0.0701293347  0.0792396612
O   2.2039338299 -0.9266803354  0.0731959887
C   2.4105053121  0.3408301082  0.3847653861
O   4.6132181120  2.2232412345 -0.2423702182
H  -2.4941616262 -0.3616397523  0.3114564509
H  -0.7872690796 -0.9614956562  0.2909053693
H  -1.0174640686 -0.5018879486 -0.9346457658
H   0.5652472846  1.3315187769  0.3991568209
H   0.7349105062  0.9342059505 -1.1311720110
H   2.4994527429  0.4685579911  1.0088669642
H   3.5353223690  1.2232835934 -0.9313124598
H   3.2405537917  0.0055335799  0.6892323031
H   4.8736124373  3.1006228426 -0.3733665026
17
Image 239  Energy = -420.6391704861
C  -1.6573908735  0.3061014693  0.2645063167
O  -1.7627620027  1.4213664647  0.5191594319
C  -0.7325212722 -0.2107150122 -0.1795336746
C   0.5626165907  0.5462542494 -0.2264717097
C   1.7643393505 -0.0688804500  0.0795693327
O   2.2050529691 -0.9242188877  0.0735067319
C   2.4078444009  0.3401052660  0.3864304218
O   4.6136951310  2.2233297424 -0.2433959676
H  -2.4922372348 -0.3631702324  0.3127722256
H  -0.7872118409 -0.9613699976  0.2884408109
H  -1.0183884518 -0.4997998862 -0.9349212374
H   0.5650959952  1.3325091926  0.3971331441
H   0.7354814071  0.9335137442 -1.1322481664
H   2.4973353185  0.4654342004  1.0093739285
H   3.5375797809  1.2233815911 -0.9315163903
H   3.2375468155  0.0055238184  0.6921408180
H   4.8739239164  3.1006347280 -0.3749460157
17
Image 240  Energy = -420.6356317463
C  -1.6560182972  0.3053177992  0.2656451563
O  -1.7617734106  1.4201305436  0.5213500044
C  -0.7323641786 -0.2101228811 -0.1802956910
C   0.5626499391  0.5466504379 -0.2274267386
C   1.7639353357 -0.0676325934  0.0799005340
O   2.2061716002 -0.9217541500  0.0738181399
C   2.4051815889  0.3393786651  0.3880948960
O   4.6141721241  2.2234182217 -0.2444215806
H  -2.4903130508 -0.3647004472  0.3140877703
H  -0.7871546097 -0.9612446273  0.2859766904
H  -1.0193126439 -0.4977122084 -0.9351969441
H   0.5649445681  1.3334997019  0.3951099038
H   0.7360521922  0.9328216487 -1.1333244494
H   2.4952175085  0.4623105471  1.0098797508
H   3.5398367069  1.2234794943 -0.9317200400
H   3.2345392694  0.0055131675  0.6950479223
H   4.8742353578  3.1006466812 -0.3765253241
17
Image 241  Energy = -420.6322229537
C  -1.6546464031  0.3045339741  0.2667841301
O  -1.7607850964  1.4188950762  0.5235404162
C  -0.7322067656 -0.2095304275 -0.1810575802
C   0.5626826722  0.5470464603 -0.2283818602
C   1.7635369455 -0.0663867840  0.0802332270
O   2.2072891449 -0.9192850138  0.0741300983
C   2.4025167868  0.3386500607  0.3897583776
O   4.6146490974  2.2235066631 -0.2454470812
H  -2.4883890363 -0.3662304198  0.3154031075
H  -0.7870973727 -0.9611195131  0.2835129512
H  -1.0202366655 -0.4956248743 -0.9354729000
H   0.5647929813  1.3344902922  0.3930870656
H   0.7366228995  0.9321296156 -1.1344008597
H   2.4930993502  0.4591873204  1.0103849534
H   3.5420931681  1.2235772711 -0.9319233467
H   3.2315315154  0.0055015818  0.6979537602
H   4.8745467784  3.1006587178 -0.3781044590
17
Image 242  Energy = -420.6289417604
C  -1.6532751554  0.3037499743  0.2679232565
O  -1.7597970153  1.4176600152  0.5257306964
C  -0.7320490472 -0.2089376210 -0.1818193345
C   0.5627147058  0.5474423017 -0.2293371294
C   1.7631441334 -0.0651441382  0.0805672713
O   2.2084050704 -0.9168102205  0.0744425415
C   2.3998502012  0.3379191361  0.3914204362
O   4.6151260488  2.2235950489 -0.2464724961
H  -2.4864651559 -0.3677601724  0.3167182591
H  -0.7870401184 -0.9609946271  0.2810495403
H  -1.0211605356 -0.4935378465 -0.9357491187
H   0.5646412182  1.3354809452  0.3910645910
H   0.7371935713  0.9314375975 -1.1354773871
H   2.4909809114  0.4560647799  1.0108901003
H   3.5443491847  1.2236748911 -0.9321262355
H   3.2285237886  0.0054890838  0.7008584597
H   4.8748581936  3.1006708528 -0.3796834508
17
Image 243  Energy = -420.6257309707
C  -1.6519044829  0.3029657394  0.2690625460
O  -1.7588091260  1.4164253315  0.5279208754
C  -0.7318910315 -0.2083444352 -0.1825809362
C   0.5627459922  0.5478379645 -0.2302925899
C   1.7627565347 -0.0639057636  0.0809024114
O   2.2095189605 -0.9143284899  0.0747554668
C   2.3971823693  0.3371855532  0.3930806877
O   4.6156029745  2.2236833604 -0.2474978529
H  -2.4845413965 -0.3692897239  0.3180332468
H  -0.7869828608 -0.9608699353  0.2785864176
H  -1.0220842769 -0.4914510930 -0.9360256266
H   0.5644892719  1.3364716395  0.3890424406
H   0.7377642531  0.9307455538 -1.1365540157
H   2.4888622716  0.4529431267  1.0113957677
H   3.5466047665  1.2237723139 -0.9323286244
H   3.2255161625  0.0054757574  0.7037621131
H   4.8751696178  3.1006831013 -0.3812623271
17
Image 244  Energy = -420.6225874798
C  -1.6505343791  0.3021813502  0.2702020356
O  -1.7578213911  1.4151909498  0.5301109796
C  -0.7317327005 -0.2077508738 -0.1833424207
C   0.5627764877  0.5482334323 -0.2312482516
C   1.7623735222 -0.0626725811  0.0812383068
O   2.2106305570 -0.9118387885  0.0750689090
C   2.3945140150  0.3364490682  0.3947388862
O   4.6160798574  2.2237715655 -0.2485231823
H  -2.4826177143 -0.3708191049  0.3193480946
H  -0.7869255844 -0.9607454493  0.2761235348
H  -1.0230079012 -0.4893645786 -0.9363024261
H   0.5643371517  1.3374623621  0.3870205654
H   0.7383349852  0.9300534504 -1.1376307291
H   2.4867435050  0.4498225075  1.0119024462
H   3.5488599290  1.2238695218 -0.9325304318
H   3.2225086004  0.0054616962  0.7066648034
H   4.8754810600  3.1006954729 -0.3828411198
17
Image 245  Energy = -420.6194900339
C  -1.6491648076  0.3013968389  0.2713417606
O  -1.7568337769  1.4139568155  0.5323010478
C  -0.7315740196 -0.2071569459 -0.1841038181
C   0.5628061995  0.5486287166 -0.2322041117
C   1.7619942197 -0.0614450787  0.0815745860
O   2.2117398392 -0.9093406496  0.0753829008
C   2.3918459882  0.3357095800  0.3963949515
O   4.6165566891  2.2238596407 -0.2495485155
H  -2.4806940795 -0.3723483491  0.3206628311
H  -0.7868683038 -0.9606211781  0.2736608479
H  -1.0239314302 -0.4872782636 -0.9365795337
H   0.5641848853  1.3384531059  0.3849989098
H   0.7389058033  0.9293612650 -1.1387075190
H   2.4846246278  0.4467029995  1.0124105386
H   3.5511146896  1.2239664962 -0.9327315993
H   3.2195009483  0.0054470321  0.7095665872
H   4.8757925275  3.1007079753 -0.3844198639
17
Image 246  Energy = -420.6164194887
C  -1.6477957436  0.3006122510  0.2724817636
O  -1.7558462556  1.4127228766  0.5344911243
C  -0.7314149371 -0.2065626760 -0.1848651712
C   0.5628351845  0.5490238436 -0.2331601450
C   1.7616176537 -0.0602231611  0.0819109323
O   2.2128470303 -0.9068343434  0.0756974376
C   2.3891790581  0.3349671254  0.3980489736
O   4.6170334632  2.2239475647 -0.2505738839
H  -2.4787704607 -0.3738774940  0.3219774878
H  -0.7868110402 -0.9604971413  0.2711983143
H  -1.0248548909 -0.4851921051 -0.9368569682
H   0.5640325172  1.3394438684  0.3829774121
H   0.7394767293  0.9286689886 -1.1397843863
H   2.4825055919  0.4435846293  1.0129203075
H   3.5533690848  1.2240632411 -0.9329321048
H   3.2164929897  0.0054319197  0.7124675027
H   4.8761040254  3.1007206132 -0.3859985961
17
Image 247  Energy = -420.6133639436
C  -1.6464271824  0.2998276467  0.2736220893
O  -1.7548588080  1.4114890885  0.5366812493
C  -0.7312553942 -0.2059681024 -0.1856265294
C   0.5628635509  0.5494188462 -0.2341163029
C   1.7612429189 -0.0590061861  0.0822471522
O   2.2139525346 -0.9043207718  0.0760124690
C   2.3865137725  0.3342217893  0.3997011487
O   4.6175101692  2.2240353140 -0.2515993160
H  -2.4768468295 -0.3754065727  0.3232920928
H  -0.7867538145 -0.9603733654  0.2687359015
H  -1.0257783129 -0.4831060656 -0.9371347511
H   0.5638800977  1.3404346450  0.3809560131
H   0.7400477681  0.9279766239 -1.1408613368
H   2.4803863048  0.4404673926  1.0134318668
H   3.5556231766  1.2241597925 -0.9331319665
H   3.2134844922  0.0054165369  0.7153675689
H   4.8764155561  3.1007333891 -0.3875773484
17
Image 248  Energy = -420.6103198961
C  -1.6450591404  0.2990430987  0.2747627760
O  -1.7538714250  1.4102554177  0.5388714466
C  -0.7310953392 -0.2053732699 -0.1863879396
C   0.5628914409  0.5498137502 -0.2350725197
C   1.7608693071 -0.0577932203  0.0825831948
O   2.2150568063 -0.9018010888  0.0763279191
C   2.3838504344  0.3334735857  0.4013516789
O   4.6179867849  2.2241228571 -0.2526248348
H  -2.4749231689 -0.3769356056  0.3246066638
H  -0.7866966404 -0.9602498789  0.2662735973
H  -1.0267017239 -0.4810201232 -0.9374129047
H   0.5637276715  1.3414254230  0.3789346673
H   0.7406189097  0.9272841810 -1.1419383730
H   2.4782666714  0.4373512685  1.0139452116
H   3.5578770472  1.2242562178 -0.9333312295
H   3.2104752439  0.0054010832  0.7182667862
H   4.8767271202  3.1007463048 -0.3891561399
17
Image 249  Energy = -420.6072869759
C  -1.6436916419  0.2982586822  0.2759038509
O  -1.7528841063  1.4090218421  0.5410617226
C  -0.7309347350 -0.2047782201 -0.1871494404
C   0.5629189985  0.5502085597 -0.2360287275
C   1.7604963342 -0.0565833588  0.0829191114
O   2.2161602047 -0.8992763052  0.0766437062
C   2.3811891945  0.3327224155  0.4030007057
O   4.6184632760  2.2242101535 -0.2536504555
H  -2.4729994749 -0.3784645998  0.3259212077
H  -0.7866395210 -0.9601267095  0.2638114093
H  -1.0276251473 -0.4789342729 -0.9376914505
H   0.5635752706  1.3424161826  0.3769133470
H   0.7411901416  0.9265916690 -1.1430154896
H   2.4761466289  0.4342362247  1.0144602716
H   3.5601307830  1.2243525990 -0.9335299462
H   3.2074650771  0.0053857769  0.7211651545
H   4.8770387171  3.1007593619 -0.3907349768
17
Image 250  Energy = -420.6042660922
C  -1.6423247001  0.2974744588  0.2770453323
O  -1.7518968546  1.4077883469  0.5432520792
C  -0.7307735558 -0.2041829842 -0.1879110620
C   0.5629463391  0.5506032556 -0.2369848748
C   1.7601236687 -0.0553759034  0.0832549907
O   2.2172629158 -0.8967471515  0.0769597290
C   2.3785301683  0.3319681332  0.4046483040
O   4.6189396033  2.2242971593 -0.2546761871
H  -2.4710757497 -0.3799935589  0.3272357283
H  -0.7865824510 -0.9600038818  0.2613493484
H  -1.0285486061 -0.4768485142 -0.9379704070
H   0.5634229177  1.3434069052  0.3748920339
H   0.7417614657  0.9258990871 -1.1440926751
H   2.4740261550  0.4311222218  1.0149769742
H   3.5623844609  1.2244490111 -0.9337281604
H   3.2044538763  0.0053708545  0.7240627082
H   4.8773503463  3.1007725611 -0.3923138614
17
Image 251  Energy = -420.6012510623
C  -1.6409583054  0.2966904697  0.2781872349
O  -1.7509096723  1.4065549199  0.5454425266
C  -0.7306117841 -0.2035875825 -0.1886728290
C   0.5629735535  0.5509978036 -0.2379409306
C   1.7597510323 -0.0541703545  0.0835909068
O   2.2183649777 -0.8942141646  0.0772758508
C   2.3758734863  0.3312106199  0.4062945243
O   4.6194157316  2.2243838342 -0.2557020354
H  -2.4691519937 -0.3815224921  0.3285502337
H  -0.7865254184 -0.9598814165  0.2588874149
H  -1.0294721264 -0.4747628408 -0.9382497901
H   0.5632706308  1.3443975791  0.3728707099
H   0.7423329027  0.9252064227 -1.1451699167
H   2.4719052569  0.4280092265  1.0154952764
H   3.5646381460  1.2245455105 -0.9339259064
H   3.2014415749  0.0053565645  0.7269595307
H   4.8776620076  3.1007859010 -0.3938928004
17
Image 252  Energy = -420.5982375078
C  -1.6395924361  0.2959067420  0.2793295705
O  -1.7499225618  1.4053215533  0.5476330814
C  -0.7304494116 -0.2029920297 -0.1894347597
C   0.5630007460  0.5513921659 -0.2388968683
C   1.7593781315 -0.0529663467  0.0839268894
O   2.2194663660 -0.8916777673  0.0775919207
C   2.3732192702  0.3304497694  0.4079394318
O   4.6198916303  2.2244701427 -0.2567280026
H  -2.4672282036 -0.3830514116  0.3298647344
H  -0.7864684059 -0.9597593307  0.2564255999
H  -1.0303957378 -0.4726772429 -0.9385296146
H   0.5631184202  1.3453881983  0.3708493578
H   0.7429044777  0.9245136577 -1.1462472053
H   2.4697839613  0.4248972292  1.0160151549
H   3.5668919001  1.2246421431 -0.9341232185
H   3.1984281517  0.0053431492  0.7298557318
H   4.8779737018  3.1007993788 -0.3954718031
17
Image 253  Energy = -420.5952223914
C  -1.6382270719  0.2951232963  0.2804723476
O  -1.7489355268  1.4040882454  0.5498237593
C  -0.7302864387 -0.2023963399 -0.1901968634
C   0.5630280626  0.5517863070 -0.2398526531
C   1.7590046292 -0.0517636174  0.0842629068
O   2.2205670542 -0.8891382837  0.0779078063
C   2.3705675998  0.3296854653  0.4095831271
O   4.6203672735  2.2245560560 -0.2577540864
H  -2.4653043739 -0.3845803279  0.3311792395
H  -0.7864113911 -0.9596376357  0.2539638914
H  -1.0313194701 -0.4705917129 -0.9388098959
H   0.5629662834  1.3463787588  0.3688279654
H   0.7434762070  0.9238207751 -1.1473245361
H   2.4676623130  0.4217862515  1.0165365879
H   3.5691457878  1.2247389540 -0.9343201399
H   3.1954136327  0.0053308183  0.7327514208
H   4.8782854294  3.1008129905 -0.3970508770
17
Image 254  Energy = -420.5921966909
C  -1.6368621984  0.2943401474  0.2816155740
O  -1.7479485723  1.4028549982  0.5520145769
C  -0.7301228668 -0.2018005300 -0.1909591407
C   0.5630556909  0.5521801955 -0.2408082450
C   1.7586301522 -0.0505619798  0.0845988600
O   2.2216670201 -0.8865959922  0.0782233915
C   2.3679184797  0.3289176220  0.4112257562
O   4.6208426431  2.2246415551 -0.2587802810
H  -2.4633804942 -0.3861092505  0.3324937574
H  -0.7863543470 -0.9595163359  0.2515022715
H  -1.0322433517 -0.4685062427 -0.9390906475
H   0.5628142075  1.3473692595  0.3668065219
H   0.7440480956  0.9231277596 -1.1484019076
H   2.4655403722  0.4186763461  1.0170595629
H   3.5713998789  1.2248359876 -0.9345167294
H   3.1923980992  0.0053197300  0.7356467082
H   4.8785971908  3.1008267307 -0.3986300289
17
Image 255  Energy = -420.5891521571
C  -1.6354978052  0.2935573017  0.2827592616
O  -1.7469617020  1.4016218124  0.5542055584
C  -0.7299586888 -0.2012046226 -0.1917215872
C   0.5630838460  0.5525738064 -0.2417636087
C   1.7582543483 -0.0493612548  0.0849346084
O   2.2227662341 -0.8840512606  0.0785385412
C   2.3652717797  0.3281462641  0.4128675127
O   4.6213177356  2.2247266376 -0.2598065771
H  -2.4614565455 -0.3876381934  0.3338083000
H  -0.7862972429 -0.9593954259  0.2490407066
H  -1.0331674091 -0.4664208157 -0.9393718790
H   0.5626621748  1.3483597046  0.3647850104
H   0.7446201430  0.9224345949 -1.1494793209
H   2.4634182053  0.4155675953  1.0175840893
H   3.5736542461  1.2249332826 -0.9347130662
H   3.1893816936  0.0053099816  0.7385417213
H   4.8789089868  3.1008405924 -0.4002092704
17
Image 256  Energy = -420.5860739640
C  -1.6341338842  0.2927747560  0.2839034279
O  -1.7459749183  1.4003886849  0.5563967381
C  -0.7297938871 -0.2006086494 -0.1924841946
C   0.5631127528  0.5529671264 -0.2427187194
C   1.7578769762 -0.0481611973  0.0852700194
O   2.2238646513 -0.8815046577  0.0788530715
C   2.3626271843  0.3273715650  0.4145086318
O   4.6217925645  2.2248113199 -0.2608329634
H  -2.4595324999 -0.3891671776  0.3351228847
H  -0.7862400451 -0.9592748903  0.2465791445
H  -1.0340916660 -0.4643354031 -0.9396535932
H   0.5625101690  1.3493501051  0.3627634046
H   0.7451923461  0.9217412646 -1.1505567798
H   2.4612958727  0.4124601037  1.0181101900
H   3.5759089600  1.2250308677 -0.9349092503
H   3.1863646049  0.0053016163  0.7414366081
H   4.8792208188  3.1008545667 -0.4017886194
17
Image 257  Energy = -420.5829488497
C  -1.6327704312  0.2919925011  0.2850480935
O  -1.7449882228  1.3991556103  0.5585881547
C  -0.7296284363 -0.2000126524 -0.1932469522
C   0.5631426255  0.5533601564 -0.2436735622
C   1.7574979792 -0.0469614689  0.0856050217
O   2.2249622119 -0.8789569522  0.0791667504
C   2.3599842065  0.3265938166  0.4161493750
O   4.6222671571  2.2248956335 -0.2618594264
H  -2.4576083288 -0.3906962278  0.3364375315
H  -0.7861827189 -0.9591547042  0.2441175214
H  -1.0350161394 -0.4622499691 -0.9399357844
H   0.5623581804  1.3503404757  0.3607416732
H   0.7457647016  0.9210477540 -1.1516342887
H   2.4591734158  0.4093539785  1.0186378640
H   3.5781640808  1.2251287611 -0.9351053945
H   3.1833470298  0.0052946443  0.7443315203
H   4.8795326887  3.1008686439 -0.4033680968
17
Image 258  Energy = -420.5797689013
C  -1.6314074466  0.2912105233  0.2861932752
O  -1.7440016170  1.3979225865  0.5607798391
C  -0.7294623109 -0.1994166803 -0.1940098451
C   0.5631736404  0.5537529114 -0.2446281289
C   1.7571174882 -0.0457617136  0.0859396283
O   2.2260588410 -0.8764089402  0.0794793411
C   2.3573423188  0.3258133392  0.4177900107
O   4.6227415457  2.2249796165 -0.2628859500
H  -2.4556840138 -0.3922253653  0.3377522562
H  -0.7861252320 -0.9590348359  0.2416557774
H  -1.0359408342 -0.4601644809 -0.9402184373
H   0.5622062078  1.3513308288  0.3587197917
H   0.7463372056  0.9203540542 -1.1527118506
H   2.4570508495  0.4062492969  1.0191670377
H   3.5804196476  1.2252269716 -0.9353016062
H   3.1803291117  0.0052890736  0.7472265798
H   4.8798445981  3.1008828150 -0.4049477185
17
Image 259  Energy = -420.5765338055
C  -1.6300449351  0.2904288066  0.2873389809
O  -1.7430151033  1.3966896186  0.5629718047
C  -0.7292954892 -0.1988207805 -0.1947728523
C   0.5632059140  0.5541454141 -0.2455824140
C   1.7567357428 -0.0445616676  0.0862739165
O   2.2271544507 -0.8738612379  0.0797906530
C   2.3547011169  0.3250303961  0.4194308073
O   4.6232157601  2.2250633050 -0.2639125169
H  -2.4537595545 -0.3937546018  0.3390670652
H  -0.7860675593 -0.9589152512  0.2391938706
H  -1.0368657409 -0.4580789184 -0.9405015294
H   0.5620542594  1.3523211696  0.3566977523
H   0.7469098556  0.9196601632 -1.1537894660
H   2.4549281583  0.4031460796  1.0196975310
H   3.5826756723  1.2253255000 -0.9354979710
H   3.1773109054  0.0052849331  0.7501218576
H   4.8801565466  3.1008970721 -0.4065274894
17
Image 260  Energy = -420.5732469685
C  -1.6286828998  0.2896473305  0.2884852082
O  -1.7420286830  1.3954567188  0.5651640479
C  -0.7291279569 -0.1982249910 -0.1955359476
C   0.5632394953  0.5545376900 -0.2465364138
C   1.7563529882 -0.0433612402  0.0866079814
O   2.2282489357 -0.8713141668  0.0801005644
C   2.3520604201  0.3242451630  0.4210720398
O   4.6236898253  2.2251467309 -0.2649391094
H  -2.4518349674 -0.3952839393  0.3403819553
H  -0.7860096856 -0.9587959172  0.2367317806
H  -1.0377908385 -0.4559932741 -0.9407850348
H   0.5619023532  1.3533114952  0.3546755653
H   0.7474826536  0.9189660847 -1.1548671342
H   2.4528052954  0.4000442887  1.0202290629
H   3.5849321420  1.2254243399 -0.9356945452
H   3.1742923904  0.0052822806  0.7530173827
H   4.8804685320  3.1009114071 -0.4081074032
17
Image 261  Energy = -420.5699146121
C  -1.6273213361  0.2888660685  0.2896319480
O  -1.7410423549  1.3942239023  0.5673565568
C  -0.7289597053 -0.1976293353 -0.1962991025
C   0.5632743733  0.5549297628 -0.2474901285
C   1.7559694045 -0.0421604816  0.0869418972
O   2.2293421836 -0.8687678240  0.0804090029
C   2.3494202410  0.3234577627  0.4227140089
O   4.6241637643  2.2252299232 -0.2659657115
H  -2.4499102769 -0.3968133758  0.3416969189
H  -0.7859516063 -0.9586768056  0.2342695011
H  -1.0387161018 -0.4539075464 -0.9410689280
H   0.5617505153  1.3543017986  0.3526532522
H   0.7480556078  0.9182718241 -1.1559448567
H   2.4506821821  0.3969438504  1.0207612778
H   3.5871890275  1.2255234785 -0.9358913606
H   3.1712735315  0.0052811876  0.7559131736
H   4.8807805502  3.1009258108 -0.4096874491
17
Image 262  Energy = -420.5665408347
C  -1.6259602279  0.2880849893  0.2907791884
O  -1.7400561142  1.3929911819  0.5695493190
C  -0.7287907301 -0.1970338224 -0.1970622892
C   0.5633104937  0.5553216549 -0.2484435617
C   1.7555850960 -0.0409594963  0.0872757016
O   2.2304340972 -0.8662222188  0.0807159176
C   2.3467806844  0.3226683090  0.4243570562
O   4.6246376007  2.2253129109 -0.2669923096
H  -2.4479855074 -0.3983429099  0.3430119483
H  -0.7858933250 -0.9585578937  0.2318070311
H  -1.0396415071 -0.4518217336 -0.9413531860
H   0.5615987775  1.3552920725  0.3506308367
H   0.7486287326  0.9175773867 -1.1570226390
H   2.4485587087  0.3938446883  1.0212937762
H   3.5894462934  1.2256228980 -0.9360884339
H   3.1682543324  0.0052817132  0.7588092609
H   4.8810925951  3.1009402709 -0.4112676163
17
Image 263  Energy = -420.5631298331
C  -1.6245995514  0.2873040626  0.2919269175
O  -1.7390699545  1.3917585663  0.5717423241
C  -0.7286210283 -0.1964384515 -0.1978254829
C   0.5633477785  0.5557133870 -0.2493967186
C   1.7552001235 -0.0397583345  0.0876094062
O   2.2315246329 -0.8636774056  0.0810212640
C   2.3441418294  0.3218769321  0.4260015655
O   4.6251113575  2.2253957221 -0.2680188923
H  -2.4460606808 -0.3998725421  0.3443270368
H  -0.7858348496 -0.9584391641  0.2293443716
H  -1.0405670350 -0.4497358332 -0.9416377882
H   0.5614471737  1.3562823115  0.3486083409
H   0.7492020430  0.9168827774 -1.1581004894
H   2.4464347447  0.3907467506  1.0218261328
H   3.5917039026  1.2257225796 -0.9362857749
H   3.1652348540  0.0052838698  0.7617056835
H   4.8814046597  3.1009547728 -0.4128478962
17
Image 264  Energy = -420.5596993104
C  -1.6232392809  0.2865232666  0.2930751229
O  -1.7380838705  1.3905260601  0.5739355598
C  -0.7284505971 -0.1958432187 -0.1985886622
C   0.5633861437  0.5561049795 -0.2503496023
C   1.7548145621 -0.0385569144  0.0879430217
O   2.2326138409 -0.8611335525  0.0813250113
C   2.3415036393  0.3210837807  0.4276479377
O   4.6255850542  2.2254783816 -0.2690454497
H  -2.4441358187 -0.4014022724  0.3456421773
H  -0.7857761879 -0.9583206035  0.2268815257
H  -1.0414926697 -0.4476498464 -0.9419227145
H   0.5612957354  1.3572725121  0.3465857846
H   0.7497755485  0.9161880033 -1.1591784151
H   2.4443101561  0.3876500230  1.0223579150
H   3.5939618188  1.2258225077 -0.9364833908
H   3.1622151902  0.0052875934  0.7646024589
H   4.8817167355  3.1009693006 -0.4144282801
17
Image 265  Energy = -420.5562334627
C  -1.6218793735  0.2857425935  0.2942237847
O  -1.7370978639  1.3892936696  0.5761290093
C  -0.7282794268 -0.1952481205 -0.1993518070
C   0.5634255135  0.5564964516 -0.2513022113
C   1.7544285426 -0.0373549900  0.0882765789
O   2.2337018837 -0.8585909769  0.0816271432
C   2.3388659111  0.3202890287  0.4292966001
O   4.6260587009  2.2255609050 -0.2700719738
H  -2.4422109641 -0.4029321063  0.3469573633
H  -0.7857173469 -0.9582021994  0.2244185034
H  -1.0424183980 -0.4455637808 -0.9422079444
H   0.5611444860  1.3582626722  0.3445631871
H   0.7503492494  0.9154930763 -1.1602564187
H   2.4421848370  0.3845545310  1.0228886632
H   3.5962200060  1.2259226739 -0.9366812853
H   3.1591954301  0.0052927334  0.7674995641
H   4.8820288129  3.1009838395 -0.4160087564
17
Image 266  Energy = -420.5527559980
C  -1.6205198364  0.2849620486  0.2953728957
O  -1.7361119312  1.3880613909  0.5783226442
C  -0.7281075184 -0.1946531610 -0.2001149013
C   0.5634658200  0.5568878296 -0.2522545394
C   1.7540422589 -0.0361522047  0.0886101484
O   2.2347890586 -0.8560500341  0.0819277099
C   2.3362283038  0.3194928488  0.4309478029
O   4.6265323031  2.2256433036 -0.2710984578
H  -2.4402861271 -0.4044620267  0.3482725772
H  -0.7856583257 -0.9580839428  0.2219553144
H  -1.0433442041 -0.4434776566 -0.9424934533
H   0.5609934492  1.3592527833  0.3425405654
H   0.7509231349  0.9147980118 -1.1613344933
H   2.4400586948  0.3814603282  1.0234180719
H   3.5984784263  1.2260230734 -0.9368794578
H   3.1561756103  0.0052990317  0.7703968837
H   4.8823408830  3.1009983769 -0.4175893106
17
Image 267  Energy = -420.5492692524
C  -1.6191610209  0.2841807381  0.2965233596
O  -1.7351268574  1.3868299169  0.5805154158
C  -0.7279352269 -0.1940589019 -0.2008776735
C   0.5635075544  0.5572797492 -0.2532070918
C   1.7536552149 -0.0349515422  0.0889438143
O   2.2358785126 -0.8535061345  0.0822261596
C   2.3335908967  0.3186922211  0.4326035989
O   4.6270050979  2.2257242160 -0.2721238059
H  -2.4383611389 -0.4059908184  0.3495871778
H  -0.7855990626 -0.9579657231  0.2194919796
H  -1.0442701410 -0.4413913158 -0.9427783285
H   0.5608428656  1.3602424541  0.3405185698
H   0.7514971731  0.9141029897 -1.1624122928
H   2.4379323323  0.3783679245  1.0239450127
H   3.6007362301  1.2261253280 -0.9370786804
H   3.1531550050  0.0053069258  0.7732925865
H   4.8826525649  3.1010119733 -0.4191698016
17
Image 268  Energy = -420.5457689470
C  -1.6178029849  0.2833984658  0.2976753878
O  -1.7341428209  1.3855994003  0.5827070687
C  -0.7277626395 -0.1934654730 -0.2016400582
C   0.5635507942  0.5576724005 -0.2541599802
C   1.7532673465 -0.0337535039  0.0892775753
O   2.2369713208 -0.8509585166  0.0825224082
C   2.3309533107  0.3178867071  0.4342645246
O   4.6274769105  2.2258033230 -0.2731477642
H  -2.4364359743 -0.4075182019  0.3509010133
H  -0.7855395441 -0.9578475119  0.2170284950
H  -1.0451962202 -0.4393047268 -0.9430623395
H   0.5606928009  1.3612315916  0.3384973432
H   0.7520713455  0.9134080667 -1.1634897303
H   2.4358058929  0.3752775451  1.0244692290
H   3.6029931964  1.2262298078 -0.9372791101
H   3.1501334938  0.0053162154  0.7761861348
H   4.8829637715  3.1010244117 -0.4207501969
17
Image 269  Energy = -420.5422353854
C  -1.6164455319  0.2826155892  0.2988285999
O  -1.7331594754  1.3843695235  0.5848980311
C  -0.7275896647 -0.1928726505 -0.2024021673
C   0.5635952786  0.5580656226 -0.2551129836
C   1.7528789264 -0.0325567613  0.0896112308
O   2.2380666552 -0.8484094414  0.0828167538
C   2.3283148630  0.3170780384  0.4359298719
O   4.6279480579  2.2258811807 -0.2741707913
H  -2.4345106985 -0.4090446841  0.3522143544
H  -0.7854798014 -0.9577293315  0.2145648065
H  -1.0461224163 -0.4372179399 -0.9433458102
H   0.5605431792  1.3622203534  0.3364765820
H   0.7526456556  0.9127131883 -1.1645669394
H   2.4336791410  0.3721892012  1.0249912757
H   3.6052496413  1.2263358217 -0.9374804027
H   3.1471115283  0.0053262168  0.7790781540
H   4.8832746617  3.1010360736 -0.4223305652
17
Image 270  Energy = -420.5386239386
C  -1.6150887455  0.2818317051  0.2999834293
O  -1.7321771215  1.3831405417  0.5870879282
C  -0.7274164847 -0.1922806570 -0.2031639206
C   0.5636411868  0.5584597921 -0.2560663344
C   1.7524892459 -0.0313631006  0.0899443443
O   2.2391659784 -0.8458570066  0.0831088440
C   2.3256754345  0.3162653721  0.4376004593
O   4.6284182417  2.2259572047 -0.2751924390
H  -2.4325851842 -0.4105698025  0.3535269761
H  -0.7854198176 -0.9576111485  0.2121008261
H  -1.0470487943 -0.4351308161 -0.9436283534
H   0.5603941074  1.3632086033  0.3344564806
H   0.7532201113  0.9120184264 -1.1656438086
H   2.4315524223  0.3691033582  1.0255113211
H   3.6075052282  1.2264440273 -0.9376828469
H   3.1440890936  0.0053369230  0.7819680011
H   4.8835850975  3.1010465782 -0.4239109068
17
Image 271  Energy = -420.5348795054
C  -1.6137325393  0.2810467575  0.3011399375
O  -1.7311957114  1.3819123951  0.5892768496
C  -0.7272431618 -0.1916894867 -0.2039253609
C   0.5636884614  0.5588550674 -0.2570200612
C   1.7520976693 -0.0301731722  0.0902762374
O   2.2402694371 -0.8433013307  0.0833984753
C   2.3230348150  0.3154492233  0.4392763400
O   4.6288874914  2.2260313820 -0.2762127224
H  -2.4306593404 -0.4120936181  0.3548389403
H  -0.7853596102 -0.9574929625  0.2096364120
H  -1.0479754097 -0.4330432462 -0.9439099478
H   0.5602455976  1.3641963778  0.3324369294
H   0.7537947491  0.9113237710 -1.1667203846
H   2.4294258834  0.3660203888  1.0260302021
H   3.6097599907  1.2265543928 -0.9378864225
H   3.1410665733  0.0053481273  0.7848558784
H   4.8838951045  3.1010559343 -0.4254913022
17
Image 272  Energy = -420.5309498197
C  -1.6123766697  0.2802610544  0.3022977525
O  -1.7302148287  1.3806846917  0.5914653458
C  -0.7270696448 -0.1910989111 -0.2046866454
C   0.5637367994  0.5592513453 -0.2579739632
C   1.7517039457 -0.0289860780  0.0906061898
O   2.2413757716 -0.8407447808  0.0836856614
C   2.3203925955  0.3146313736  0.4409567080
O   4.6293561724  2.2261043118 -0.2772321427
H  -2.4287331253 -0.4136167198  0.3561505952
H  -0.7852992370 -0.9573747779  0.2071713946
H  -1.0489022865 -0.4309551752 -0.9441909392
H   0.5600975581  1.3651838775  0.3304175200
H   0.7543696283  0.9106291221 -1.1677968558
H   2.4272994820  0.3629405003  1.0265492722
H   3.6120143459  1.2266661575 -0.9380908119
H   3.1380446218  0.0053594547  0.7877428092
H   4.8842048713  3.1010645547 -0.4270718899
17
Image 273  Energy = -420.5268118790
C  -1.6110212504  0.2794741604  0.3034573455
O  -1.7292347877  1.3794577007  0.5936530429
C  -0.7268960432 -0.1905091726 -0.2054477000
C   0.5637863298  0.5596489823 -0.2589283212
C   1.7513071906 -0.0278030577  0.0909338755
O   2.2424864866 -0.8381860466  0.0839697033
C   2.3177486712  0.3138105703  0.4426422192
O   4.6298239988  2.2261754014 -0.2782502147
H  -2.4268063708 -0.4151386398  0.3574617137
H  -0.7852387038 -0.9572565512  0.2047056846
H  -1.0498295336 -0.4288664299 -0.9444709566
H   0.5599500666  1.3661709708  0.3283984551
H   0.7549447934  0.9099345207 -1.1688731164
H   2.4251738253  0.3598641989  1.0270690550
H   3.6142679895  1.2267800112 -0.9382963819
H   3.1350230746  0.0053713268  0.7906282765
H   4.8845142631  3.1010720552 -0.4286526800
17
Image 274  Energy = -420.5224848920
C  -1.6096662948  0.2786860283  0.3046187218
O  -1.7282555900  1.3782314252  0.5958399227
C  -0.7267222898 -0.1899203037 -0.2062085228
C   0.5638369441  0.5600479900 -0.2598831803
C   1.7509075334 -0.0266228908  0.0912596751
O   2.2436019977 -0.8356264758  0.0842501949
C   2.3151023561  0.3129866086  0.4443325278
O   4.6302909919  2.2262446572 -0.2792668958
H  -2.4248790324 -0.4166593669  0.3587722867
H  -0.7851780506 -0.9571382317  0.2022392809
H  -1.0507571945 -0.4267769746 -0.9447499828
H   0.5598030889  1.3671576457  0.3263797331
H   0.7555202810  0.9092399331 -1.1699491420
H   2.4230492876  0.3567915668  1.0275899251
H   3.6165209261  1.2268959511 -0.9385032145
H   3.1320017608  0.0053840020  0.7935123424
H   4.8848232846  3.1010784362 -0.4302336719
17
Image 275  Energy = -420.5180206417
C  -1.6083118686  0.2778966273  0.3057818379
O  -1.7272772817  1.3770059269  0.5980258778
C  -0.7265482560 -0.1893323448 -0.2069690740
C   0.5638885303  0.5604482887 -0.2608385799
C   1.7505057934 -0.0254433735  0.0915847930
O   2.2447229160 -0.8330679396  0.0845267397
C   2.3124526136  0.3121590481  0.4460270950
O   4.6307571521  2.2263120892 -0.2802821096
H  -2.4229511303 -0.4181788293  0.3600822455
H  -0.7851173175 -0.9570197497  0.1997722939
H  -1.0516852793 -0.4246868491 -0.9450279901
H   0.5596565794  1.3681438502  0.3243614378
H   0.7560961025  0.9085453319 -1.1710248507
H   2.4209261964  0.3537223923  1.0281115793
H   3.6187730963  1.2270139889 -0.9387114073
H   3.1289802332  0.0053978584  0.7963949113
H   4.8851319202  3.1010836848 -0.4318147993
17
Image 276  Energy = -420.5134872418
C  -1.6069578872  0.2771063163  0.3069461373
O  -1.7262995430  1.3757809481  0.6002112240
C  -0.7263737162 -0.1887450944 -0.2077294079
C   0.5639407633  0.5608494727 -0.2617942853
C   1.7501038087 -0.0242604657  0.0919109124
O   2.2458483543 -0.8305145715  0.0847993551
C   2.3097980579  0.3113288542  0.4477244614
O   4.6312228023  2.2263783508 -0.2812962875
H  -2.4210227917 -0.4196974637  0.3613917829
H  -0.7850565745 -0.9569010256  0.1973048713
H  -1.0526137085 -0.4225962098 -0.9453052999
H   0.5595103978  1.3691296752  0.3223433880
H   0.7566722559  0.9078506155 -1.1721002662
H   2.4188044517  0.3506560324  1.0286335160
H   3.6210247761  1.2271333658 -0.9389207151
H   3.1259582472  0.0054130083  0.7992766226
H   4.8854403058  3.1010881924 -0.4333960086
17
Image 277  Energy = -420.5089329265
C  -1.6056045976  0.2763146912  0.3081120235
O  -1.7253228321  1.3745569345  0.6023953513
C  -0.7261986066 -0.1881587889 -0.2084893668
C   0.5639938245  0.5612516556 -0.2627505688
C   1.7497021896 -0.0230734274  0.0922397286
O   2.2469803049 -0.8279659896  0.0850673116
C   2.3071380196  0.3104942941  0.4494249327
O   4.6316875777  2.2264428129 -0.2823088425
H  -2.4190940231 -0.4212146332  0.3627005111
H  -0.7849958135 -0.9567820068  0.1948372036
H  -1.0535425005 -0.4205050701 -0.9455815017
H   0.5593646044  1.3701149085  0.3203260165
H   0.7572487065  0.9071558579 -1.1731751507
H   2.4166843659  0.3475921987  1.0291544135
H   3.6232754662  1.2272548586 -0.9391315092
H   3.1229350666  0.0054301884  0.8021565990
H   4.8857482474  3.1010915165 -0.4349771514
17
Image 278  Energy = -420.5043775598
C  -1.6042520346  0.2755217199  0.3092794632
O  -1.7243472026  1.3733339570  0.6045781706
C  -0.7260228418 -0.1875734073 -0.2092489375
C   0.5640477290  0.5616547150 -0.2637074281
C   1.7493014846 -0.0218811715  0.0925722805
O   2.2481190205 -0.8254231042  0.0853303403
C   2.3044721810  0.3096553662  0.4511282423
O   4.6321514441  2.2265054624 -0.2833197347
H  -2.4171648733 -0.4227302706  0.3640083677
H  -0.7849350493 -0.9566626677  0.1923693908
H  -1.0544716142 -0.4184134778 -0.9458565413
H   0.5592191796  1.3710995395  0.3183094047
H   0.7578254250  0.9064610597 -1.1742494438
H   2.4145658158  0.3445304619  1.0296734682
H   3.6255250692  1.2273784823 -0.9393437782
H   3.1199105452  0.0054497112  0.8050349052
H   4.8860557218  3.1010936249 -0.4365581697
17
Image 279  Energy = -420.4998161136
C  -1.6028999914  0.2747277479  0.3104479445
O  -1.7233722637  1.3721116706  0.6067601559
C  -0.7258463775 -0.1869886756 -0.2100082632
C   0.5641023123  0.5620583080 -0.2646645665
C   1.7489020449 -0.0206824346  0.0929086522
O   2.2492628185 -0.8228879839  0.0855887622
C   2.3018007174  0.3088138605  0.4528335874
O   4.6326147154  2.2265669374 -0.2843295122
H  -2.4152354142 -0.4242449131  0.3653156449
H  -0.7848743256 -0.9565429945  0.1899014141
H  -1.0554009483 -0.4163215031 -0.9461307318
H   0.5590740219  1.3720837628  0.3162932484
H   0.7584023964  0.9057661375 -1.1753232734
H   2.4124482938  0.3414702833  1.0301905487
H   3.6277739375  1.2275034457 -0.9395571246
H   3.1168851755  0.0054714328  0.8079126204
H   4.8863628870  3.1010949190 -0.4381391067
17
Image 280  Energy = -420.4952111062
C  -1.6015485584  0.2739323410  0.3116180047
O  -1.7223984197  1.3708904488  0.6089408762
C  -0.7256693678 -0.1864047775 -0.2107672951
C   0.5641578860  0.5624627020 -0.2656222412
C   1.7485021533 -0.0194799333  0.0932482135
O   2.2504130924 -0.8203577082  0.0858421308
C   2.2991248794  0.3079688434  0.4545422367
O   4.6330770098  2.2266265320 -0.2853376827
H  -2.4133055666 -0.4257580275  0.3666220667
H  -0.7848136071 -0.9564230416  0.1874332504
H  -1.0563305561 -0.4142290314 -0.9464036766
H   0.5589292320  1.3730674814  0.3142778434
H   0.7589795964  0.9050711843 -1.1763965359
H   2.4103318739  0.3384116824  1.0307052091
H   3.6300216876  1.2276305736 -0.9397717823
H   3.1138590857  0.0054957735  0.8107893326
H   4.8866695790  3.1010949580 -0.4397199499
17
Image 281  Energy = -420.4905183821
C  -1.6001976067  0.2731354444  0.3127896924
O  -1.7214256543  1.3696702815  0.6111204197
C  -0.7254919772 -0.1858216596 -0.2115261168
C   0.5642144836  0.5628679508 -0.2665804530
C   1.7481003251 -0.0182754776  0.0935897906
O   2.2515695138 -0.8178310837  0.0860904783
C   2.2964460492  0.3071209028  0.4562548882
O   4.6335382938  2.2266841890 -0.2863443078
H  -2.4113752910 -0.4272696552  0.3679276836
H  -0.7847528948 -0.9563028712  0.1849648116
H  -1.0572604473 -0.4121359931 -0.9466753581
H   0.5587848210  1.3740507652  0.3122631375
H   0.7595570217  0.9043762037 -1.1774692880
H   2.4082163661  0.3353545619  1.0312175118
H   3.6322683769  1.2277599123 -0.9399876511
H   3.1108328115  0.0055227998  0.8136655242
H   4.8869758085  3.1010937299 -0.4413007626
17
Image 282  Energy = -420.4857004112
C  -1.5988469995  0.2723370088  0.3139630533
O  -1.7204539505  1.3684511579  0.6132988766
C  -0.7253143922 -0.1852392680 -0.2122848105
C   0.5642720663  0.5632741403 -0.2675392264
C   1.7476951030 -0.0170708487  0.0939321356
O   2.2527317736 -0.8153069542  0.0863338370
C   2.2937656289  0.3062705434  0.4579723654
O   4.6339985376  2.2267398523 -0.2873494478
H  -2.4094445469 -0.4287798389  0.3692325474
H  -0.7846921907 -0.9561825557  0.1824960156
H  -1.0581906453 -0.4100423189 -0.9469457733
H   0.5586408005  1.3750336715  0.3102490795
H   0.7601346758  0.9036811955 -1.1785415874
H   2.4061016435  0.3322988878  1.0317275471
H   3.6345140834  1.2278915217 -0.9402046517
H   3.1078068244  0.0055525804  0.8165416487
H   4.8872815880  3.1010912258 -0.4428816087
17
Image 283  Energy = -420.4807438848
C  -1.5974964382  0.2715373947  0.3151375572
O  -1.7194828566  1.3672326688  0.6154768166
C  -0.7251367597 -0.1846573168 -0.2130435552
C   0.5643303034  0.5636810710 -0.2684982982
C   1.7472861200 -0.0158658898  0.0942741511
O   2.2538978772 -0.8127865607  0.0865727996
C   2.2910845499  0.3054196517  0.4596944994
O   4.6344580763  2.2267941794 -0.2883537191
H  -2.4075133667 -0.4302891828  0.3705370155
H  -0.7846315378 -0.9560621224  0.1800267735
H  -1.0591210873 -0.4079480370 -0.9472152874
H   0.5584970832  1.3760163931  0.3082352950
H   0.7607125709  0.9029860631 -1.1796136096
H   2.4039873306  0.3292443764  1.0322356530
H   3.6367592957  1.2280246111 -0.9404223972
H   3.1047817407  0.0055848207  0.8194188862
H   4.8875870986  3.1010878803 -0.4444625800
17
Image 284  Energy = -420.4756522953
C  -1.5961460629  0.2707362061  0.3163137644
O  -1.7185128233  1.3660152303  0.6176537381
C  -0.7249592328 -0.1840760101 -0.2138022670
C   0.5643893026  0.5640890966 -0.2694580141
C   1.7468719269 -0.0146628604  0.0946153124
O   2.2550697295 -0.8102671495  0.0868070364
C   2.2884038033  0.3045669220  0.4614226745
O   4.6349165215  2.2268464340 -0.2893565683
H  -2.4055817141 -0.4317971031  0.3718407706
H  -0.7845708940 -0.9559416617  0.1775571320
H  -1.0600518564 -0.4058530785 -0.9474835375
H   0.5583537751  1.3769987649  0.3062221414
H   0.7612906912  0.9022909039 -1.1806852183
H   2.4018737390  0.3261911880  1.0327414361
H   3.6390036261  1.2281600889 -0.9406412055
H   3.1017573001  0.0056197827  0.8222964367
H   4.8878921679  3.1010832468 -0.4460436314
17
Image 285  Energy = -420.4704519290
C  -1.5947958938  0.2699334641  0.3174916726
O  -1.7175438849  1.3647988769  0.6198295850
C  -0.7247818842 -0.1834953351 -0.2145609464
C   0.5644489334  0.5644982635 -0.2704184221
C   1.7464522450 -0.0134619151  0.0949554497
O   2.2562477566 -0.8077483503  0.0870368801
C   2.2857237394  0.3037124432  0.4631570121
O   4.6353738393  2.2268965802 -0.2903579769
H  -2.4036496460 -0.4333035545  0.3731437813
H  -0.7845102559 -0.9558212093  0.1750871451
H  -1.0609829328 -0.4037574927 -0.9477505138
H   0.5582108864  1.3779807534  0.3042096745
H   0.7618690214  0.9015957281 -1.1817563786
H   2.3997609008  0.3231391545  1.0332447752
H   3.6412470555  1.2282980171 -0.9408610820
H   3.0987333326  0.0056572612  0.8251740738
H   4.8881967870  3.1010773157 -0.4476247291
17
Image 286  Energy = -420.4651831315
C  -1.5934460097  0.2691292082  0.3186712714
O  -1.7165760887  1.3635836532  0.6220042592
C  -0.7246047351 -0.1829152953 -0.2153195693
C   0.5645090652  0.5649086019 -0.2713795716
C   1.7460272043 -0.0122626342  0.0952948123
O   2.2574326447 -0.8052301166  0.0872627420
C   2.2830442812  0.3028562169  0.4648972753
O   4.6358299939  2.2269445870 -0.2913579025
H  -2.4017172460 -0.4348084674  0.3744459934
H  -0.7844496172 -0.9557007827  0.1726168970
H  -1.0619142807 -0.4016613610 -0.9480161986
H   0.5580684243  1.3789623061  0.3021979733
H   0.7624475399  0.9009005500 -1.1828270272
H   2.3976488720  0.3200880570  1.0337455663
H   3.6434895269  1.2284384462 -0.9410820477
H   3.0957094840  0.0056969543  0.8280513393
H   4.8885009409  3.1010700771 -0.4492058126
17
Image 287  Energy = -420.4598861245
C  -1.5920963145  0.2683238782  0.3198519485
O  -1.7156090058  1.3623691602  0.6241781890
C  -0.7244277665 -0.1823356570 -0.2160782218
C   0.5645693256  0.5653198423 -0.2723411941
C   1.7455981848 -0.0110625641  0.0956338886
O   2.2586231827 -0.8027150215  0.0874855732
C   2.2803647230  0.3019997972  0.4666420185
O   4.6362853281  2.2269911707 -0.2923568980
H  -2.3997846413 -0.4363123726  0.3757476910
H  -0.7843890119 -0.9555803230  0.1701464172
H  -1.0628457678 -0.3995648376 -0.9482809333
H   0.5579262858  1.3799435357  0.3001867410
H   0.7630262355  0.9002052775 -1.1838972339
H   2.3955374138  0.3170374136  1.0342440684
H   3.6457314124  1.2285805052 -0.9413037853
H   3.0926856244  0.0057382180  0.8309285986
H   4.8888047916  3.1010619780 -0.4507868673
17
Image 288  Energy = -420.4540179015
C  -1.5907471175  0.2675171087  0.3210342879
O  -1.7146431463  1.3611558605  0.6263507480
C  -0.7242509189 -0.1817566676 -0.2168367445
C   0.5646297891  0.5657323183 -0.2733036903
C   1.7451651416 -0.0098619836  0.0959736483
O   2.2598221843 -0.8002018475  0.0877048971
C   2.2776843865  0.3011416482  0.4683915800
O   4.6367394395  2.2270355758 -0.2933543093
H  -2.3978518546 -0.4378146084  0.3770484873
H  -0.7843283747 -0.9554598820  0.1676758304
H  -1.0637774641 -0.3974679247 -0.9485443356
H   0.5577845416  1.3809242426  0.2981763981
H   0.7636050785  0.8995100207 -1.1849667931
H   2.3934270237  0.3139873660  1.0347400154
H   3.6479721940  1.2287250945 -0.9415266596
H   3.0896609527  0.0057811274  0.8338044235
H   4.8891081445  3.1010525519 -0.4523677832
17
Image 289  Energy = -420.4488077933
C  -1.5893982934  0.2667086548  0.3222180377
O  -1.7136786671  1.3599441152  0.6285217882
C  -0.7240740520 -0.1811782954 -0.2175949463
C   0.5646901656  0.5661459958 -0.2742671344
C   1.7447320742 -0.0086575646  0.0963174163
O   2.2610322253 -0.7976937609  0.0879210198
C   2.2750022786  0.3002816817  0.4701442284
O   4.6371921746  2.2270775764 -0.2943498604
H  -2.3959190501 -0.4393150610  0.3783482378
H  -0.7842677465 -0.9553394093  0.1652053202
H  -1.0647093726 -0.3953707752 -0.9488063113
H   0.5576430907  1.3819044648  0.2961671614
H   0.7641839649  0.8988148354 -1.1860355987
H   2.3913192083  0.3109377093  1.0352344119
H   3.6502116061  1.2288720599 -0.9417505272
H   3.0866294394  0.0058260132  0.8366751577
H   4.8894109538  3.1010417608 -0.4539484007
17
Image 290  Energy = -420.4436298264
C  -1.5880500887  0.2658987414  0.3234034301
O  -1.7127154746  1.3587336168  0.6306913434
C  -0.7238971418 -0.1806005772 -0.2183529501
C   0.5647504168  0.5665609924 -0.2752316612
C   1.7442971785 -0.0074495371  0.0966641084
O   2.2622522876 -0.7951907883  0.0881331650
C   2.2723168706  0.2994203666  0.4719004285
O   4.6376436322  2.2271173385 -0.2953437311
H  -2.3939861271 -0.4408137585  0.3796470289
H  -0.7842070360 -0.9552189450  0.1627347853
H  -1.0656415062 -0.3932733009 -0.9490669188
H   0.5575019151  1.3828841727  0.2941588610
H   0.7647629767  0.8981196729 -1.1871036861
H   2.3892129267  0.3078885761  1.0357265702
H   3.6524497833  1.2290215330 -0.9419755333
H   3.0835961523  0.0058722888  0.8395435686
H   4.8897132345  3.1010296089 -0.4555288083
17
Image 291  Energy = -420.4385080933
C  -1.5867023006  0.2650877517  0.3245898144
O  -1.7117530885  1.3575239103  0.6328599454
C  -0.7237201685 -0.1800232689 -0.2191108654
C   0.5648101923  0.5669770006 -0.2761970208
C   1.7438624673 -0.0062349230  0.0970147000
O   2.2634806788 -0.7926967308  0.0883416375
C   2.2696266601  0.2985595959  0.4736586252
O   4.6380941830  2.2271556106 -0.2963365262
H  -2.3920531241 -0.4423113050  0.3809452056
H  -0.7841462689 -0.9550984104  0.1602641758
H  -1.0665737814 -0.3911755736 -0.9493265034
H   0.5573608440  1.3838635663  0.2921511145
H   0.7653421283  0.8974244221 -1.1881711962
H   2.3871080538  0.3048396788  1.0362168298
H   3.6546871584  1.2291725594 -0.9422013306
H   3.0805612089  0.0059195656  0.8424104370
H   4.8900151571  3.1010165512 -0.4571090423
17
Image 292  Energy = -420.4334572052
C  -1.5853551541  0.2642752692  0.3257777988
O  -1.7107920548  1.3563154997  0.6350269986
C  -0.7235430847 -0.1794466169 -0.2198685513
C   0.5648697162  0.5673942504 -0.2771636083
C   1.7434276615 -0.0050141994  0.0973702132
O   2.2647199917 -0.7902105569  0.0885454052
C   2.2669309047  0.2976979351  0.4754193480
O   4.6385434205  2.2271916002 -0.2973275810
H  -2.3901200194 -0.4438070458  0.3822423835
H  -0.7840853740 -0.9549778921  0.1577936023
H  -1.0675063257 -0.3890775526 -0.9495846852
H   0.5572199030  1.3848425156  0.2901443542
H   0.7659214117  0.8967291954 -1.1892379838
H   2.3850050992  0.3017912468  1.0367049306
H   3.6569232237  1.2293260764 -0.9424282642
H   3.0775241585  0.0059681725  0.8452746579
H   4.8903165220  3.1010021035 -0.4586890180
17
Image 293  Energy = -420.4284975694
C  -1.5840086548  0.2634612824  0.3269673593
O  -1.7098324320  1.3551084416  0.6371924639
C  -0.7233659135 -0.1788706191 -0.2206260047
C   0.5649290793  0.5678126004 -0.2781314256
C   1.7429930164 -0.0037866821  0.0977312874
O   2.2659705297 -0.7877328338  0.0887442799
C   2.2642291901  0.2968354368  0.4771822676
O   4.6389913270  2.2272252822 -0.2983168628
H  -2.3881868244 -0.4453009478  0.3835385273
H  -0.7840243317 -0.9548574069  0.1553231131
H  -1.0684391599 -0.3869792684 -0.9498414454
H   0.5570790257  1.3858210574  0.2881386388
H   0.7665008341  0.8960339958 -1.1903040613
H   2.3829041831  0.2987431750  1.0371908019
H   3.6591579468  1.2294821011 -0.9426563305
H   3.0744848704  0.0060181347  0.8481360960
H   4.8906173134  3.1009862518 -0.4602687046
17
Image 294  Energy = -420.4236560219
C  -1.5826625764  0.2626461900  0.3281578037
O  -1.7088737532  1.3539023066  0.6393568936
C  -0.7231887731 -0.1782950242 -0.2213833663
C   0.5649882303  0.5682315498 -0.2791000648
C   1.7425594314 -0.0025504592  0.0980981879
O   2.2672301849 -0.7852658576  0.0889390108
C   2.2615213661  0.2959737356  0.4789461022
O   4.6394382894  2.2272574350 -0.2993050030
H  -2.3862535695 -0.4467936294  0.3848339753
H  -0.7839631762 -0.9547368787  0.1528526711
H  -1.0693721845 -0.3848808116 -0.9500971264
H   0.5569380575  1.3867993965  0.2861336164
H   0.7670804179  0.8953387124 -1.1913696062
H   2.3808050698  0.2956950423  1.0376746043
H   3.6613917997  1.2296396796 -0.9428851722
H   3.0714434794  0.0060691455  0.8509956077
H   4.8909177064  3.1009694682 -0.4618481336
17
Image 295  Energy = -420.4188833952
C  -1.5813171525  0.2618295870  0.3293497707
O  -1.7079166081  1.3526976518  0.6415196869
C  -0.7230117039 -0.1777200817 -0.2221405140
C   0.5650477162  0.5686511937 -0.2800697863
C   1.7421253519 -0.0013071757  0.0984710648
O   2.2685014368 -0.7828070875  0.0891288982
C   2.2588078995  0.2951111539  0.4807116337
O   4.6398839039  2.2272872495 -0.3002913182
H  -2.3843202325 -0.4482844256  0.3861283209
H  -0.7839018331 -0.9546164166  0.1503823961
H  -1.0703055230 -0.3827821580 -0.9503513479
H   0.5567970446  1.3877774019  0.2841297542
H   0.7676601505  0.8946434773 -1.1924345097
H   2.3787082676  0.2926469950  1.0381562446
H   3.6636242812  1.2297998022 -0.9431151316
H   3.0683994977  0.0061215676  0.8538520601
H   4.8912175031  3.1009512661 -0.4634272221
17
Image 296  Energy = -420.4142907047
C  -1.5799721694  0.2610118850  0.3305425548
O  -1.7069605015  1.3514940199  0.6436814401
C  -0.7228348286 -0.1771455592 -0.2228976344
C   0.5651076973  0.5690710596 -0.2810401111
C   1.7416911398 -0.0000556223  0.0988496494
O   2.2697819672 -0.7803581651  0.0893148619
C   2.2560890688  0.2942493485  0.4824775949
O   4.6403285854  2.2273155353 -0.3012764542
H  -2.3823868380 -0.4497739877  0.3874219419
H  -0.7838403282 -0.9544959818  0.1479122453
H  -1.0712391100 -0.3806833661 -0.9506044593
H   0.5566558417  1.3887552840  0.2821266546
H   0.7682400612  0.8939481999 -1.1934989838
H   2.3766136326  0.2895986612  1.0386362482
H   3.6658558930  1.2299614937 -0.9433458529
H   3.0653530001  0.0061750727  0.8567063304
H   4.8915168885  3.1009321232 -0.4650060255
17
Image 297  Energy = -420.4098080658
C  -1.5786278081  0.2601926663  0.3317368586
O  -1.7060060213  1.3502919695  0.6458415786
C  -0.7226582189 -0.1765717374 -0.2236545601
C   0.5651688436  0.5694912624 -0.2820112708
C   1.7412549270  0.0012017069  0.0992335888
O   2.2710740201 -0.7779158300  0.0894961750
C   2.2533655114  0.2933865578  0.4842447844
O   4.6407719351  2.2273414694 -0.3022597215
H  -2.3804533324 -0.4512616633  0.3887144322
H  -0.7837785883 -0.9543756406  0.1454422464
H  -1.0721730056 -0.3785844015 -0.9508560728
H   0.5565145135  1.3897329272  0.2801247469
H   0.7688201134  0.8932530347 -1.1945629520
H   2.3745217586  0.2865503583  1.0391150379
H   3.6680861451  1.2301257490 -0.9435776806
H   3.0623035350  0.0062300232  0.8595572961
H   4.8918156717  3.1009115490 -0.4665844867
17
Image 298  Energy = -420.4054124767
C  -1.5772840224  0.2593719223  0.3329327108
O  -1.7050532032  1.3490915429  0.6480001384
C  -0.7224819506 -0.1759986715 -0.2244112939
C   0.5652316727  0.5699116836 -0.2829831278
C   1.7408159162  0.0024634762  0.0996222706
O   2.2723771776 -0.7754786482  0.0896728375
C   2.2506377587  0.2925225150  0.4860130071
O   4.6412139723  2.2273650482 -0.3032410991
H  -2.3785196889 -0.4527474644  0.3900057950
H  -0.7837165875 -0.9542554092  0.1429723479
H  -1.0731071941 -0.3764852550 -0.9511061701
H   0.5563730281  1.3907103903  0.2781240113
H   0.7694002970  0.8925580264 -1.1956264978
H   2.3724328567  0.2835022447  1.0395933881
H   3.6703150563  1.2302925754 -0.9438106220
H   3.0592510581  0.0062864942  0.8624049288
H   4.8921138528  3.1008895302 -0.4681626242
17
Image 299  Energy = -420.4010859793
C  -1.5759405008  0.2585500547  0.3341294337
O  -1.7041015102  1.3478922463  0.6501577776
C  -0.7223061578 -0.1754261836 -0.2251679723
C   0.5652964494  0.5703319392 -0.2839551679
C   1.7403744741  0.0037296466  0.1000149234
O   2.2736882623 -0.7730470707  0.0898456851
C   2.2479062014  0.2916584278  0.4877810484
O   4.6416551342  2.2273871099 -0.3042212692
H  -2.3765858906 -0.4542320796  0.3912964372
H  -0.7836543606 -0.9541351871  0.1405023845
H  -1.0740415214 -0.3743859606 -0.9513550987
H   0.5562312685  1.3916878966  0.2761239717
H   0.7699806210  0.8918630891 -1.1966898515
H   2.3703466910  0.2804542831  1.0400722033
H   3.6725431785  1.2304609522 -0.9440443380
H   3.0561960317  0.0063442863  0.8652503585
H   4.8924116293  3.1008665507 -0.4697405255
17
Image 300  Energy = -420.3967907678
C  -1.5745974225  0.2577266586  0.3353277713
O  -1.7031515243  1.3466946316  0.6523139240
C  -0.7221307912 -0.1748546058 -0.2259244509
C   0.5653638974  0.5707523325 -0.2849276241
C   1.7399285750  0.0049965308  0.1004105754
O   2.2750087435 -0.7706164594  0.0900138890
C   2.2451718137  0.2907918336  0.4895500769
O   4.6420950238  2.2274068225 -0.3051995369
H  -2.3746519084 -0.4557148472  0.3925859779
H  -0.7835918294 -0.9540151060  0.1380323966
H  -1.0749760841 -0.3722864508 -0.9516024958
H   0.5560893235  1.3926653096  0.2741250361
H   0.7705610602  0.8911683735 -1.1977529039
H   2.3682635963  0.2774070206  1.0405518558
H   3.6747700322  1.2306319098 -0.9442792046
H   3.0531386839  0.0064039474  0.8680928586
H   4.8927088102  3.1008420997 -0.4713181451
17
Image 301  Energy = -420.3925124621
C  -1.5732544724  0.2569021553  0.3365270348
O  -1.7022026738  1.3454981648  0.6544692166
C  -0.7219559422 -0.1742837567 -0.2266808607
C   0.5654339896  0.5711726154 -0.2859000208
C   1.7394782584  0.0062635536  0.1008078895
O   2.2763350957 -0.7681864611  0.0901785997
C   2.2424355670  0.2899236913  0.4913194370
O   4.6425340572  2.2274250224 -0.3061766176
H  -2.3727177512 -0.4571964472  0.3938748302
H  -0.7835290468 -0.9538950579  0.1355622395
H  -1.0759107127 -0.3701867587 -0.9518487285
H   0.5559471083  1.3936428076  0.2721267360
H   0.7711416352  0.8904737544 -1.1988158257
H   2.3661830571  0.2743602948  1.0410326145
H   3.6769961869  1.2308044330 -0.9445148724
H   3.0500800458  0.0064653210  0.8709338884
H   4.8930055978  3.1008166690 -0.4728955600
17
Image 302  Energy = -420.3882310963
C  -1.5719118597  0.2560761635  0.3377279870
O  -1.7012555181  1.3443033668  0.6566230161
C  -0.7217815119 -0.1737139409 -0.2274370539
C   0.5655069520  0.5715932557 -0.2868726993
C   1.7390210576  0.0075266493  0.1012051888
O   2.2776688330 -0.7657518217  0.0903394746
C   2.2396992603  0.2890515969  0.4930910688
O   4.6429717897  2.2274408381 -0.3071518249
H  -2.3707834456 -0.4586761818  0.3951625967
H  -0.7834659602 -0.9537751756  0.1330920082
H  -1.0768454978 -0.3680868317 -0.9520934495
H   0.5558047418  1.3946201954  0.2701295254
H   0.7717223286  0.8897793440 -1.1998784273
H   2.3641051907  0.2713143316  1.0415140923
H   3.6792211391  1.2309796014 -0.9447516882
H   3.0470206992  0.0065288633  0.8737728878
H   4.8933018011  3.1007897467 -0.4744727023
17
Image 303  Energy = -420.3839935885
C  -1.5705693415  0.2552491567  0.3389299048
O  -1.7003094636  1.3431096758  0.6587758665
C  -0.7216075505 -0.1731449365 -0.2281931390
C   0.5655820872  0.5720141935 -0.2878453789
C   1.7385573759  0.0087856988  0.1016011710
O   2.2790068165 -0.7633122710  0.0904983530
C   2.2369641730  0.2881766852  0.4948645706
O   4.6434086064  2.2274551143 -0.3081258804
H  -2.3688490980 -0.4601546866  0.3964496607
H  -0.7834026505 -0.9536553334  0.1306216513
H  -1.0777802467 -0.3659867751 -0.9523370359
H   0.5556621850  1.3955975429  0.2681329896
H   0.7723031586  0.8890849824 -1.2009407304
H   2.3620294878  0.2682684939  1.0419957428
H   3.6814453886  1.2311564082 -0.9449892808
H   3.0439614539  0.0065942163  0.8766111298
H   4.8935976179  3.1007618358 -0.4760495943
17
Image 304  Energy = -420.3798875163
C  -1.5692273171  0.2544208615  0.3401335079
O  -1.6993651586  1.3419177079  0.6609269196
C  -0.7214338787 -0.1725770276 -0.2289488896
C   0.5656589127  0.5724361402 -0.2888187231
C   1.7380866799  0.0100383589  0.1019957123
O   2.2803514154 -0.7608633344  0.0906555524
C   2.2342312405  0.2872960978  0.4966409752
O   4.6438440539  2.2274670187 -0.3090980075
H  -2.3669149422 -0.4616311368  0.3977355152
H  -0.7833390565 -0.9535356718  0.1281514684
H  -1.0787150248 -0.3638867521 -0.9525791565
H   0.5555196415  1.3965744215  0.2661377131
H   0.7728840749  0.8883907710 -1.2020022339
H   2.3599564367  0.2652224985  1.0424763963
H   3.6836682121  1.2313359603 -0.9452280399
H   3.0409018797  0.0066616635  0.8794473221
H   4.8938928304  3.1007324240 -0.4776260318
17
Image 305  Energy = -420.3760293285
C  -1.5678857383  0.2535918578  0.3413379650
O  -1.6984221276  1.3407270400  0.6630765345
C  -0.7212605533 -0.1720099739 -0.2297043289
C   0.5657362527  0.5728592497 -0.2897927537
C   1.7376123855  0.0112868651  0.1023902356
O   2.2817003201 -0.7584060756  0.0908133565
C   2.2315000629  0.2864102273  0.4984180241
O   4.6442785638  2.2274775053 -0.3100688301
H  -2.3649812876 -0.4631060512  0.3990204304
H  -0.7832752137 -0.9534160635  0.1256816176
H  -1.0796496259 -0.3617871258 -0.9528202064
H   0.5553771505  1.3975506400  0.2641433924
H   0.7734650405  0.8876965445 -1.2030626216
H   2.3578861214  0.2621752958  1.0429550216
H   3.6858898731  1.2315172124 -0.9454676744
H   3.0378411654  0.0067308231  0.8822817252
H   4.8941876104  3.1007020301 -0.4792018876
17
Image 306  Energy = -420.3724265306
C  -1.5665449989  0.2527618129  0.3425439697
O  -1.6974810606  1.3395383538  0.6652238942
C  -0.7210875949 -0.1714440102 -0.2304592761
C   0.5658138091  0.5732842113 -0.2907681478
C   1.7371353588  0.0125296326  0.1027859670
O   2.2830562606 -0.7559373801  0.0909715580
C   2.2287709046  0.2855166090  0.5001959531
O   4.6447117360  2.2274857760 -0.3110375422
H  -2.3630483400 -0.4645786161  0.4003038930
H  -0.7832110151 -0.9532966452  0.1232123979
H  -1.0805841888 -0.3596880751 -0.9530598475
H   0.5552348576  1.3985257856  0.2621505913
H   0.7740459537  0.8870024168 -1.2041214113
H   2.3558193621  0.2591266643  1.0434311013
H   3.6881096144  1.2317012327 -0.9457085881
H   3.0347776002  0.0068020862  0.8851124534
H   4.8944817412  3.1006701464 -0.4807769656
17
Image 307  Energy = -420.3690134722
C  -1.5652047432  0.2519310470  0.3437507372
O  -1.6965413103  1.3383510509  0.6673697270
C  -0.7209154111 -0.1708788031 -0.2312139591
C   0.5658912318  0.5737108059 -0.2917445327
C   1.7366572560  0.0137673865  0.1031828330
O   2.2844165655 -0.7534596214  0.0911310064
C   2.2260444166  0.2846179891  0.5019738245
O   4.6451440388  2.2274927346 -0.3120049238
H  -2.3611160339 -0.4660495899  0.4015863673
H  -0.7831465149 -0.9531772379  0.1207436292
H  -1.0815186429 -0.3575895828 -0.9532984312
H   0.5550925853  1.3995000911  0.2601587581
H   0.7746267850  0.8863082399 -1.2051788308
H   2.3537559996  0.2560761414  1.0439054355
H   3.6903280429  1.2318869031 -0.9459503813
H   3.0317102892  0.0068751452  0.8879401285
H   4.8947754455  3.1006373014 -0.4823513875
17
Image 308  Energy = -420.3656856315
C  -1.5638647675  0.2510993793  0.3449582969
O  -1.6956027432  1.3371649958  0.6695142542
C  -0.7207443077 -0.1703142792 -0.2319685160
C   0.5659687715  0.5741389074 -0.2927217238
C   1.7361771354  0.0149985535  0.1035795197
O   2.2857809867 -0.7509732609  0.0912909802
C   2.2233217631  0.2837162389  0.5037527117
O   4.6455754985  2.2274983603 -0.3129710891
H  -2.3591841471 -0.4675191222  0.4028679825
H  -0.7830817424 -0.9530577816  0.1182751034
H  -1.0824530938 -0.3554913994 -0.9535359368
H   0.5549501907  1.4004738126  0.2581677319
H   0.7752075306  0.8856140171 -1.2062352003
H   2.3516959433  0.2530239524  1.0443793797
H   3.6925453859  1.2320741984 -0.9461929780
H   3.0286388340  0.0069499299  0.8907647958
H   4.8950687618  3.1006034986 -0.4839253116
17
Image 309  Energy = -420.3623874338
C  -1.5625251900  0.2502662497  0.3461674557
O  -1.6946658684  1.3359806551  0.6716569721
C  -0.7205743075 -0.1697506943 -0.2327228746
C   0.5660468964  0.5745686411 -0.2936999484
C   1.7356929845  0.0162207336  0.1039749747
O   2.2871521295 -0.7484767345  0.0914497587
C   2.2206033118  0.2828109819  0.5055344821
O   4.6460056939  2.2275017414 -0.3139353706
H  -2.3572525109 -0.4689866022  0.4041484075
H  -0.7830166867 -0.9529383712  0.1158067970
H  -1.0833877662 -0.3533932595 -0.9537719903
H   0.5548076916  1.4014469897  0.2561779072
H   0.7757882146  0.8849199021 -1.2072906256
H   2.3496393262  0.2499708123  1.0448539747
H   3.6947612693  1.2322642311 -0.9464367022
H   3.0255633039  0.0070265230  0.8935855675
H   4.8953615078  3.1005682017 -0.4854987850
17
Image 310  Energy = -420.3591498146
C  -1.5611856669  0.2494319978  0.3473773833
O  -1.6937300286  1.3347973992  0.6737985705
C  -0.7204054813 -0.1691878608 -0.2334771352
C   0.5661252131  0.5749995272 -0.2946787984
C   1.7352064691  0.0174367736  0.1043696432
O   2.2885277357 -0.7459736480  0.0916080876
C   2.2178873226  0.2819043644  0.5073174290
O   4.6464350830  2.2275037998 -0.3148985430
H  -2.3553210577 -0.4704527574  0.4054280970
H  -0.7829514882 -0.9528188148  0.1133385739
H  -1.0843225317 -0.3512950963 -0.9540069490
H   0.5546650440  1.4024198424  0.2541888170
H   0.7763689582  0.8842257597 -1.2083453312
H   2.3475855376  0.2469167289  1.0453297298
H   3.6969763325  1.2324559243 -0.9466812101
H   3.0224846714  0.0071041441  0.8964035376
H   4.8956538869  3.1005319170 -0.4870719016
17
Image 311  Energy = -420.3560037477
C  -1.5598464946  0.2485961932  0.3485888013
O  -1.6927958833  1.3336158601  0.6759382849
C  -0.7202375519 -0.1686261572 -0.2342310384
C   0.5662037573  0.5754318081 -0.2956587706
C   1.7347174525  0.0186467306  0.1047645663
O   2.2899108870 -0.7434623307  0.0917649730
C   2.2151719413  0.2809936426  0.5091014510
O   4.6468632369  2.2275036754 -0.3158597985
H  -2.3533898647 -0.4719167867  0.4067065689
H  -0.7828861539 -0.9526992549  0.1108706856
H  -1.0852575237 -0.3491968922 -0.9542404613
H   0.5545224902  1.4033920944  0.2522010761
H   0.7769498502  0.8835317305 -1.2093990163
H   2.3455346862  0.2438624370  1.0458065968
H   3.6991899382  1.2326504324 -0.9469269265
H   3.0194035621  0.0071827253  0.8992175303
H   4.8959456702  3.1004940931 -0.4886445223
17
Image 312  Energy = -420.3529785686
C  -1.5585073792  0.2477592225  0.3498008208
O  -1.6918628251  1.3324354688  0.6780767180
C  -0.7200704950 -0.1680653976 -0.2349845960
C   0.5662819513  0.5758651191 -0.2966396051
C   1.7342281789  0.0198541233  0.1051609405
O   2.2912991979 -0.7409456646  0.0919215610
C   2.2124552614  0.2800792893  0.5108839236
O   4.6472906087  2.2275023179 -0.3168198651
H  -2.3514589582 -0.4733793521  0.4079842252
H  -0.7828208402 -0.9525795321  0.1084030962
H  -1.0861925642 -0.3470987037 -0.9544728988
H   0.5543801127  1.4043637936  0.2502142788
H   0.7775310367  0.8828376544 -1.2104516842
H   2.3434861735  0.2408080238  1.0462847729
H   3.7014026225  1.2328466654 -0.9471735422
H   3.0163208661  0.0072617201  0.9020285278
H   4.8962370521  3.1004552529 -0.4902166732
17
Image 313  Energy = -420.3500499523
C  -1.5571682654  0.2469210318  0.3510134038
O  -1.6909308349  1.3312562108  0.6802138733
C  -0.7199042127 -0.1675055845 -0.2357377133
C   0.5663596198  0.5762994395 -0.2976214109
C   1.7337386891  0.0210596918  0.1055590127
O   2.2926925815 -0.7384236444  0.0920776404
C   2.2097369802  0.2791599208  0.5126640803
O   4.6477172015  2.2274997425 -0.3177787344
H  -2.3495283100 -0.4748404451  0.4092610730
H  -0.7827556373 -0.9524596579  0.1059358128
H  -1.0871276482 -0.3450005057 -0.9547042803
H   0.5542380577  1.4053348709  0.2482284417
H   0.7781126110  0.8821435195 -1.2115032517
H   2.3414397940  0.2377540921  1.0467648789
H   3.7036144161  1.2330446497 -0.9474210949
H   3.0132369200  0.0073412652  0.9048366350
H   4.8965280376  3.1004154039 -0.4917883658
17
Image 314  Energy = -420.3471638019
C  -1.5558293653  0.2460811435  0.3522273930
O  -1.6900005043  1.3300786470  0.6823491230
C  -0.7197385152 -0.1669469238 -0.2364902027
C   0.5664369859  0.5767350846 -0.2986046742
C   1.7332469376  0.0222614903  0.1059581533
O   2.2940934410 -0.7358935517  0.0922315940
C   2.2070180614  0.2782324742  0.5144430651
O   4.6481425615  2.2274950153 -0.3187356398
H  -2.3475978577 -0.4762993656  0.4105367050
H  -0.7826905619 -0.9523398229  0.1034689074
H  -1.0880629529 -0.3429022024 -0.9549342668
H   0.5540965170  1.4063051480  0.2462440285
H   0.7786945867  0.8814494860 -1.2125535614
H   2.3393957712  0.2347017501  1.0472478621
H   3.7058248153  1.2332455587 -0.9476699704
H   3.0101516468  0.0074220508  0.9076410667
H   4.8968184327  3.1003740189 -0.4933595823
17
Image 315  Energy = -420.3443009183
C  -1.5544903151  0.2452399342  0.3534419932
O  -1.6890711235  1.3289020928  0.6844832319
C  -0.7195735019 -0.1663890674 -0.2372422014
C   0.5665136554  0.5771717237 -0.2995890895
C   1.7327535953  0.0234611566  0.1063579675
O   2.2954987613 -0.7333576569  0.0923840823
C   2.2042988280  0.2772977760  0.5162196066
O   4.6485671320  2.2274890527 -0.3196913979
H  -2.3456674766 -0.4777569119  0.4118116199
H  -0.7826257669 -0.9522198843  0.1010021484
H  -1.0889983495 -0.3408037558 -0.9551632340
H   0.5539554553  1.4072748244  0.2442604486
H   0.7792769713  0.8807554482 -1.2136028347
H   2.3373537443  0.2316513196  1.0477346708
H   3.7080345231  1.2334482815 -0.9479197992
H   3.0070654047  0.0075040262  0.9104432545
H   4.8971084626  3.1003316415 -0.4949304667
17
Image 316  Energy = -420.3414733882
C  -1.5531514826  0.2443970241  0.3546580785
O  -1.6881433306  1.3277271539  0.6866154759
C  -0.7194089405 -0.1658322383 -0.2379935705
C   0.5665898309  0.5776096942 -0.3005751893
C   1.7322573127  0.0246567109  0.1067581517
O   2.2969109913 -0.7308127209  0.0925338793
C   2.2015796075  0.2763524603  0.5179946075
O   4.6489904322  2.2274809175 -0.3206452133
H  -2.3437371935 -0.4792123379  0.4130853560
H  -0.7825612275 -0.9521000360  0.0985356924
H  -1.0899340173 -0.3387051653 -0.9553908338
H   0.5538150066  1.4082437031  0.2422782075
H   0.7798596500  0.8800616380 -1.2146508749
H   2.3353142766  0.2286038165  1.0482257573
H   3.7102429451  1.2336540122 -0.9481709434
H   3.0039782330  0.0075876526  0.9132423485
H   4.8973979059  3.1002877164 -0.4965009290
17
Image 317  Energy = -420.3387386842
C  -1.5518127550  0.2435529213  0.3558748278
O  -1.6872164981  1.3265532256  0.6887464674
C  -0.7192448182 -0.1652761629 -0.2387444439
C   0.5666649900  0.5780486960 -0.3015627467
C   1.7317604528  0.0258505081  0.1071595032
O   2.2983272052 -0.7282605446  0.0926824842
C   2.1988591803  0.2753967247  0.5197657586
O   4.6494128894  2.2274715672 -0.3215978613
H  -2.3418070442 -0.4806663598  0.4143583256
H  -0.7824970257 -0.9519801021  0.0960694634
H  -1.0908697949 -0.3366065542 -0.9556174345
H   0.5536751019  1.4092119113  0.2402967979
H   0.7804425419  0.8793680015 -1.2156977492
H   2.3332774415  0.2255592728  1.0487211329
H   3.7124506254  1.2338616137 -0.9484230209
H   3.0008905567  0.0076725172  0.9160394794
H   4.8976869508  3.1002427654 -0.4980709835
17
Image 318  Energy = -420.3361765247
C  -1.5504744076  0.2427077531  0.3570922480
O  -1.6862907048  1.3253803760  0.6908760549
C  -0.7190809347 -0.1647208668 -0.2394947735
C   0.5667389045  0.5784887924 -0.3025519471
C   1.7312649990  0.0270436695  0.1075635157
O   2.2997474925 -0.7257009262  0.0928303322
C   2.1961355265  0.2744290410  0.5215315243
O   4.6498344892  2.2274610460 -0.3225492879
H  -2.3398771702 -0.4821189077  0.4156304446
H  -0.7824331202 -0.9518600709  0.0936035985
H  -1.0918056652 -0.3345080927 -0.9558430424
H   0.5535357610  1.4101793776  0.2383162738
H   0.7810255513  0.8786746358 -1.2167432715
H   2.3312437401  0.2225179433  1.0492203937
H   3.7146574010  1.2340710687 -0.9486760205
H   2.9978025773  0.0077583980  0.9188344717
H   4.8979755603  3.1001967642 -0.4996405141
17
Image 319  Energy = -420.3338575950
C  -1.5491369588  0.2418612143  0.3583111577
O  -1.6853667339  1.3242093404  0.6930033386
C  -0.7189170161 -0.1641666450 -0.2402443215
C   0.5668117369  0.5789304347 -0.3035433427
C   1.7307725213  0.0282360592  0.1079724651
O   2.3011751675 -0.7231322561  0.0929764108
C   2.1934055873  0.2734468583  0.5232914183
O   4.6502547838  2.2274484611 -0.3234985971
H  -2.3379477958 -0.4835691295  0.4169011339
H  -0.7823693663 -0.9517401320  0.0911384342
H  -1.0927417693 -0.3324099670 -0.9560672813
H   0.5533971201  1.4111458369  0.2363372610
H   0.7816085934  0.8779817766 -1.2177870473
H   2.3292137647  0.2194802832  1.0497227380
H   3.7168623927  1.2342834920 -0.9489302965
H   2.9947144936  0.0078452311  0.9216258284
H   4.8982634788  3.1001491427 -0.5012092992
17
Image 320  Energy = -420.3317900544
C  -1.5478000553  0.2410137673  0.3595306125
O  -1.6844439730  1.3230394945  0.6951289540
C  -0.7187533411 -0.1636132132 -0.2409931588
C   0.5668833187  0.5793734034 -0.3045364975
C   1.7302877595  0.0294308847  0.1083892560
O   2.3026077628 -0.7205588575  0.0931217640
C   2.1906653844  0.2724532937  0.5250427348
O   4.6506742845  2.2274348147 -0.3244465561
H  -2.3360189737 -0.4850177635  0.4181707972
H  -0.7823057680 -0.9516201277  0.0886738974
H  -1.0936779363 -0.3303123025 -0.9562904648
H   0.5532590882  1.4121114731  0.2343592631
H   0.7821916794  0.8772893129 -1.2188291960
H   2.3271868857  0.2164455702  1.0502272175
H   3.7190660287  1.2344976099 -0.9491854377
H   2.9916269470  0.0079321876  0.9244141813
H   4.8985509085  3.1001004535 -0.5027773668
17
Image 321  Energy = -420.3297684735
C  -1.5464634190  0.2401654106  0.3607506795
O  -1.6835222998  1.3218706428  0.6972530796
C  -0.7185903133 -0.1630605238 -0.2417413860
C   0.5669549761  0.5798174761 -0.3055308173
C   1.7298117675  0.0306258125  0.1088140710
O   2.3040443899 -0.7179819063  0.0932650122
C   2.1879141722  0.2714525450  0.5267865364
O   4.6510930564  2.2274200832 -0.3253932380
H  -2.3340905135 -0.4864649503  0.4194395254
H  -0.7822422137 -0.9515000619  0.0862097878
H  -1.0946142286 -0.3282149077 -0.9565125694
H   0.5531213705  1.4130766306  0.2323821670
H   0.7827747402  0.8765972448 -1.2198701595
H   2.3251622904  0.2134132403  1.0507340559
H   3.7212684323  1.2347133678 -0.9494413823
H   2.9885398898  0.0080191616  0.9271995236
H   4.8988379024  3.1000507359 -0.5043448854
17
Image 322  Energy = -420.3273757788
C  -1.5451265715  0.2393161472  0.3619717990
O  -1.6826012877  1.3207022023  0.6993763519
C  -0.7184285200 -0.1625084916 -0.2424893977
C   0.5670300241  0.5802617881 -0.3065247677
C   1.7293408542  0.0318134745  0.1092424035
O   2.3054826457 -0.7154023232  0.0934026490
C   2.1851560749  0.2704533147  0.5285278074
O   4.6515111878  2.2274041269 -0.3263389381
H  -2.3321617205 -0.4879111277  0.4207077023
H  -0.7821784737 -0.9513798800  0.0837453779
H  -1.0955508369 -0.3261170503 -0.9567336890
H   0.5529831055  1.4140422431  0.2304055265
H   0.7833576153  0.8759054713 -1.2209111458
H   2.3231385823  0.2103825604  1.0512459576
H   3.7234703310  1.2349308128 -0.9496980526
H   2.9854523707  0.0081066662  0.9299828377
H   4.8991246186  3.1000000662 -0.5059124214
17
Image 323  Energy = -420.3243446176
C  -1.5437895008  0.2384656744  0.3631954945
O  -1.6816811145  1.3195341260  0.7014987404
C  -0.7182681732 -0.1619573371 -0.2432375231
C   0.5671130113  0.5807054330 -0.3075168248
C   1.7288669460  0.0329838990  0.1096673261
O   2.3069233005 -0.7128188218  0.0935293443
C   2.1823970103  0.2694638734  0.5302743760
O   4.6519282709  2.2273857836 -0.3272831852
H  -2.3302318483 -0.4893560045  0.4219753000
H  -0.7821141350 -0.9512596960  0.0812800113
H  -1.0964881485 -0.3240178216 -0.9569536520
H   0.5528433600  1.4150091305  0.2284293862
H   0.7839400945  0.8752139444 -1.2219532677
H   2.3211143396  0.2073531200  1.0517662967
H   3.7256719801  1.2351512806 -0.9499557404
H   2.9823635938  0.0081954656  0.9327644590
H   4.8994110131  3.0999479512 -0.5074805410
17
Image 324  Energy = -420.3208530147
C  -1.5424521430  0.2376146291  0.3644211224
O  -1.6807609449  1.3183655535  0.7036209973
C  -0.7181092358 -0.1614068526 -0.2439860679
C   0.5672052646  0.5811473564 -0.3085058630
C   1.7283880794  0.0341371698  0.1100861644
O   2.3083629214 -0.7102329109  0.0936468384
C   2.1796388292  0.2684892285  0.5320272819
O   4.6523447056  2.2273659420 -0.3282269182
H  -2.3283007758 -0.4908003956  0.4232428384
H  -0.7820490897 -0.9511392579  0.0788134853
H  -1.0974260184 -0.3219170461 -0.9571729156
H   0.5527018641  1.4159774518  0.2264532146
H   0.7845221296  0.8745223483 -1.2229968523
H   2.3190883848  0.2043234452  1.0522940707
H   3.7278741674  1.2353736782 -0.9502139835
H   2.9792745352  0.0082847193  0.9355459975
H   4.8996973263  3.0998949419 -0.5090494100
17
Image 325  Energy = -420.3171944792
C  -1.5411152863  0.2367632192  0.3656484660
O  -1.6798410236  1.3171968707  0.7057424405
C  -0.7179510790 -0.1608571902 -0.2447348945
C   0.5673053063  0.5815875545 -0.3094926694
C   1.7279051033  0.0352762757  0.1105001247
O   2.3098017353 -0.7076395810  0.0937598820
C   2.1768811695  0.2675236962  0.5337848809
O   4.6527602842  2.2273446205 -0.3291699441
H  -2.3263691827 -0.4922438705  0.4245099215
H  -0.7819834071 -0.9510185215  0.0763465808
H  -1.0983642957 -0.3198153259 -0.9573914270
H   0.5525593532  1.4169462229  0.2244776068
H   0.7851036954  0.8738307072 -1.2240409887
H   2.3170613150  0.2012926561  1.0528242681
H   3.7300762459  1.2355980689 -0.9504727016
H   2.9761866428  0.0083736234  0.9383269537
H   4.8999834237  3.0998409750 -0.5106184993
17
Image 326  Energy = -420.3134361039
C  -1.5397798918  0.2359111383  0.3668782833
O  -1.6789222553  1.3160290598  0.7078617973
C  -0.7177929000 -0.1603086833 -0.2454837543
C   0.5674114934  0.5820266113 -0.3104786583
C   1.7274174057  0.0364018983  0.1109101254
O   2.3112429650 -0.7050327130  0.0938702789
C   2.1741245690  0.2665596632  0.5355474472
O   4.6531743478  2.2273208116 -0.3301112461
H  -2.3244376676 -0.4936853149  0.4257757611
H  -0.7819171459 -0.9508976606  0.0738800685
H  -1.0993030900 -0.3177131429 -0.9576087807
H   0.5524166435  1.4179144508  0.2225035671
H   0.7856847629  0.8731392512 -1.2250847361
H   2.3150340834  0.1982609876  1.0533533872
H   3.7322770669  1.2358257394 -0.9507322258
H   2.9731006328  0.0084624579  0.9411059940
H   4.9002689800  3.0997854465 -0.5121873083
17
Image 327  Energy = -420.3094554590
C  -1.5384456779  0.2350587681  0.3681098025
O  -1.6780038810  1.3148613268  0.7099799198
C  -0.7176344505 -0.1597608929 -0.2462328420
C   0.5675220906  0.5824645677 -0.3114640387
C   1.7269253726  0.0375172537  0.1113159811
O   2.3126840697 -0.7024166758  0.0939785781
C   2.1713701849  0.2655980688  0.5373146042
O   4.6535873359  2.2272954241 -0.3310517233
H  -2.3225060995 -0.4951256144  0.4270409348
H  -0.7818504945 -0.9507764790  0.0714136399
H  -1.1002423738 -0.3156104164 -0.9578253899
H   0.5522739305  1.4188821653  0.2205303692
H   0.7862654492  0.8724477885 -1.2261281730
H   2.3130062137  0.1952285780  1.0538816394
H   3.7344774424  1.2360555208 -0.9509921956
H   2.9700166492  0.0085516740  0.9438849097
H   4.9005542383  3.0997289437 -0.5137560159
17
Image 328  Energy = -420.3050237957
C  -1.5371126852  0.2342055073  0.3693441935
O  -1.6770864693  1.3136941116  0.7120964426
C  -0.7174753045 -0.1592137682 -0.2469820965
C   0.5676364117  0.5829022465 -0.3124496203
C   1.7264240234  0.0386208750  0.1117153065
O   2.3141295799 -0.6997941934  0.0940794271
C   2.1686206110  0.2646385610  0.5390907259
O   4.6539988303  2.2272673778 -0.3319906427
H  -2.3205741606 -0.4965642388  0.4283051958
H  -0.7817834656 -0.9506552451  0.0689470063
H  -1.1011825785 -0.3135068268 -0.9580409877
H   0.5521313270  1.4198493986  0.2185581480
H   0.7868458318  0.8717564183 -1.2271713376
H   2.3109775219  0.1921972445  1.0544122540
H   3.7366771402  1.2362886891 -0.9512530591
H   2.9669343354  0.0086428981  0.9466638908
H   4.9008390511  3.0996709457 -0.5153248459
17
Image 329  Energy = -420.2999563535
C  -1.5357799638  0.2333514525  0.3705807884
O  -1.6761690997  1.3125264504  0.7142127246
C  -0.7173157274 -0.1586666210 -0.2477317773
C   0.5677532107  0.5833398853 -0.3134353072
C   1.7259105892  0.0397153541  0.1121057137
O   2.3155781726 -0.6971748069  0.0941697026
C   2.1658783373  0.2636860576  0.5408780843
O   4.6544094634  2.2272376431 -0.3329290608
H  -2.3186412162 -0.4980023802  0.4295693853
H  -0.7817162498 -0.9505338638  0.0664793105
H  -1.1021238256 -0.3114019316 -0.9582560478
H   0.5519885850  1.4208167660  0.2165857286
H   0.7874260713  0.8710648683 -1.2282148585
H   2.3089473299  0.1891679686  1.0549487910
H   3.7388774015  1.2365239782 -0.9515145163
H   2.9638531780  0.0087371090  0.9494456795
H   4.9011237436  3.0996120715 -0.5168943402
17
Image 330  Energy = -420.2941710110
C  -1.5344473186  0.2324958832  0.3718206335
O  -1.6752523897  1.3113590035  0.7163283548
C  -0.7171558021 -0.1581194416 -0.2484817800
C   0.5678724602  0.5837782095 -0.3144216507
C   1.7253789872  0.0407995197  0.1124842240
O   2.3170353523 -0.6945620784  0.0942438724
C   2.1631457799  0.2627414664  0.5426820201
O   4.6548188824  2.2272052456 -0.3338661941
H  -2.3167070040 -0.4994394519  0.4308331692
H  -0.7816488343 -0.9504127247  0.0640103848
H  -1.1030664934 -0.3092955176 -0.9584703037
H   0.5518455820  1.4217844659  0.2146133781
H   0.7880061839  0.8703732484 -1.2292588873
H   2.3069159453  0.1861422953  1.0554939772
H   3.7410778294  1.2367625819 -0.9517769964
H   2.9607727068  0.0088355425  0.9522304505
H   4.9014081324  3.0995517534 -0.5184646520
17
Image 331  Energy = -420.2877488687
C  -1.5331139116  0.2316389895  0.3730627548
O  -1.6743355560  1.3101911628  0.7184442975
C  -0.7169961593 -0.1575718306 -0.2492322405
C   0.5679937931  0.5842171202 -0.3154082292
C   1.7248285420  0.0418768241  0.1128502053
O   2.3184996139 -0.6919628502  0.0943017181
C   2.1604232585  0.2618087686  0.5445031122
O   4.6552276851  2.2271712892 -0.3348029524
H  -2.3147713143 -0.5008763857  0.4320971113
H  -0.7815813287 -0.9502918089  0.0615399135
H  -1.1040105084 -0.3071875057 -0.9586841994
H   0.5517019875  1.4227529947  0.2126403783
H   0.7885862105  0.8696813623 -1.2303038525
H   2.3048835617  0.1831200542  1.0560481166
H   3.7432791911  1.2370031577 -0.9520401403
H   2.9576924907  0.0089381187  0.9550199860
H   4.9016924438  3.0994905403 -0.5200359787
17
Image 332  Energy = -420.2809052701
C  -1.5317799767  0.2307802753  0.3743078294
O  -1.6734194855  1.3090240083  0.7205595196
C  -0.7168369169 -0.1570241926 -0.2499828670
C   0.5681177043  0.5846570007 -0.3163953992
C   1.7242579623  0.0429468486  0.1132042672
O   2.3199754461 -0.6893749805  0.0943419978
C   2.1577093191  0.2608852242  0.5463423864
O   4.6556353937  2.2271348643 -0.3357382998
H  -2.3128345113 -0.5023121721  0.4333604925
H  -0.7815136337 -0.9501714769  0.0590684615
H  -1.1049559599 -0.3050782142 -0.9588973514
H   0.5515578203  1.4237221738  0.2106676001
H   0.7891660279  0.8689894954 -1.2313494543
H   2.3028512944  0.1801015930  1.0566102007
H   3.7454804339  1.2372468901 -0.9523043254
H   2.9546127083  0.0090448578  0.9578129181
H   4.9019763736  3.0994278059 -0.5216079758
17
Image 333  Energy = -420.2739284407
C  -1.5304457204  0.2299198034  0.3755553796
O  -1.6725045464  1.3078580542  0.7226734783
C  -0.7166782436 -0.1564768700 -0.2507334108
C   0.5682439175  0.5850977829 -0.3173832277
C   1.7236724773  0.0440103522  0.1135501163
O   2.3214618410 -0.6867925672  0.0943688711
C   2.1549999147  0.2599662446  0.5481952466
O   4.6560419572  2.2270960963 -0.3366719587
H  -2.3108971634 -0.5037463901  0.4346229503
H  -0.7814457470 -0.9500516936  0.0565966636
H  -1.1059025112 -0.3029682227 -0.9591095610
H   0.5514132690  1.4246916658  0.2086955699
H   0.7897455572  0.8682978858 -1.2323952710
H   2.3008199703  0.1770860731  1.0571769458
H   3.7476808749  1.2374936952 -0.9525695497
H   2.9515343480  0.0091545882  0.9606079126
H   4.9022598047  3.0993635030 -0.5231801548
17
Image 334  Energy = -420.2670291833
C  -1.5291111249  0.2290581264  0.3768039302
O  -1.6715904017  1.3066930218  0.7247864178
C  -0.7165204404 -0.1559299758 -0.2514837547
C   0.5683714656  0.5855390135 -0.3183714587
C   1.7230817560  0.0450690180  0.1138930077
O   2.3229525126 -0.6842085959  0.0943904273
C   2.1522903595  0.2590474906  0.5500533747
O   4.6564478218  2.2270561536 -0.3376045610
H  -2.3089597594 -0.5051794301  0.4358846672
H  -0.7813777598 -0.9499320566  0.0541248956
H  -1.1068495315 -0.3008581050 -0.9593209104
H   0.5512685580  1.4256612070  0.2067242127
H   0.7903248163  0.8676066120 -1.2334410096
H   2.2987899819  0.1740717441  1.0577441194
H   3.7498805173  1.2377421946 -0.9528354435
H   2.9484583655  0.0092653939  0.9634042042
H   4.9025428630  3.0992981892 -0.5247521187
17
Image 335  Energy = -420.2602730245
C  -1.5277769714  0.2281949737  0.3780540920
O  -1.6706781417  1.3055299949  0.7268970369
C  -0.7163632885 -0.1553840782 -0.2522335261
C   0.5685003553  0.5859808781 -0.3193605840
C   1.7224892455  0.0461201288  0.1142357187
O   2.3244493785 -0.6816135624  0.0944087790
C   2.1495778770  0.2581223775  0.5519137267
O   4.6568524402  2.2270140861 -0.3385349670
H  -2.3070228821 -0.5066100633  0.4371448256
H  -0.7813095367 -0.9498126457  0.0516538595
H  -1.1077968451 -0.2987483931 -0.9595308236
H   0.5511240121  1.4266302974  0.2047546383
H   0.7909037238  0.8669160630 -1.2344860968
H   2.2967620574  0.1710584396  1.0583099807
H   3.7520780323  1.2379936071 -0.9531023908
H   2.9453853059  0.0093766267  0.9661990765
H   4.9028252373  3.0992312710 -0.5263233452
17
Image 336  Energy = -420.2536565888
C  -1.5264434232  0.2273303970  0.3793057601
O  -1.6697678648  1.3043690496  0.7290051841
C  -0.7162068435 -0.1548392444 -0.2529826319
C   0.5686304255  0.5864233172 -0.3203506215
C   1.7218972670  0.0471632349  0.1145796774
O   2.3259518954 -0.6790051315  0.0944250312
C   2.1468614140  0.2571892422  0.5537742384
O   4.6572558253  2.2269699278 -0.3394631088
H  -2.3050866699 -0.5080381652  0.4384033558
H  -0.7812410063 -0.9496933617  0.0491836332
H  -1.1087443164 -0.2966392426 -0.9597392096
H   0.5509796679  1.4275989236  0.2027870170
H   0.7914822550  0.8662263130 -1.2355304834
H   2.2947364646  0.1680460938  1.0588745238
H   3.7542731936  1.2382478834 -0.9533703858
H   2.9423147991  0.0094880022  0.9689917451
H   4.9031069167  3.0991627619 -0.5278937248
17
Image 337  Energy = -420.2471742316
C  -1.5251100588  0.2264647862  0.3805579561
O  -1.6688587379  1.3032093296  0.7311117618
C  -0.7160514472 -0.1542951298 -0.2537312055
C   0.5687612102  0.5868659998 -0.3213411809
C   1.7213087364  0.0482005435  0.1149260852
O   2.3274561984 -0.6763861001  0.0944410569
C   2.1441406382  0.2562498584  0.5556322954
O   4.6576585351  2.2269247472 -0.3403899604
H  -2.3031509273 -0.5094646431  0.4396608742
H  -0.7811722117 -0.9495738876  0.0467138126
H  -1.1096917610 -0.2945305406 -0.9599464087
H   0.5508353891  1.4285673794  0.2008206650
H   0.7920604624  0.8655371414 -1.2365744790
H   2.2927131159  0.1650343669  1.0594381717
H   3.7564667757  1.2385036796 -0.9536390403
H   2.9392459177  0.0095991954  0.9717830487
H   4.9033881648  3.0990932748 -0.5294634525
17
Image 338  Energy = -420.2408236682
C  -1.5237773753  0.2255977376  0.3818116247
O  -1.6679515412  1.3020516146  0.7332158325
C  -0.7158968701 -0.1537520040 -0.2544790288
C   0.5688931879  0.5873091958 -0.3223326927
C   1.7207214726  0.0492309774  0.1152750772
O   2.3289671386 -0.6737550977  0.0944540288
C   2.1414151246  0.2553019699  0.5574890770
O   4.6580600541  2.2268774850 -0.3413145655
H  -2.3012158386 -0.5108885672  0.4409167922
H  -0.7811030283 -0.9494544342  0.0442447009
H  -1.1106393433 -0.2924224017 -0.9601520481
H   0.5506912852  1.4295354405  0.1988563442
H   0.7926382932  0.8648487038 -1.2376177980
H   2.2906923844  0.1620242038  1.0600022461
H   3.7586579249  1.2387623100 -0.9539087202
H   2.9361783968  0.0097106468  0.9745714850
H   4.9036687344  3.0990222206 -0.5310323552
17
Image 339  Energy = -420.2346143459
C  -1.5224454042  0.2247292628  0.3830667558
O  -1.6670462317  1.3008958622  0.7353173575
C  -0.7157431498 -0.1532098726 -0.2552260549
C   0.5690263915  0.5877529503 -0.3233252208
C   1.7201353272  0.0502560443  0.1156275270
O   2.3304858323 -0.6711137627  0.0944632905
C   2.1386840672  0.2543454525  0.5593437461
O   4.6584603749  2.2268281245 -0.3422369254
H  -2.2992814066 -0.5123099285  0.4421711104
H  -0.7810334746 -0.9493349839  0.0417763016
H  -1.1115870665 -0.2903148167 -0.9603561313
H   0.5505473975  1.4305030432  0.1968940937
H   0.7932158000  0.8641609217 -1.2386603483
H   2.2886743346  0.1590159006  1.0605674969
H   3.7608466257  1.2390238028 -0.9541794186
H   2.9331119638  0.0098224095  0.9773568565
H   4.9039486185  3.0989495908 -0.5326004363
17
Image 340  Energy = -420.2285696695
C  -1.5211141828  0.2238594450  0.3843233658
O  -1.6661427585  1.2997419954  0.7374162832
C  -0.7155903171 -0.1526688037 -0.2559722804
C   0.5691607888  0.5881974134 -0.3243188386
C   1.7195501770  0.0512777194  0.1159846724
O   2.3320137416 -0.6684643951  0.0944680485
C   2.1359463852  0.2533804361  0.5611953681
O   4.6588594803  2.2267766462 -0.3431570289
H  -2.2973476578 -0.5137287288  0.4434238313
H  -0.7809636045 -0.9492155318  0.0393086445
H  -1.1125349401 -0.2882077694 -0.9605586601
H   0.5504038106  1.4314700547  0.1949339398
H   0.7937930694  0.8634737057 -1.2397019845
H   2.2866589554  0.1560096347  1.0611344393
H   3.7630328661  1.2392881954 -0.9544511349
H   2.9300463860  0.0099346212  0.9801390306
H   4.9042278003  3.0988753628 -0.5341676957
17
Image 341  Energy = -420.2227553278
C  -1.5197832596  0.2229888601  0.3855804917
O  -1.6652402273  1.2985890351  0.7395134954
C  -0.7154387172 -0.1521286314 -0.2567179819
C   0.5692957281  0.5886425007 -0.3253132272
C   1.7189690390  0.0523001464  0.1163489881
O   2.3335477085 -0.6658115552  0.0944703265
C   2.1332010650  0.2524090851  0.5630407132
O   4.6592579117  2.2267241454 -0.3440758376
H  -2.2954144455 -0.5151459255  0.4446755909
H  -0.7808936144 -0.9490957775  0.0368414086
H  -1.1134828016 -0.2861011069 -0.9607599645
H   0.5502605752  1.4324364578  0.1929751434
H   0.7943702817  0.8627867509 -1.2407427948
H   2.2846459665  0.1530046211  1.0617024593
H   3.7652174651  1.2395541515 -0.9547235023
H   2.9269808116  0.0100471356  0.9829190131
H   4.9045065129  3.0988001076 -0.5357343213
17
Image 342  Energy = -420.2173004204
C  -1.5184532645  0.2221173671  0.3868390536
O  -1.6643395241  1.2974378597  0.7416078093
C  -0.7152881296 -0.1515898790 -0.2574631239
C   0.5694312941  0.5890885630 -0.3263088833
C   1.7183912633  0.0533227272  0.1167224070
O   2.3350927053 -0.6631520651  0.0944690013
C   2.1304471232  0.2514283360  0.5648797652
O   4.6596551178  2.2266695950 -0.3449922252
H  -2.2934822480 -0.5165604541  0.4459256742
H  -0.7808234813 -0.9489759271  0.0343752068
H  -1.1144307266 -0.2839951533 -0.9609595759
H   0.5501180578  1.4334015638  0.1910186259
H   0.7949474498  0.8621002549 -1.2417821626
H   2.2826356202  0.1500008554  1.0622707240
H   3.7673992870  1.2398229823 -0.9549969005
H   2.9239150092  0.0101601871  0.9856945634
H   4.9047844462  3.0987231883 -0.5372999589
17
Image 343  Energy = -420.2123243870
C  -1.5171243550  0.2212450582  0.3880988402
O  -1.6634407404  1.2962887164  0.7436988758
C  -0.7151387210 -0.1510526846 -0.2582077217
C   0.5695668040  0.5895354985 -0.3273060698
C   1.7178200259  0.0543454841  0.1171074382
O   2.3366478055 -0.6604810514  0.0944680704
C   2.1276840439  0.2504359741  0.5667098315
O   4.6600510777  2.2266130707 -0.3459060135
H  -2.2915514219 -0.5179720929  0.4471738897
H  -0.7807532784 -0.9488559150  0.0319104325
H  -1.1153785337 -0.2818902593 -0.9611573920
H   0.5499765478  1.4343648306  0.1890646762
H   0.7955246291  0.8614142743 -1.2428196592
H   2.2806279957  0.1469970793  1.0628366225
H   3.7695779008  1.2400946450 -0.9552713265
H   2.9208486761  0.0102727653  0.9884638535
H   4.9050615438  3.0986446077 -0.5388643476
17
Image 344  Energy = -420.2078561480
C  -1.5157960772  0.2203721673  0.3893586323
O  -1.6625430367  1.2951410227  0.7457874488
C  -0.7149909290 -0.1505166738 -0.2589517955
C   0.5697010384  0.5899829597 -0.3283047573
C   1.7172605054  0.0553703235  0.1175066143
O   2.3382076304 -0.6577972361  0.0944738274
C   2.1249112367  0.2494329738  0.5685269093
O   4.6604463443  2.2265557215 -0.3468181270
H  -2.2896219392 -0.5193816712  0.4484207337
H  -0.7806831619 -0.9487354636  0.0294469865
H  -1.1163259574 -0.2797865204 -0.9613538214
H   0.5498360218  1.4353262598  0.1871127118
H   0.7961018710  0.8607286953 -1.2438553720
H   2.2786228088  0.1439914682  1.0633972578
H   3.7717538991  1.2403677513 -0.9555463924
H   2.9177816858  0.0103831849  0.9912266757
H   4.9053380593  3.0985650379 -0.5404275314
17
Image 345  Energy = -420.2038070456
C  -1.5144688719  0.2194980323  0.3906193836
O  -1.6616472070  1.2939958564  0.7478725754
C  -0.7148443911 -0.1499819012 -0.2596949002
C   0.5698346529  0.5904312561 -0.3293053444
C   1.7167099265  0.0563962471  0.1179204295
O   2.3397787816 -0.6551013427  0.0944827950
C   2.1221265544  0.2484194649  0.5703330439
O   4.6608403965  2.2264964174 -0.3477275937
H  -2.2876940142 -0.5207882705  0.4496655521
H  -0.7806129524 -0.9486150021  0.0269853168
H  -1.1172732818 -0.2776840866 -0.9615487669
H   0.5496962352  1.4362859442  0.1851634889
H   0.7966789175  0.8600438430 -1.2448892288
H   2.2766198442  0.1409847284  1.0639534225
H   3.7739263775  1.2406436824 -0.9558224231
H   2.9147152453  0.0104911552  0.9939815910
H   4.9056137866  3.0984839764 -0.5419893412
17
Image 346  Energy = -420.2000615325
C  -1.5131419221  0.2186227107  0.3918802423
O  -1.6607521371  1.2928522064  0.7499556175
C  -0.7146993948 -0.1494476418 -0.2604369500
C   0.5699682055  0.5908802462 -0.3303070734
C   1.7161683716  0.0574269419  0.1183495100
O   2.3413597524 -0.6524041944  0.0944928371
C   2.1193279643  0.2474021887  0.5721275179
O   4.6612338644  2.2264361701 -0.3486356617
H  -2.2857670142 -0.5221931763  0.4509091960
H  -0.7805426330 -0.9484944535  0.0245246690
H  -1.1182206512 -0.2755823850 -0.9617429843
H   0.5495564453  1.4372448840  0.1832158591
H   0.7972556586  0.8593594749 -1.2459221134
H   2.2746180858  0.1379772851  1.0645075369
H   3.7760966497  1.2409211104 -0.9560989917
H   2.9116496396  0.0105964759  0.9967311237
H   4.9058891150  3.0984021578 -0.5435503349
17
Image 347  Energy = -420.1965251441
C  -1.5118155562  0.2177456609  0.3931424277
O  -1.6598585468  1.2917108478  0.7520358372
C  -0.7145556130 -0.1489139020 -0.2611776198
C   0.5701030993  0.5913302476 -0.3313099486
C   1.7156299393  0.0584611317  0.1187919329
O   2.3429582219 -0.6497100258  0.0944966551
C   2.1165141924  0.2463826112  0.5739147123
O   4.6616262010  2.2263737533 -0.3495414498
H  -2.2838409111 -0.5235956289  0.4521511487
H  -0.7804719343 -0.9483743044  0.0220651754
H  -1.1191684807 -0.2734813071 -0.9619363845
H   0.5494162466  1.4382035118  0.1812703550
H   0.7978318432  0.8586758555 -1.2469542619
H   2.2726170819  0.1349711826  1.0650631606
H   3.7782641355  1.2412014605 -0.9563764325
H   2.9085862187  0.0106998611  0.9994752316
H   4.9061638625  3.0983190455 -0.5451105392
17
Image 348  Energy = -420.1930431529
C  -1.5104890280  0.2168672116  0.3944051771
O  -1.6589653689  1.2905705883  0.7541145460
C  -0.7144134617 -0.1483802339 -0.2619171591
C   0.5702392514  0.5917811716 -0.3323133929
C   1.7150938862  0.0595005396  0.1192458278
O   2.3445706948 -0.6470258609  0.0944933178
C   2.1136863134  0.2453655479  0.5756956104
O   4.6620179874  2.2263102019 -0.3504461165
H  -2.2819151081 -0.5249968664  0.4533922624
H  -0.7804008853 -0.9482543450  0.0196060153
H  -1.1201168409 -0.2713803354 -0.9621294326
H   0.5492752417  1.4391625950  0.1793258486
H   0.7984075036  0.8579927416 -1.2479864452
H   2.2706160211  0.1319668442  1.0656220366
H   3.7804301637  1.2414833735 -0.9566544093
H   2.9055252751  0.0108015563  1.0022167731
H   4.9064383540  3.0982352712 -0.5466704594
17
Image 349  Energy = -420.1894534845
C  -1.5091621319  0.2159873895  0.3956688892
O  -1.6580724009  1.2894309881  0.7561921792
C  -0.7142729629 -0.1478466487 -0.2626558432
C   0.5703770322  0.5922335365 -0.3333171886
C   1.7145535538  0.0605460550  0.1197071443
O   2.3462006885 -0.6443610158  0.0944761193
C   2.1108461986  0.2443556318  0.5774762287
O   4.6624092516  2.2262454177 -0.3513497885
H  -2.2799891643 -0.5263972285  0.4546328244
H  -0.7803294434 -0.9481346331  0.0171466195
H  -1.1210661032 -0.2692789896 -0.9623221750
H   0.5491331763  1.4401226986  0.1773818561
H   0.7989826242  0.8573100405 -1.2490191565
H   2.2686140919  0.1289659301  1.0661871979
H   3.7825953212  1.2417668777 -0.9569330135
H   2.9024676319  0.0109031476  1.0049585788
H   4.9067126361  3.0981508037 -0.5482304716
17
Image 350  Energy = -420.1857360570
C  -1.5078353587  0.2151059510  0.3969349718
O  -1.6571804855  1.2882925897  0.7582680327
C  -0.7141336592 -0.1473135759 -0.2633938326
C   0.5705172498  0.5926881038 -0.3343214016
C   1.7139986233  0.0615965732  0.1201704536
O   2.3478570119 -0.6417219866  0.0944354956
C   2.1079962258  0.2433548234  0.5792653767
O   4.6627994106  2.2261781637 -0.3522514824
H  -2.2780630278 -0.5277959399  0.4558723781
H  -0.7802574816 -0.9480154831  0.0146869886
H  -1.1220167204 -0.2671770971 -0.9625142051
H   0.5489900823  1.4410839016  0.1754388148
H   0.7995571101  0.8566278853 -1.2500523833
H   2.2666107446  0.1259708656  1.0667617500
H   3.7847591486  1.2420534142 -0.9572127002
H   2.8994146741  0.0110068503  1.0077023554
H   4.9069864520  3.0980649618 -0.5497906118
17
Image 351  Energy = -420.1819554050
C  -1.5065082477  0.2142234559  0.3982025378
O  -1.6562888395  1.2871542563  0.7603431863
C  -0.7139957456 -0.1467807984 -0.2641315507
C   0.5706594502  0.5931445666 -0.3353253507
C   1.7134293124  0.0626520135  0.1206328573
O   2.3495333002 -0.6391091984  0.0943740261
C   2.1051400853  0.2423646008  0.5810633986
O   4.6631889835  2.2261095181 -0.3531522563
H  -2.2761363155 -0.5291939957  0.4571116451
H  -0.7801851460 -0.9478964823  0.0122265617
H  -1.1229684664 -0.2650743796 -0.9627057068
H   0.5488461325  1.4420462572  0.1734958173
H   0.8001311246  0.8559459609 -1.2510863523
H   2.2646053586  0.1229813443  1.0673449687
H   3.7869227497  1.2423416212 -0.9574931296
H   2.8963662080  0.0111129544  1.0104505011
H   4.9072600556  3.0979783062 -0.5513511533
17
Image 352  Energy = -420.1781492826
C  -1.5051816061  0.2133397215  0.3994725595
O  -1.6553986710  1.2860170461  0.7624163185
C  -0.7138586798 -0.1462486702 -0.2648688909
C   0.5708043339  0.5936025739 -0.3363290468
C   1.7128442699  0.0637059309  0.1210914099
O   2.3512304583 -0.6365103075  0.0942929119
C   2.1022804962  0.2413789545  0.5828722065
O   4.6635772865  2.2260383166 -0.3540509404
H  -2.2742095385 -0.5305901114  0.4583497623
H  -0.7801122959 -0.9477778411  0.0097660840
H  -1.1239211990 -0.2629713332 -0.9628961098
H   0.5487018253  1.4430090466  0.1715539666
H   0.8007046177  0.8552645418 -1.2521203917
H   2.2625978484  0.1199976877  1.0679358723
H   3.7890849289  1.2426329556 -0.9577746328
H   2.8933228097  0.0112213189  1.0132005304
H   4.9075331153  3.0978901704 -0.5529116092
17
Image 353  Energy = -420.1742958251
C  -1.5038549711  0.2124551872  0.4007438927
O  -1.6545092342  1.2848800569  0.7644883009
C  -0.7137227210 -0.1457168168 -0.2656060568
C   0.5709515162  0.5940611817 -0.3373318869
C   1.7122500126  0.0647557166  0.1215459335
O   2.3529376790 -0.6339160291  0.0942007676
C   2.0994202618  0.2403955414  0.5846873613
O   4.6639648447  2.2259657071 -0.3549485664
H  -2.2722825143 -0.5319851229  0.4595873140
H  -0.7800390686 -0.9476591097  0.0073052769
H  -1.1248744489 -0.2608679216 -0.9630856064
H   0.5485573947  1.4439721129  0.1696125989
H   0.8012777620  0.8545833901 -1.2531545428
H   2.2605877044  0.1170182780  1.0685321316
H   3.7912464973  1.2429260423 -0.9580567999
H   2.8902834091  0.0113306330  1.0159519545
H   4.9078058761  3.0978011541 -0.5544720725
17
Image 354  Energy = -420.1703639151
C  -1.5025290176  0.2115695177  0.4020174738
O  -1.6536216159  1.2837443845  0.7665578630
C  -0.7135873936 -0.1451855030 -0.2663428310
C   0.5711017865  0.5945199920 -0.3383340131
C   1.7116460101  0.0657958809  0.1219948061
O   2.3546567780 -0.6313156909  0.0940982889
C   2.0965605512  0.2394092312  0.5865100218
O   4.6643510124  2.2258905270 -0.3558439931
H  -2.2703557273 -0.5333778008  0.4608234710
H  -0.7799653368 -0.9475405426  0.0048448544
H  -1.1258281492 -0.2587645884 -0.9632737394
H   0.5484131311  1.4449349654  0.1676727878
H   0.8018504479  0.8539028269 -1.2541883103
H   2.2585747402  0.1140434377  1.0691337258
H   3.7934062791  1.2432223499 -0.9583399459
H   2.8872484787  0.0114403970  1.0187016473
H   4.9080780253  3.0977106166 -0.5560321068
17
Image 355  Energy = -420.1663144798
C  -1.5012031110  0.2106830366  0.4032921810
O  -1.6527348878  1.2826090311  0.7686260583
C  -0.7134530340 -0.1446543538 -0.2670793895
C   0.5712545857  0.5949782941 -0.3393350681
C   1.7110372693  0.0668260918  0.1224383076
O   2.3563794118 -0.6287056387  0.0939917016
C   2.0937028463  0.2384201157  0.5883366041
O   4.6647363702  2.2258139335 -0.3567383301
H  -2.2684288545 -0.5347691275  0.4620589427
H  -0.7798912848 -0.9474217188  0.0023843506
H  -1.1267819927 -0.2566611133 -0.9634608134
H   0.5482690719  1.4458977547  0.1657337334
H   0.8024227972  0.8532226353 -1.2552220265
H   2.2565584463  0.1110719299  1.0697396576
H   3.7955652673  1.2435204930 -0.9586236769
H   2.8842172577  0.0115494593  1.0214497153
H   4.9083498409  3.0976191782 -0.5575919473
17
Image 356  Energy = -420.1621523052
C  -1.4998778742  0.2097953685  0.4045689619
O  -1.6518500634  1.2814750964  0.7706916841
C  -0.7133192041 -0.1441237059 -0.2678155082
C   0.5714103880  0.5954359127 -0.3403354592
C   1.7104215644  0.0678429650  0.1228749822
O   2.3581098983 -0.6260801396  0.0938795841
C   2.0908471193  0.2374251225  0.5901694980
O   4.6651202910  2.2257347604 -0.3576304467
H  -2.2665023524 -0.5361579230  0.4632929430
H  -0.7798168281 -0.9473029399 -0.0000755766
H  -1.1277360214 -0.2545578752 -0.9636464420
H   0.5481254288  1.4468601492  0.1637965015
H   0.8029946509  0.8525431805 -1.2562553635
H   2.2545387906  0.1081043447  1.0703504094
H   3.7977223484  1.2438219558 -0.9589083255
H   2.8811908449  0.0116575264  1.0241937620
H   4.9086210192  3.0975262025 -0.5591512041
17
Image 357  Energy = -420.1578852265
C  -1.4985526451  0.2089068142  0.4058466576
O  -1.6509661741  1.2803416021  0.7727558389
C  -0.7131863112 -0.1435932679 -0.2685513749
C   0.5715682070  0.5958923530 -0.3413351247
C   1.7098034552  0.0688476744  0.1233057464
O   2.3598409655 -0.6234382266  0.0937676169
C   2.0879940152  0.2364253898  0.5920055969
O   4.6655033774  2.2256541980 -0.3585214636
H  -2.2645758906 -0.5375452024  0.4645262023
H  -0.7797421965 -0.9471838011 -0.0025354134
H  -1.1286899746 -0.2524546288 -0.9638309460
H   0.5479822695  1.4478223000  0.1618602965
H   0.8035661268  0.8518642657 -1.2572886885
H   2.2525155872  0.1051392593  1.0709642159
H   3.7998785506  1.2441253438 -0.9591935256
H   2.8781687959  0.0117636144  1.0269344912
H   4.9088918414  3.0974323134 -0.5607101254
17
Image 358  Energy = -420.1535549736
C  -1.4972280926  0.2080170046  0.4071261805
O  -1.6500842750  1.2792097594  0.7748172633
C  -0.7130539549 -0.1430634426 -0.2692867665
C   0.5717282460  0.5963475948 -0.3423346367
C   1.7091809031  0.0698375609  0.1237297696
O   2.3615773217 -0.6207751184  0.0936543754
C   2.0851429550  0.2354181417  0.5938475489
O   4.6658849930  2.2255710908 -0.3594102086
H  -2.2626500046 -0.5389297519  0.4657578783
H  -0.7796673247 -0.9470646475 -0.0049944087
H  -1.1296438972 -0.2503518303 -0.9640139289
H   0.5478398636  1.4487837734  0.1599262497
H   0.8041370629  0.8511862800 -1.2583215829
H   2.2504891171  0.1021769183  1.0715802984
H   3.8020326927  1.2444321584 -0.9594796320
H   2.8751524038  0.0118676394  1.0296698656
H   4.9091619900  3.0973368700 -0.5622682649
17
Image 359  Energy = -420.1491663370
C  -1.4959035582  0.2071262454  0.4084063636
O  -1.6492033959  1.2780786188  0.7768770566
C  -0.7129225802 -0.1425339533 -0.2700218832
C   0.5718893800  0.5968013150 -0.3433339975
C   1.7085589537  0.0708139346  0.1241484265
O   2.3633112069 -0.6180899759  0.0935458199
C   2.0822946679  0.2344044761  0.5956922010
O   4.6662657443  2.2254866467 -0.3602978039
H  -2.2607243710 -0.5403126092  0.4669886864
H  -0.7795924512 -0.9469450952 -0.0074530367
H  -1.1305975345 -0.2482492497 -0.9641956964
H   0.5476983058  1.4497446377  0.1579935375
H   0.8047076007  0.8505090084 -1.2593543329
H   2.2484594190  0.0992155599  1.0721958595
H   3.8041858128  1.2447409982 -0.9597663030
H   2.8721410547  0.0119689435  1.0324009708
H   4.9094317451  3.0972405002 -0.5638258677
17
Image 360  Energy = -420.1447493934
C  -1.4945797459  0.2062341999  0.4096881715
O  -1.6483246088  1.2769494185  0.7789339371
C  -0.7127917610 -0.1420051852 -0.2707565097
C   0.5720518732  0.5972536409 -0.3443336965
C   1.7079354537  0.0717739935  0.1245607509
O   2.3650472524 -0.6153784863  0.0934399355
C   2.0794488812  0.2333817169  0.5975425445
O   4.6666449827  2.2253996897 -0.3611830614
H  -2.2587995427 -0.5416925710  0.4682177576
H  -0.7795174947 -0.9468255371 -0.0099105287
H  -1.1315509528 -0.2461473662 -0.9643758572
H   0.5475578301  1.4507044323  0.1560632619
H   0.8052775852  0.8498328171 -1.2603864596
H   2.2464268124  0.0962554171  1.0728099978
H   3.8063367224  1.2450533776 -0.9600539026
H   2.8691359256  0.0120678790  1.0351261456
H   4.9097007868  3.0971425647 -0.5653824863
17
Image 361  Energy = -420.1403151083
C  -1.4932566826  0.2053408802  0.4109715650
O  -1.6474479529  1.2758222717  0.7809878337
C  -0.7126614792 -0.1414771660 -0.2714906482
C   0.5722153859  0.5977046055 -0.3453338836
C   1.7073114034  0.0727170104  0.1249666734
O   2.3667841584 -0.6126390488  0.0933377529
C   2.0766060851  0.2323493605  0.5993988209
O   4.6670226902  2.2253102204 -0.3620659541
H  -2.2568756089 -0.5430695900  0.4694450264
H  -0.7794425150 -0.9467060024 -0.0123667783
H  -1.1325040896 -0.2440462767 -0.9645543837
H   0.5474185342  1.4516629969  0.1541355002
H   0.8058470162  0.8491577460 -1.2614178657
H   2.2443914202  0.0932959385  1.0734214179
H   3.8084853749  1.2453693463 -0.9603424412
H   2.8661371589  0.0121646483  1.0378454169
H   4.9099691005  3.0970430602 -0.5669380522
17
Image 362  Energy = -420.1358473796
C  -1.4919336712  0.2044466295  0.4122554813
O  -1.6465723922  1.2746961014  0.7830399478
C  -0.7125321541 -0.1409495688 -0.2722245288
C   0.5723788940  0.5981541684 -0.3463344272
C   1.7066912181  0.0736444314  0.1253672290
O   2.3685143620 -0.6098726661  0.0932437390
C   2.0737675682  0.2313090245  0.6012581718
O   4.6673995015  2.2252194458 -0.3629476531
H  -2.2549521362 -0.5444448162  0.4706712762
H  -0.7793677253 -0.9465861187 -0.0148224080
H  -1.1334567547 -0.2419456368 -0.9647316043
H   0.5472803952  1.4526204805  0.1522092552
H   0.8064160700  0.8484834911 -1.2624488628
H   2.2423531833  0.0903357366  1.0740283810
H   3.8106329200  1.2456874519 -0.9606315801
H   2.8631437345  0.0122592217  1.0405604978
H   4.9102369867  3.0969426249 -0.5684929143
17
Image 363  Energy = -420.1313716646
C  -1.4906114414  0.2035511732  0.4135410006
O  -1.6456989992  1.2735721033  0.7850890278
C  -0.7124032980 -0.1404227550 -0.2729579484
C   0.5725428536  0.5986026875 -0.3473356246
C   1.7060716417  0.0745539289  0.1257610888
O   2.3702438725 -0.6070776279  0.0931536309
C   2.0709329616  0.2302588651  0.6031241639
O   4.6677747742  2.2251261599 -0.3638269622
H  -2.2530296481 -0.5458170931  0.4718956537
H  -0.7792929949 -0.9464663296 -0.0172767063
H  -1.1344090798 -0.2398458794 -0.9649071705
H   0.5471435056  1.4535765253  0.1502855427
H   0.8069845947  0.8478103613 -1.2634789928
H   2.2403122073  0.0873756300  1.0746314725
H   3.8127781723  1.2460091771 -0.9609216633
H   2.8601567467  0.0123524555  1.0432701623
H   4.9105041311  3.0968406192 -0.5700466747
17
Image 364  Energy = -420.1268727223
C  -1.4892892678  0.2026548773  0.4148270878
O  -1.6448267109  1.2724491349  0.7871363358
C  -0.7122753476 -0.1398964065 -0.2736911444
C   0.5727062805  0.5990502691 -0.3483372944
C   1.7054567799  0.0754475111  0.1261495196
O   2.3719658657 -0.6042564400  0.0930710555
C   2.0681032569  0.2292009916  0.6049938597
O   4.6681491679  2.2250315858 -0.3647050676
H  -2.2511076590 -0.5471876234  0.4731189828
H  -0.7792185144 -0.9463462622 -0.0197303649
H  -1.1353609123 -0.2377465928 -0.9650814302
H   0.5470077788  1.4545313419  0.1483632927
H   0.8075527842  0.8471380123 -1.2645085990
H   2.2382683065  0.0844144742  1.0752295790
H   3.8149222996  1.2463330085 -0.9612123417
H   2.8571750492  0.0124444368  1.0459762615
H   4.9107708428  3.0967376827 -0.5715997318
17
Image 365  Energy = -420.1223770656
C  -1.4879678994  0.2017575025  0.4161148486
O  -1.6439566143  1.2713283937  0.7891806228
C  -0.7121478228 -0.1393709059 -0.2744239112
C   0.5728697107  0.5994973566 -0.3493396740
C   1.7048430668  0.0763233847  0.1265315041
O   2.3736873810 -0.6014086602  0.0929909536
C   2.0652775675  0.2281340185  0.6068708599
O   4.6685220438  2.2249345154 -0.3655807512
H  -2.2491867014 -0.5485552553  0.4743404092
H  -0.7791441202 -0.9462263914 -0.0221826653
H  -1.1363124170 -0.2356482020 -0.9652540645
H   0.5468732556  1.4554846138  0.1464435147
H   0.8081204829  0.8464667432 -1.2655372323
H   2.2362214280  0.0814532767  1.0758236763
H   3.8170640694  1.2466603957 -0.9615039455
H   2.8541997633  0.0125360415  1.0486775477
H   4.9110368059  3.0966331736 -0.5731516923
17
Image 366  Energy = -420.1178961484
C  -1.4866473538  0.2008591303  0.4174043224
O  -1.6430887235  1.2702099019  0.7912218952
C  -0.7120207261 -0.1388462945 -0.2751562618
C   0.5730329791  0.5999442518 -0.3503427693
C   1.7042306667  0.0771819709  0.1269074432
O   2.3754090671 -0.5985358803  0.0929123473
C   2.0624556738  0.2270585091  0.6087554488
O   4.6688934152  2.2248349577 -0.3664539854
H  -2.2472668036 -0.5499200173  0.4755599212
H  -0.7790698053 -0.9461067857 -0.0246335891
H  -1.1372636219 -0.2335507075 -0.9654251072
H   0.5467398860  1.4564363103  0.1445261774
H   0.8086877013  0.8457965308 -1.2665648482
H   2.2341713697  0.0784920437  1.0764138006
H   3.8192034244  1.2469912886 -0.9617964612
H   2.8512308338  0.0126277010  1.0513742280
H   4.9113020171  3.0965270904 -0.5747025615
17
Image 367  Energy = -420.1134369821
C  -1.4853276489  0.1999598461  0.4186955467
O  -1.6422230474  1.2690936711  0.7932601593
C  -0.7118940762 -0.1383226079 -0.2758882071
C   0.5731959636  0.6003912401 -0.3513465825
C   1.7036197042  0.0780237699  0.1272778096
O   2.3771317102 -0.5956397291  0.0928342738
C   2.0596373190  0.2259750154  0.6106478536
O   4.6692632941  2.2247329210 -0.3673247406
H  -2.2453479945 -0.5512819390  0.4767775134
H  -0.7789955519 -0.9459875182 -0.0270831187
H  -1.1382145662 -0.2314541069 -0.9655946017
H   0.5466076100  1.4573864145  0.1426112486
H   0.8092544393  0.8451273556 -1.2675914112
H   2.2321179201  0.0755308224  1.0770000619
H   3.8213403042  1.2473256332 -0.9620898755
H   2.8482681462  0.0127197793  1.0540664175
H   4.9115664740  3.0964194338 -0.5762523467
17
Image 368  Energy = -420.1089800588
C  -1.4840080021  0.1990600200  0.4199874563
O  -1.6413584663  1.2679784571  0.7952967338
C  -0.7117684057 -0.1377995195 -0.2766199821
C   0.5733577758  0.6008384448 -0.3523509460
C   1.7030143057  0.0788512832  0.1276442714
O   2.3788488045 -0.5927231206  0.0927605277
C   2.0568233738  0.2248856834  0.6125447191
O   4.6696323632  2.2246296586 -0.3681942254
H  -2.2434297327 -0.5526422745  0.4779940723
H  -0.7789215215 -0.9458681956 -0.0295320144
H  -1.1391651410 -0.2293579168 -0.9657629165
H   0.5464763071  1.4583351916  0.1406976001
H   0.8098208791  0.8444588600 -1.2686173128
H   2.2300608441  0.0725685903  1.0775816212
H   3.8234759050  1.2476618510 -0.9623838436
H   2.8453102124  0.0128121358  1.0567557329
H   4.9118304984  3.0963108522 -0.5778014938
17
Image 369  Energy = -420.1045473661
C  -1.4826891941  0.1981594205  0.4212811649
O  -1.6404960892  1.2668654771  0.7973303163
C  -0.7116432473 -0.1372773866 -0.2773513590
C   0.5735192237  0.6012861797 -0.3533560354
C   1.7024102211  0.0796631050  0.1280058018
O   2.3805685018 -0.5897860268  0.0926856439
C   2.0540125526  0.2237891480  0.6144495940
O   4.6699999575  2.2245239291 -0.3690611853
H  -2.2415125987 -0.5539998350  0.4792087279
H  -0.7788474963 -0.9457493247 -0.0319795080
H  -1.1401155451 -0.2272625989 -0.9659297647
H   0.5463459623  1.4592823976  0.1387862961
H   0.8103868079  0.8437913744 -1.2696421307
H   2.2280001718  0.0696066826  1.0781601959
H   3.8256089377  1.2480014154 -0.9626786898
H   2.8423580658  0.0129053415  1.0594405167
H   4.9120937685  3.0962007022 -0.5793495844
17
Image 370  Energy = -420.1001443756
C  -1.4813711944  0.1972580816  0.4225766759
O  -1.6396359093  1.2657547081  0.7993609018
C  -0.7115186368 -0.1367562131 -0.2780823210
C   0.5736803927  0.6017345684 -0.3543618456
C   1.7018068490  0.0804600668  0.1283625330
O   2.3822920502 -0.5868300491  0.0926087218
C   2.0512044655  0.2226857267  0.6163624122
O   4.6703660791  2.2244157311 -0.3699255952
H  -2.2395966104 -0.5553546411  0.4804214894
H  -0.7787734364 -0.9456309300 -0.0344255948
H  -1.1410658191 -0.2251681441 -0.9660951691
H   0.5462164952  1.4602280829  0.1368773231
H   0.8109521975  0.8431248914 -1.2706658704
H   2.2259360592  0.0666454430  1.0787367828
H   3.8277393578  1.2483442866 -0.9629744079
H   2.8394113780  0.0129994102  1.0621205937
H   4.9123562822  3.0960889820 -0.5808966294
17
Image 371  Energy = -420.0957741758
C  -1.4800539492  0.1963560083  0.4238739717
O  -1.6387779188  1.2646461235  0.8013884783
C  -0.7113946089 -0.1362360046 -0.2788128385
C   0.5738414287  0.6021836754 -0.3553683721
C   1.7012032298  0.0812432376  0.1287145140
O   2.3840209706 -0.5838569090  0.0925288790
C   2.0483985610  0.2215757087  0.6182829673
O   4.6707307273  2.2243050621 -0.3707874303
H  -2.2376817825 -0.5567067037  0.4816323646
H  -0.7786993001 -0.9455130051 -0.0368702675
H  -1.1420159927 -0.2230745442 -0.9662591333
H   0.5460878258  1.4611723183  0.1349706821
H   0.8115170191  0.8424594041 -1.2716885488
H   2.2238688719  0.0636852932  1.0793126546
H   3.8298671236  1.2486904304 -0.9632709958
H   2.8364697583  0.0130942201  1.0647957111
H   4.9126180361  3.0959756861 -0.5824426361
17
Image 372  Energy = -420.0914476204
C  -1.4787373893  0.1954531813  0.4251730141
O  -1.6379221118  1.2635396988  0.8034130230
C  -0.7112711955 -0.1357167753 -0.2795428708
C   0.5740025098  0.6026335206 -0.3563756150
C   1.7005981144  0.0820139358  0.1290618185
O   2.3857570469 -0.5808684708  0.0924452701
C   2.0455941021  0.2204593810  0.6202109212
O   4.6710938988  2.2241919205 -0.3716466644
H  -2.2357681309 -0.5580560214  0.4828413560
H  -0.7786250463 -0.9453955147 -0.0393135100
H  -1.1429660824 -0.2209817967 -0.9664216419
H   0.5459598791  1.4621151840  0.1330663895
H   0.8120812464  0.8417949066 -1.2727101871
H   2.2217991680  0.0607266801  1.0798891857
H   3.8319921928  1.2490398181 -0.9635684554
H   2.8335327738  0.0131895468  1.0674655713
H   4.9128790241  3.0958608063 -0.5839876043
17
Image 373  Energy = -420.0871836192
C  -1.4774214411  0.1945495671  0.4264737484
O  -1.6370684868  1.2624354166  0.8054345005
C  -0.7111484265 -0.1351985500 -0.2802723704
C   0.5741638125  0.6030840989 -0.3573835836
C   1.6999901126  0.0827736591  0.1294046407
O   2.3875022248 -0.5778666688  0.0923571305
C   2.0427901992  0.2193370299  0.6221458310
O   4.6714555884  2.2240763054 -0.3725032689
H  -2.2338556765 -0.5594025800  0.4840484568
H  -0.7785506363 -0.9452784043 -0.0417552925
H  -1.1439160907 -0.2188899090 -0.9665826654
H   0.5458325877  1.4630567592  0.1311644765
H   0.8126448572  0.8411313938 -1.2737308039
H   2.2197276337  0.0577700162  1.0804676495
H   3.8341145185  1.2493924250 -0.9638667922
H   2.8305999857  0.0132851106  1.0701298674
H   4.9131392375  3.0957443314 -0.5855315239
17
Image 374  Energy = -420.0830010517
C  -1.4761060376  0.1936451279  0.4277761100
O  -1.6362170467  1.2613332682  0.8074528622
C  -0.7110263281 -0.1346813625 -0.2810012855
C   0.5743254936  0.6035353932 -0.3583922963
C   1.6993778140  0.0835240256  0.1297433741
O   2.3892585367 -0.5748534874  0.0922637633
C   2.0399858313  0.2182089588  0.6240871881
O   4.6718157896  2.2239582183 -0.3733572126
H  -2.2319444471 -0.5607463531  0.4852536497
H  -0.7784760346 -0.9451616110 -0.0441955698
H  -1.1448660097 -0.2167989003 -0.9667421662
H   0.5457058927  1.4639971129  0.1292649846
H   0.8132078343  0.8404688611 -1.2747504090
H   2.2176550097  0.0548156471  1.0810490738
H   3.8362340477  1.2497482296 -0.9641660135
H   2.8276709888  0.0133806236  1.0727883216
H   4.9133986653  3.0956262492 -0.5870743741
17
Image 375  Energy = -420.0789307000
C  -1.4747911253  0.1927398295  0.4290800299
O  -1.6353677985  1.2602332535  0.8094680498
C  -0.7109049241 -0.1341652524 -0.2817295629
C   0.5744876730  0.6039873903 -0.3594017828
C   1.6987599044  0.0842666847  0.1300786341
O   2.3910280099 -0.5718309108  0.0921645227
C   2.0371798902  0.2170754917  0.6260344596
O   4.6721744964  2.2238376631 -0.3742084624
H  -2.2300344766 -0.5620873055  0.4864569079
H  -0.7784012095 -0.9450450730 -0.0466342838
H  -1.1458158251 -0.2147088003 -0.9669001052
H   0.5455797432  1.4649362995  0.1273679602
H   0.8137701645  0.8398073054 -1.2757690003
H   2.2155820138  0.0518638398  1.0816341729
H   3.8383507204  1.2501072106 -0.9644661270
H   2.8247454484  0.0134758277  1.0754407129
H   4.9136572952  3.0955065473 -0.5886161253
17
Image 376  Energy = -420.0750041127
C  -1.4734766672  0.1918336453  0.4303854392
O  -1.6345207523  1.2591353809  0.8114799990
C  -0.7107842363 -0.1336502633 -0.2824571498
C   0.5746504387  0.6044400830 -0.3604120784
C   1.6981352065  0.0850032597  0.1304112388
O   2.3928126274 -0.5688009155  0.0920587816
C   2.0343712216  0.2159369961  0.6279871389
O   4.6725317043  2.2237146475 -0.3750569839
H  -2.2281258035 -0.5634253965  0.4876581969
H  -0.7783261341 -0.9449287359 -0.0490713661
H  -1.1467655208 -0.2126196464 -0.9670564463
H   0.5454540947  1.4658743576  0.1254734510
H   0.8143318380  0.8391467251 -1.2767865639
H   2.2135092841  0.0489147868  1.0822233423
H   3.8404644701  1.2504693467 -0.9647671396
H   2.8218231146  0.0135705151  1.0780868825
H   4.9139151143  3.0953852150 -0.5901567418
17
Image 377  Energy = -420.0712541771
C  -1.4721626431  0.1909265579  0.4316922698
O  -1.6336759195  1.2580396657  0.8134886432
C  -0.7106642876 -0.1331364424 -0.2831839945
C   0.5748138439  0.6048934768 -0.3614232226
C   1.6975026955  0.0857353099  0.1307421702
O   2.3946143165 -0.5657654668  0.0919459081
C   2.0315586572  0.2147938877  0.6299447714
O   4.6728874117  2.2235891821 -0.3759027419
H  -2.2262184692 -0.5647605822  0.4888574769
H  -0.7782507874 -0.9448125553 -0.0515067414
H  -1.1477150817 -0.2105314816 -0.9672111595
H   0.5453289078  1.4668113116  0.1235815033
H   0.8148928470  0.8384871214 -1.2778030757
H   2.2114373494  0.0459686215  1.0828167073
H   3.8425752252  1.2508346155 -0.9650690575
H   2.8189038234  0.0136645353  1.0807267275
H   4.9141721109  3.0952622439 -0.5916961840
17
Image 378  Energy = -420.0677188445
C  -1.4708490477  0.1900185581  0.4330004548
O  -1.6328333125  1.2569461300  0.8154939167
C  -0.7105451041 -0.1326238383 -0.2839100469
C   0.5749779180  0.6053475881 -0.3624352517
C   1.6968614882  0.0864642826  0.1310724977
O   2.3964349214 -0.5627264827  0.0918252578
C   2.0287410720  0.2136466225  0.6319069844
O   4.6732416197  2.2234612808 -0.3767457007
H  -2.2243125169 -0.5660928186  0.4900547052
H  -0.7781751553 -0.9446964987 -0.0539403292
H  -1.1486644958 -0.2084443513 -0.9673642231
H   0.5452041472  1.4677471738  0.1216921610
H   0.8154531845  0.8378284990 -1.2788185046
H   2.2093666091  0.0430254367  1.0834141910
H   3.8446829104  1.2512029934 -0.9653718856
H   2.8159874872  0.0137577959  1.0833601838
H   4.9144282748  3.0951376298 -0.5932344102
17
Image 379  Energy = -420.0644388110
C  -1.4695358903  0.1891096434  0.4343099285
O  -1.6319929442  1.2558548017  0.8174957559
C  -0.7104267160 -0.1321125010 -0.2846352595
C   0.5751426748  0.6058024387 -0.3634481948
C   1.6962107896  0.0871915442  0.1314033456
O   2.3982762619 -0.5596858891  0.0916961452
C   2.0259173808  0.2124957135  0.6338735051
O   4.6735943318  2.2233309596 -0.3775858236
H  -2.2224079911 -0.5674220620  0.4912498376
H  -0.7780992290 -0.9445805441 -0.0563720449
H  -1.1496137549 -0.2063583025 -0.9675156233
H   0.5450797802  1.4686819479  0.1198054663
H   0.8160128445  0.8371708665 -1.2798328136
H   2.2072973353  0.0400853064  1.0840155752
H   3.8467874460  1.2515744553 -0.9656756274
H   2.8130740835  0.0138502505  1.0859872063
H   4.9146835972  3.0950113722 -0.5947713781
17
Image 380  Energy = -420.0614539729
C  -1.4682231949  0.1881998183  0.4356206276
O  -1.6311548287  1.2547657149  0.8194940991
C  -0.7103091535 -0.1316024795 -0.2853595865
C   0.5753081212  0.6062580510 -0.3644620698
C   1.6955498412  0.0879183867  0.1317358391
O   2.4001401496 -0.5566456145  0.0915578376
C   2.0230865668  0.2113417087  0.6358441606
O   4.6739455535  2.2231982365 -0.3784230735
H  -2.2205049385 -0.5687482692  0.4924428285
H  -0.7780230032 -0.9444646793 -0.0588018003
H  -1.1505628538 -0.2042733848 -0.9676653545
H   0.5449557756  1.4696156323  0.1179214600
H   0.8165718218  0.8365142349 -1.2808459614
H   2.2052296851  0.0371483074  1.0846205719
H   3.8488887480  1.2519489736 -0.9659802842
H   2.8101636386  0.0139418900  1.0886077501
H   4.9149380714  3.0948834741 -0.5963070439
17
Image 381  Energy = -420.0588159961
C  -1.4669110019  0.1872890954  0.4369324933
O  -1.6303189825  1.2536789086  0.8214888835
C  -0.7101924440 -0.1310938187 -0.2860829846
C   0.5754742634  0.6067144418 -0.3654768805
C   1.6948778660  0.0886460548  0.1320710773
O   2.4020284201 -0.5536075957  0.0914095636
C   2.0202476949  0.2101851734  0.6378188676
O   4.6742952915  2.2230631302 -0.3792574110
H  -2.2186034096 -0.5700713970  0.4936336299
H  -0.7779464733 -0.9443489005 -0.0612295025
H  -1.1515117866 -0.2021896525 -0.9678134174
H   0.5448321022  1.4705482223  0.1160401845
H   0.8171301123  0.8358586167 -1.2818579000
H   2.2031637303  0.0342145306  1.0852288641
H   3.8509867261  1.2523265180 -0.9662858552
H   2.8072561998  0.0140327313  1.0912217496
H   4.9151916913  3.0947539422 -0.5978413617
17
Image 382  Energy = -420.0566443115
C  -1.4656004992  0.1863773063  0.4382467699
O  -1.6294867174  1.2525959581  0.8234785392
C  -0.7100758272 -0.1305869309 -0.2868051985
C   0.5756421368  0.6071716047 -0.3664926879
C   1.6941887154  0.0893743727  0.1324100780
O   2.4039531467 -0.5505743467  0.0912440230
C   2.0173972186  0.2090258640  0.6398008933
O   4.6746427861  2.2229242884 -0.3800874340
H  -2.2167042517 -0.5713900119  0.4948211370
H  -0.7778693793 -0.9442338719 -0.0636540154
H  -1.1524607218 -0.2001078679 -0.9679596256
H   0.5447087048  1.4714794883  0.1141630159
H   0.8176874731  0.8352044427 -1.2828681050
H   2.2010996500  0.0312857286  1.0858419116
H   3.8530798220  1.2527087167 -0.9665926238
H   2.8043536515  0.0141231293  1.0938270181
H   4.9154440916  3.0946221303 -0.5993736955
17
Image 383  Energy = -420.0549418697
C  -1.4642906653  0.1854646876  0.4395621150
O  -1.6286567839  1.2515154044  0.8254644651
C  -0.7099600880 -0.1300814796 -0.2875264010
C   0.5758106908  0.6076295528 -0.3675093895
C   1.6934866684  0.0901060766  0.1327541475
O   2.4059063632 -0.5475473845  0.0910669277
C   2.0145370220  0.2078651341  0.6417868812
O   4.6749888073  2.2227831033 -0.3809144410
H  -2.2148067661 -0.5727054332  0.4960063272
H  -0.7777919664 -0.9441189488 -0.0660762369
H  -1.1534094533 -0.1980274324 -0.9681041843
H   0.5445855676  1.4724096409  0.1122887004
H   0.8182441415  0.8345513076 -1.2838769627
H   2.1990373744  0.0283603961  1.0864575050
H   3.8551693555  1.2530938710 -0.9669002965
H   2.8014541119  0.0142128025  1.0964253977
H   4.9156956205  3.0944887027 -0.6009045543
17
Image 384  Energy = -420.2521709185
C  -1.4516626440  0.1753717452  0.4557945867
O  -1.6204727404  1.2410856677  0.8464581808
C  -0.7073204628 -0.1247367264 -0.2958223059
C   0.5787049988  0.6123426774 -0.3787523823
C   1.6791998670  0.1019878204  0.1414569126
O   2.4429315803 -0.5211584656  0.0814467647
C   1.9766581857  0.1966715733  0.6642268637
O   4.6781801443  2.2200736791 -0.3891368636
H  -2.1945465762 -0.5862685042  0.5083466163
H  -0.7764970800 -0.9437147244 -0.0919436852
H  -1.1642789671 -0.1755975260 -0.9700960459
H   0.5431502362  1.4825526207  0.0926257278
H   0.8243686489  0.8275381285 -1.2946874895
H   2.1759554100 -0.0021177891  1.0962726284
H   3.8771958910  1.2586272774 -0.9703362106
H   2.7702118075  0.0147222760  1.1215322352
H   4.9182217006  3.0926202706 -0.6173855328
17
Image 385  Energy = -420.2372430287
C  -1.4501804473  0.1744215348  0.4569226918
O  -1.6196911810  1.2399939233  0.8482664048
C  -0.7074514481 -0.1242890400 -0.2964195699
C   0.5787222691  0.6129187130 -0.3798223358
C   1.6785692503  0.1019955461  0.1413413232
O   2.4440776595 -0.5167607634  0.0819803160
C   1.9748074471  0.1946604027  0.6662400567
O   4.6785165841  2.2199361352 -0.3898496021
H  -2.1927143627 -0.5874698622  0.5094503407
H  -0.7764631113 -0.9434834776 -0.0942758398
H  -1.1651195546 -0.1735881806 -0.9700580343
H   0.5430782362  1.4833677397  0.0908453483
H   0.8248697392  0.8269314958 -1.2956019480
H   2.1741060354 -0.0050468863  1.0964121545
H   3.8791313561  1.2590301574 -0.9706972989
H   2.7673002585  0.0149509462  1.1241095465
H   4.9184412690  3.0924316164 -0.6188435534
17
Image 386  Energy = -420.2234088033
C  -1.4487062386  0.1734706355  0.4580627223
O  -1.6189093073  1.2389049238  0.8500818057
C  -0.7075711543 -0.1238387662 -0.2970227238
C   0.5787498821  0.6134896956 -0.3808904309
C   1.6779356472  0.1020253357  0.1412500988
O   2.4452721792 -0.5124097552  0.0824778560
C   1.9729102381  0.1926816358  0.6682621495
O   4.6788521879  2.2197953206 -0.3905648966
H  -2.1908786263 -0.5886746759  0.5105570267
H  -0.7764269773 -0.9432586188 -0.0966126611
H  -1.1659659149 -0.1715745032 -0.9700275684
H   0.5430030709  1.4841885745  0.0890610037
H   0.8253730616  0.8263232971 -1.2965207600
H   2.1722486895 -0.0079784737  1.0965682786
H   3.8810730823  1.2594361731 -0.9710578532
H   2.7643785590  0.0151756091  1.1266813597
H   4.9186616209  3.0922435926 -0.6203054069
17
Image 387  Energy = -420.2100819472
C  -1.4472424578  0.1725193163  0.4592164963
O  -1.6181274412  1.2378196776  0.8519047429
C  -0.7076772358 -0.1233853998 -0.2976325800
C   0.5787909635  0.6140536882 -0.3819554921
C   1.6772986921  0.1020780674  0.1411832281
O   2.4465157129 -0.5081045455  0.0829387541
C   1.9709648523  0.1907362202  0.6702905846
O   4.6791865937  2.2196506108 -0.3912831073
H  -2.1890396413 -0.5898830088  0.5116666809
H  -0.7763879913 -0.9430413787 -0.0989537733
H  -1.1668187979 -0.1695567065 -0.9700061612
H   0.5429245459  1.4850154913  0.0872729672
H   0.8258789011  0.8257133210 -1.2974442240
H   2.1703827572 -0.0109123024  1.0967465526
H   3.8830213295  1.2598458602 -0.9714173623
H   2.7614463881  0.0153946471  1.1292437703
H   4.9188828287  3.0920564423 -0.6217710764
17
Image 388  Energy = -420.1973190699
C  -1.4457918571  0.1715675717  0.4603875806
O  -1.6173455685  1.2367390440  0.8537368662
C  -0.7077661017 -0.1229282668 -0.2982508748
C   0.5788490737  0.6146086592 -0.3830169725
C   1.6766504552  0.1021654931  0.1411487302
O   2.4478286999 -0.5038610117  0.0833516661
C   1.9689556054  0.1888319711  0.6723233036
O   4.6795195172  2.2195010832 -0.3920050794
H  -2.1871966823 -0.5910956831  0.5127798740
H  -0.7763452058 -0.9428333570 -0.1013001181
H  -1.1676799171 -0.1675338786 -0.9699959367
H   0.5428422993  1.4858496249  0.0854805783
H   0.8263880636  0.8251008384 -1.2983732224
H   2.1685050614 -0.0138478164  1.0969568631
H   3.8849774371  1.2602600435 -0.9717752803
H   2.7585039992  0.0156052659  1.1317934419
H   4.9191051205  3.0918704193 -0.6232414192
17
Image 389  Energy = -420.1859139835
C  -1.4443589457  0.1706155385  0.4615821338
O  -1.6165634969  1.2356643528  0.8555811179
C  -0.7078317979 -0.1224665683 -0.2988806975
C   0.5789273963  0.6151526991 -0.3840750413
C   1.6759748477  0.1023118941  0.1411646181
O   2.4492567280 -0.4997178439  0.0836902266
C   1.9668499010  0.1869862600  0.6743597506
O   4.6798505688  2.2193452484 -0.3927322538
H  -2.1853483893 -0.5923142132  0.5138976828
H  -0.7762971455 -0.9426372582 -0.1036535892
H  -1.1685522259 -0.1655042623 -0.9700004267
H   0.5427555309  1.4866931277  0.0836825088
H   0.8269019595  0.8244846685 -1.2993093287
H   2.1666095414 -0.0167832415  1.0972147923
H   3.8869438233  1.2606801076 -0.9721307577
H   2.7555528299  0.0158035819  1.1343272511
H   4.9193288742  3.0916859097 -0.6247179864
17
Image 390  Energy = -420.1777608646
C  -1.4429539665  0.1696643460  0.4628117479
O  -1.6157812478  1.2345989947  0.8574421006
C  -0.7078623970 -0.1219993177 -0.2995278628
C   0.5790304183  0.6156827167 -0.3851299345
C   1.6752394913  0.1025664249  0.1412683590
O   2.4508935580 -0.4957598774  0.0838980491
C   1.9645828338  0.1852359997  0.6763997769
O   4.6801788373  2.2191803716 -0.3934669201
H  -2.1834934100 -0.5935408194  0.5150215299
H  -0.7762409492 -0.9424587566 -0.1060163161
H  -1.1694410054 -0.1634657299 -0.9700267891
H   0.5426626471  1.4875497662  0.0818773255
H   0.8274230035  0.8238630815 -1.3002550487
H   2.1646845648 -0.0197126284  1.0975483478
H   3.8889238944  1.2611084765 -0.9724819303
H   2.7525990613  0.0159831800  1.1368404035
H   4.9195546663  3.0915037723 -0.6262028381
17
Image 391  Energy = -420.1777707215
C  -1.4416129863  0.1687209277  0.4641056783
O  -1.6150022460  1.2335575555  0.8593259428
C  -0.7078224329 -0.1215249020 -0.3002069325
C   0.5791740283  0.6161859438 -0.3861767741
C   1.6743608517  0.1030609384  0.1415635365
O   2.4529897073 -0.4922336309  0.0838173876
C   1.9619828183  0.1836917049  0.6784356575
O   4.6805001063  2.2189988204 -0.3942126110
H  -2.1816354389 -0.5947770207  0.5161511144
H  -0.7761685062 -0.9423158062 -0.1083847703
H  -1.1703581559 -0.1614204407 -0.9700963338
H   0.5425590825  1.4884273657  0.0800680686
H   0.8279558796  0.8232339041 -1.3012142004
H   2.1627049107 -0.0226091504  1.0980347808
H   3.8909198084  1.2615507672 -0.9728221455
H   2.7496693300  0.0161257473  1.1393076351
H   4.9197832431  3.0913272766 -0.6276960335
17
Image 392  Energy = -420.1775697780
C  -1.4402672717  0.1677768031  0.4653950274
O  -1.6142214678  1.2325130471  0.8612109898
C  -0.7077870843 -0.1210503960 -0.3008846476
C   0.5793161830  0.6166901344 -0.3872231810
C   1.6734976485  0.1035451609  0.1418481702
O   2.4550512478 -0.4886860710  0.0837567072
C   1.9593995141  0.1821400059  0.6804699759
O   4.6808226076  2.2188196540 -0.3949596388
H  -2.1797760877 -0.5960145591  0.5172818997
H  -0.7760971133 -0.9421702386 -0.1107548511
H  -1.1712739255 -0.1593740658 -0.9701639696
H   0.5424556800  1.4893047651  0.0782569289
H   0.8284885790  0.8226043298 -1.3021734834
H   2.1607281005 -0.0255094995  1.0985129097
H   3.8929171997  1.2619904925 -0.9731628243
H   2.7467340707  0.0162693274  1.1417797799
H   4.9200121193  3.0911511104 -0.6291897926
17
Image 393  Energy = -420.1772012425
C  -1.4389169859  0.1668321246  0.4666799456
O  -1.6134389766  1.2314655558  0.8630972736
C  -0.7077561075 -0.1205758130 -0.3015611132
C   0.5794570819  0.6171951181 -0.3882690346
C   1.6726497847  0.1040196150  0.1421225219
O   2.4570789009 -0.4851182404  0.0837155143
C   1.9568323560  0.1805815532  0.6825027998
O   4.6811462915  2.2186428067 -0.3957080189
H  -2.1779154731 -0.5972534874  0.5184138801
H  -0.7760267169 -0.9420221898 -0.1131264712
H  -1.1721883936 -0.1573266189 -0.9702298441
H   0.5423524260  1.4901819817  0.0764439498
H   0.8290211377  0.8219743626 -1.3031329252
H   2.1587540127 -0.0284135199  1.0989831135
H   3.8949160668  1.2624276882 -0.9735039119
H   2.7437932969  0.0164137618  1.1442564231
H   4.9202412985  3.0909753027 -0.6306841020
17
Image 394  Energy = -420.1766240882
C  -1.4375625054  0.1658868924  0.4679606285
O  -1.6126547735  1.2304151789  0.8649848019
C  -0.7077292668 -0.1201010850 -0.3022364227
C   0.5795968552  0.6177007667 -0.3893142752
C   1.6718173086  0.1044846210  0.1423867216
O   2.4590729728 -0.4815307038  0.0836936530
C   1.9542810691  0.1790167492  0.6845341553
O   4.6814711402  2.2184682534 -0.3964577630
H  -2.1760535666 -0.5984937459  0.5195470433
H  -0.7759572799 -0.9418717743 -0.1154996227
H  -1.1731015926 -0.1552781758 -0.9702940691
H   0.5422493083  1.4910590113  0.0746291596
H   0.8295535710  0.8213439919 -1.3040925200
H   2.1567826301 -0.0313210890  1.0994457040
H   3.8969163896  1.2628623599 -0.9738453726
H   2.7408469524  0.0165588700  1.1467371223
H   4.9204707878  3.0907998797 -0.6321789438
17
Image 395  Energy = -420.1758670996
C  -1.4362040761  0.1649411755  0.4692372313
O  -1.6118688834  1.2293619932  0.8668735925
C  -0.7077063493 -0.1196261848 -0.3029106666
C   0.5797356368  0.6182069530 -0.3903588267
C   1.6710001418  0.1049406113  0.1426409208
O   2.4610339528 -0.4779242400  0.0836908334
C   1.9517452783  0.1774460629  0.6865641136
O   4.6817971238  2.2182959546 -0.3972088819
H  -2.1741904057 -0.5997353313  0.5206813820
H  -0.7758887623 -0.9417191052 -0.1178742637
H  -1.1740135754 -0.1532287756 -0.9703567597
H   0.5421463224  1.4919358511  0.0728125875
H   0.8300859034  0.8207132165 -1.3050522744
H   2.1548138789 -0.0342320835  1.0999009415
H   3.8989181550  1.2632945223 -0.9741871658
H   2.7378950663  0.0167045127  1.1492215418
H   4.9207005929  3.0906248681 -0.6336743051
17
Image 396  Energy = -420.1749387931
C  -1.4348419284  0.1639950394  0.4705098990
O  -1.6110813272  1.2283060673  0.8687636624
C  -0.7076871578 -0.1191510860 -0.3035839298
C   0.5798735413  0.6187135629 -0.3914026228
C   1.6701981928  0.1053880103  0.1428852474
O   2.4629622966 -0.4742995965  0.0837067860
C   1.9492246397  0.1758699218  0.6885927549
O   4.6821242146  2.2181258734 -0.3979613849
H  -2.1723260248 -0.6009782419  0.5218168904
H  -0.7758211266 -0.9415642894 -0.1202503554
H  -1.1749243941 -0.1511784531 -0.9704180248
H   0.5420434679  1.4928124941  0.0709942594
H   0.8306181592  0.8200820360 -1.3060121935
H   2.1528476773 -0.0371463875  1.1003490378
H   3.9009213495  1.2637241877 -0.9745292528
H   2.7349377000  0.0168505685  1.1517094028
H   4.9209307200  3.0904502937 -0.6351701756
17
Image 397  Energy = -420.1738449404
C  -1.4334762789  0.1630485453  0.4717787679
O  -1.6102921225  1.2272474632  0.8706550281
C  -0.7076715085 -0.1186757623 -0.3042562923
C   0.5800106685  0.6192204940 -0.3924456063
C   1.6694113748  0.1058272213  0.1431198084
O   2.4648584084 -0.4706574748  0.0837412631
C   1.9467188443  0.1742887133  0.6906201636
O   4.6824523862  2.2179579750 -0.3987152806
H  -2.1704604555 -0.6022224772  0.5229535638
H  -0.7757543380 -0.9414074284 -0.1226278616
H  -1.1758341000 -0.1491272393 -0.9704779664
H   0.5419407478  1.4936889296  0.0691741980
H   0.8311503616  0.8194504517 -1.3069722821
H   2.1508839345 -0.0400638928  1.1007901623
H   3.9029259596  1.2641513666 -0.9748715968
H   2.7319749422  0.0169969339  1.1542004781
H   4.9211611755  3.0902761816 -0.6366665466
17
Image 398  Energy = -420.1725926100
C  -1.4321073306  0.1621017500  0.4730439652
O  -1.6095012840  1.2261862375  0.8725477057
C  -0.7076592316 -0.1182001878 -0.3049278286
C   0.5801471018  0.6197276565 -0.3934877304
C   1.6686396148  0.1062586247  0.1433446991
O   2.4667226424 -0.4669985351  0.0837940331
C   1.9442276152  0.1727027866  0.6926464238
O   4.6827816134  2.2177922263 -0.3994705771
H  -2.1685937270 -0.6034680378  0.5240913986
H  -0.7756883640 -0.9412486191 -0.1250067481
H  -1.1767427435 -0.1470751617 -0.9705366820
H   0.5418381668  1.4945651448  0.0673524233
H   0.8316825329  0.8188184654 -1.3079325449
H   2.1489225503 -0.0429844974  1.1012244490
H   3.9049319726  1.2645760686 -0.9752141624
H   2.7290069044  0.0171435227  1.1566945874
H   4.9213919659  3.0901025565 -0.6381634112
17
Image 399  Energy = -420.1711811559
C  -1.4307352744  0.1611547056  0.4743056101
O  -1.6087088244  1.2251224425  0.8744417111
C  -0.7076501677 -0.1177243359 -0.3055986078
C   0.5802829134  0.6202349700 -0.3945289564
C   1.6678828735  0.1066825559  0.1435599883
O   2.4685552586 -0.4633233597  0.0838648967
C   1.9417507332  0.1711124404  0.6946716184
O   4.6831118719  2.2176285948 -0.4002272821
H  -2.1667258668 -0.6047149247  0.5252303921
H  -0.7756231746 -0.9410879541 -0.1273869827
H  -1.1776503737 -0.1450222453 -0.9705942642
H   0.5417357305  1.4954411254  0.0655289533
H   0.8322146936  0.8181860801 -1.3088929871
H   2.1469634194 -0.0459081063  1.1016519955
H   3.9069393769  1.2649983031 -0.9755569159
H   2.7260337131  0.0172902668  1.1591915949
H   4.9216230977  3.0899294420 -0.6396607636
17
Image 400  Energy = -420.1696156685
C  -1.4293602892  0.1602074592  0.4755638140
O  -1.6079147553  1.2240561271  0.8763370593
C  -0.7076441683 -0.1172481807 -0.3062686941
C   0.5804181623  0.6207423644 -0.3955692557
C   1.6671411427  0.1070993127  0.1437657289
O   2.4703564409 -0.4596324744  0.0839536709
C   1.9392880235  0.1695179326  0.6966958279
O   4.6834431377  2.2174670491 -0.4009854033
H  -2.1648569008 -0.6059631397  0.5263705426
H  -0.7755587422 -0.9409255214 -0.1297685343
H  -1.1785570386 -0.1429685125 -0.9706508014
H   0.5416334452  1.4963168561  0.0637038043
H   0.8327468626  0.8175533000 -1.3098536147
H   2.1450064279 -0.0488346289  1.1020728703
H   3.9089481621  1.2654180796 -0.9758998248
H   2.7230555124  0.0174371161  1.1616914097
H   4.9218545772  3.0897568612 -0.6411585990
17
Image 401  Energy = -420.1678935982
C  -1.4279825425  0.1592600533  0.4768186797
O  -1.6071190872  1.2229873376  0.8782337648
C  -0.7076410936 -0.1167716957 -0.3069381463
C   0.5805528971  0.6212497783 -0.3966086092
C   1.6664144537  0.1075091489  0.1439619548
O   2.4721262811 -0.4559263387  0.0840601925
C   1.9368393660  0.1679194772  0.6987191291
O   4.6837753873  2.2173075580 -0.4017449483
H  -2.1629868539 -0.6072126845  0.5275118490
H  -0.7754950417 -0.9407614052 -0.1321513723
H  -1.1794627846 -0.1409139840 -0.9707063782
H   0.5415313167  1.4971923210  0.0618769921
H   0.8332790566  0.8169201297 -1.3108144347
H   2.1430514560 -0.0517639794  1.1024871162
H   3.9109583196  1.2658354087 -0.9762428579
H   2.7200724588  0.0175840389  1.1641939825
H   4.9220864107  3.0895848365 -0.6426569132
17
Image 402  Energy = -420.1660743122
C  -1.4266022048  0.1583124595  0.4780702843
O  -1.6063218269  1.2219161446  0.8801318494
C  -0.7076408980 -0.1162948549 -0.3076069804
C   0.5806871412  0.6217573363 -0.3976470838
C   1.6657030438  0.1079121930  0.1441487431
O   2.4738647180 -0.4522052759  0.0841843379
C   1.9344047609  0.1663171722  0.7007415324
O   4.6841086161  2.2171501110 -0.4025059287
H  -2.1611157456 -0.6084635562  0.5286543051
H  -0.7754320586 -0.9405956891 -0.1345354752
H  -1.1803676652 -0.1388587091 -0.9707610667
H   0.5414293470  1.4980674989  0.0600485538
H   0.8338113012  0.8162865327 -1.3117754649
H   2.1410984897 -0.0546960427  1.1028948304
H   3.9129698277  1.2662502792 -0.9765859852
H   2.7170845476  0.0177310159  1.1666992403
H   4.9223186060  3.0894133851 -0.6441556912
17
Image 403  Energy = -420.1640327370
C  -1.4252194091  0.1573647734  0.4793187323
O  -1.6055229882  1.2208425651  0.8820313180
C  -0.7076433733 -0.1158176336 -0.3082752805
C   0.5808209450  0.6222648167 -0.3986846022
C   1.6650068540  0.1083087028  0.1443260325
O   2.4755717388 -0.4484697081  0.0843259427
C   1.9319841076  0.1647112337  0.7027631634
O   4.6844427834  2.2169946575 -0.4032683478
H  -2.1592436040 -0.6097157605  0.5297979152
H  -0.7753697647 -0.9404284436 -0.1369208031
H  -1.1812717147 -0.1368026758 -0.9708149527
H   0.5413275438  1.4989423800  0.0582184835
H   0.8343435986  0.8156525555 -1.3127367051
H   2.1391472796 -0.0576307703  1.1032959479
H   3.9149826938  1.2666627252 -0.9769291779
H   2.7140921431  0.0178780504  1.1692072746
H   4.9225511664  3.0892425320 -0.6456549402
17
Image 404  Energy = -420.1618290634
C  -1.4238342925  0.1564170223  0.4805641031
O  -1.6047225815  1.2197666406  0.8839321823
C  -0.7076484004 -0.1153400084 -0.3089430900
C   0.5809543391  0.6227721752 -0.3997211698
C   1.6643260101  0.1086988309  0.1444938148
O   2.4772472107 -0.4447199526  0.0844848605
C   1.9295773977  0.1631017783  0.7047840764
O   4.6847778670  2.2168411672 -0.4040322129
H  -2.1573704518 -0.6109692983  0.5309426786
H  -0.7753081415 -0.9402597381 -0.1393073240
H  -1.1821749741 -0.1347458999 -0.9708681098
H   0.5412259106  1.4998169497  0.0563867972
H   0.8348759599  0.8150182037 -1.3136981650
H   2.1371976741 -0.0605680832  1.1036904676
H   3.9169969127  1.2670727596 -0.9772724082
H   2.7110954631  0.0180251560  1.1717181566
H   4.9227840970  3.0890722977 -0.6471546568
17
Image 405  Energy = -420.1594542908
C  -1.4224469832  0.1554692280  0.4818064685
O  -1.6039206179  1.2186884116  0.8858344537
C  -0.7076558651 -0.1148619572 -0.3096104467
C   0.5810873550  0.6232793687 -0.4007567969
C   1.6636606626  0.1090827055  0.1446520700
O   2.4788909398 -0.4409562906  0.0846609429
C   1.9271846404  0.1614889003  0.7068043086
O   4.6851138452  2.2166896098 -0.4047975310
H  -2.1554963108 -0.6122241697  0.5320885942
H  -0.7752471726 -0.9400896365 -0.1416950053
H  -1.1830774823 -0.1326883960 -0.9709206081
H   0.5411244501  1.5006911942  0.0545535118
H   0.8354083948  0.8143834825 -1.3146598543
H   2.1352495087 -0.0635079053  1.1040783879
H   3.9190124800  1.2674803965 -0.9776156494
H   2.7080947530  0.0181723570  1.1742319923
H   4.9230174023  3.0889027020 -0.6486548377
17
Image 406  Energy = -420.1569051469
C  -1.4210576003  0.1545214079  0.4830458928
O  -1.6031171089  1.2176079175  0.8877381424
C  -0.7076656582 -0.1143834599 -0.3102773837
C   0.5812200264  0.6237863555 -0.4017914983
C   1.6630109715  0.1094604442  0.1448007762
O   2.4805026986 -0.4371789876  0.0848540315
C   1.9248058464  0.1598726796  0.7088238762
O   4.6854506974  2.2165399558 -0.4055643088
H  -2.1536212018 -0.6134803741  0.5332356604
H  -0.7751868434 -0.9399181962 -0.1440838133
H  -1.1839792757 -0.1306301775 -0.9709725135
H   0.5410231636  1.5015651007  0.0527186450
H   0.8359409123  0.8137483957 -1.3156217831
H   2.1333026050 -0.0664501615  1.1044597114
H   3.9210293918  1.2678856505 -0.9779588755
H   2.7050902889  0.0183196858  1.1767489204
H   4.9232510866  3.0887337642 -0.6501554798
17
Image 407  Energy = -420.1541724296
C  -1.4196662558  0.1535735749  0.4842824334
O  -1.6023120662  1.2165251967  0.8896432578
C  -0.7076776751 -0.1139044986 -0.3109439293
C   0.5813523920  0.6242930919 -0.4028252897
C   1.6623771039  0.1098321582  0.1449399094
O   2.4820822277 -0.4333882900  0.0850639633
C   1.9224410170  0.1582531842  0.7108427608
O   4.6857884038  2.2163921763 -0.4063325525
H  -2.1517451439 -0.6147379099  0.5343838753
H  -0.7751271407 -0.9397454686 -0.1464737140
H  -1.1848803883 -0.1285712565 -0.9710238883
H   0.5409220521  1.5024386572  0.0508822159
H   0.8364735207  0.8131129462 -1.3165839606
H   2.1313567736 -0.0693947805  1.1048344530
H   3.9230476451  1.2682885371 -0.9783020617
H   2.7020823802  0.0184671789  1.1792691078
H   4.9234851539  3.0885655030 -0.6516565802
17
Image 408  Energy = -420.1512512586
C  -1.4182730536  0.1526257383  0.4855161413
O  -1.6015055020  1.2154402859  0.8915498083
C  -0.7076918160 -0.1134250576 -0.3116101081
C   0.5814844961  0.6247995325 -0.4038581856
C   1.6617592212  0.1101979621  0.1450694467
O   2.4836292568 -0.4295844366  0.0852905721
C   1.9200901357  0.1566304735  0.7128609051
O   4.6861269460  2.2162462431 -0.4071022684
H  -2.1498681548 -0.6159967744  0.5355332366
H  -0.7750680526 -0.9395714978 -0.1488646734
H  -1.1857808510 -0.1265116444 -0.9710747901
H   0.5408211161  1.5033118531  0.0490442442
H   0.8370062285  0.8124771349 -1.3175463958
H   2.1294118185 -0.0723416948  1.1052026437
H   3.9250672372  1.2686890724 -0.9786451840
H   2.6990713670  0.0186148740  1.1817927441
H   4.9237196071  3.0883979365 -0.6531581362
17
Image 409  Energy = -420.1481300181
C  -1.4168780910  0.1516779044  0.4867470611
O  -1.6006974290  1.2143532199  0.8934578005
C  -0.7077079861 -0.1129451238 -0.3122759411
C   0.5816163884  0.6253056284 -0.4048901963
C   1.6611574861  0.1105579678  0.1451893644
O   2.4851434867 -0.4257676390  0.0855337134
C   1.9177531728  0.1550045941  0.7148781993
O   4.6864663067  2.2161021282 -0.4078734625
H  -2.1479902505 -0.6172569637  0.5366837414
H  -0.7750095690 -0.9393963208 -0.1512566580
H  -1.1866806908 -0.1244513524 -0.9711252719
H   0.5407203560  1.5041846786  0.0472047509
H   0.8375390444  0.8118409607 -1.3185090969
H   2.1274675482 -0.0752908449  1.1055643267
H   3.9270881665  1.2690872739 -0.9789882189
H   2.6960576119  0.0187628071  1.1843200335
H   4.9239544488  3.0882310820 -0.6546601453
17
Image 410  Energy = -420.1448066140
C  -1.4154814585  0.1507300780  0.4879752324
O  -1.5998878599  1.2132640311  0.8953672391
C  -0.7077260964 -0.1124646866 -0.3129414472
C   0.5817481176  0.6258113299 -0.4059213265
C   1.6605720520  0.1109122945  0.1452996453
O   2.4866246116 -0.4219380928  0.0857932716
C   1.9154300798  0.1533755826  0.7168944757
O   4.6868064703  2.2159598045 -0.4086461409
H  -2.1461114459 -0.6185184724  0.5378353875
H  -0.7749516816 -0.9392199665 -0.1536496362
H  -1.1875799295 -0.1223903917 -0.9711753813
H   0.5406197730  1.5050571249  0.0453637580
H   0.8380719775  0.8112044210 -1.3194720722
H   2.1255237853 -0.0782421799  1.1059195571
H   3.9291104324  1.2694831599 -0.9793311435
H   2.6930414921  0.0189110082  1.1868511864
H   4.9241896802  3.0880649556 -0.6561626047
17
Image 411  Energy = -420.1412644867
C  -1.4140832413  0.1497822624  0.4892006891
O  -1.5990768083  1.2121727493  0.8972781265
C  -0.7077460641 -0.1119837384 -0.3136066447
C   0.5818797263  0.6263165867 -0.4069515747
C   1.6600030718  0.1112610610  0.1454002695
O   2.4880722979 -0.4180959567  0.0860691867
C   1.9131208069  0.1517434558  0.7189094993
O   4.6871474223  2.2158192451 -0.4094203102
H  -2.1442317546 -0.6197812936  0.5389881726
H  -0.7748943838 -0.9390424556 -0.1560435779
H  -1.1884785839 -0.1203287744 -0.9712251605
H   0.5405193699  1.5059291835  0.0435212887
H   0.8386050375  0.8105675118 -1.3204353298
H   2.1235803804 -0.0811956591  1.1062684000
H   3.9311340356  1.2698767507 -0.9796739354
H   2.6900233857  0.0190595002  1.1893864126
H   4.9244253016  3.0878995720 -0.6576655115
17
Image 412  Energy = -420.1374958361
C  -1.4126835191  0.1488344617  0.4904234612
O  -1.5982642877  1.2110794012  0.8991904625
C  -0.7077678130 -0.1115022765 -0.3142715533
C   0.5820112363  0.6268213536 -0.4079809355
C   1.6594506834  0.1116043976  0.1454912292
O   2.4894862185 -0.4142413747  0.0863614586
C   1.9108252963  0.1501082165  0.7209229718
O   4.6874891503  2.2156804239 -0.4101959777
H  -2.1423511891 -0.6210454191  0.5401420961
H  -0.7748376714 -0.9388637997 -0.1584384566
H  -1.1893766644 -0.1182665136 -0.9712746455
H   0.5404191521  1.5068008468  0.0416773680
H   0.8391382349  0.8099302278 -1.3213988797
H   2.1216372211 -0.0841512520  1.1066109233
H   3.9331589788  1.2702680676 -0.9800165723
H   2.6870036617  0.0192082954  1.1919259126
H   4.9246613113  3.0877349442 -0.6591688623
17
Image 413  Energy = -420.1334915674
C  -1.4112823677  0.1478866815  0.4916435760
O  -1.5974503108  1.2099840103  0.9011042449
C  -0.7077912741 -0.1110203041 -0.3149361973
C   0.5821426365  0.6273255955 -0.4090094040
C   1.6589149919  0.1119424645  0.1455725418
O   2.4908660970 -0.4103745023  0.0866701422
C   1.9085434758  0.1484698576  0.7229345295
O   4.6878316433  2.2155433158 -0.4109731525
H  -2.1404697615 -0.6223108402  0.5412971592
H  -0.7747815419 -0.9386840009 -0.1608342504
H  -1.1902741759 -0.1162036226 -0.9713238661
H   0.5403191281  1.5076721078  0.0398320218
H   0.8396715804  0.8092925637 -1.3223627342
H   2.1196942381 -0.0871089366  1.1069472076
H   3.9351852671  1.2706571338 -0.9803590317
H   2.6839826676  0.0193573941  1.1944698670
H   4.9248977061  3.0875710824 -0.6606726534
17
Image 414  Energy = -420.1292419640
C  -1.4098798592  0.1469389294  0.4928610599
O  -1.5966348894  1.2088865963  0.9030194703
C  -0.7078163848 -0.1105378324 -0.3156006084
C   0.5822738691  0.6278292930 -0.4100369827
C   1.6583960448  0.1122754687  0.1456442642
O   2.4922117502 -0.4064955335  0.0869953333
C   1.9062752490  0.1468283624  0.7249437461
O   4.6881748935  2.2154078982 -0.4117518462
H  -2.1385874820 -0.6235775484  0.5424533656
H  -0.7747259938 -0.9385030514 -0.1632309430
H  -1.1911711183 -0.1141401139 -0.9713728458
H   0.5402193107  1.5085429611  0.0379852775
H   0.8402050854  0.8086545145 -1.3233269104
H   2.1177514022 -0.0900686946  1.1072773524
H   3.9372129085  1.2710439729 -0.9807012916
H   2.6809607331  0.0195067842  1.1970184403
H   4.9251344811  3.0874079939 -0.6621768812
17
Image 415  Energy = -420.1247414796
C  -1.4084760635  0.1459912162  0.4940759423
O  -1.5958180321  1.2077871750  0.9049361358
C  -0.7078430903 -0.1100548839 -0.3162648301
C   0.5824048168  0.6283324499 -0.4110636903
C   1.6578937801  0.1126037088  0.1457065333
O   2.4935231989 -0.4026047681  0.0873371306
C   1.9040204592  0.1451837176  0.7269501288
O   4.6885188960  2.2152741526 -0.4125320740
H  -2.1367043585 -0.6248455379  0.5436107232
H  -0.7746710246 -0.9383209330 -0.1656285264
H  -1.1920674883 -0.1120759972 -0.9714216015
H   0.5401197176  1.5094134038  0.0361371625
H   0.8407387611  0.8080160759 -1.3242914315
H   2.1158087159 -0.0930305084  1.1076014992
H   3.9392419154  1.2714286084 -0.9810433298
H   2.6779381667  0.0196564396  1.1995717712
H   4.9253716295  3.0872456812 -0.6636815429
17
Image 416  Energy = -420.1199937198
C  -1.4070710484  0.1450435566  0.4952882602
O  -1.5949997424  1.2066857569  0.9068542415
C  -0.7078713434 -0.1095714951 -0.3169289216
C   0.5825352956  0.6288351000 -0.4120895724
C   1.6574079778  0.1129276124  0.1457596157
O   2.4948007683 -0.3987026698  0.0876955926
C   1.9017788477  0.1435359256  0.7289531121
O   4.6888636506  2.2151420666 -0.4133138562
H  -2.1348203949 -0.6261148068  0.5447692438
H  -0.7746166280 -0.9381376170 -0.1680270041
H  -1.1929632819 -0.1100112768 -0.9714701439
H   0.5400203715  1.5102834377  0.0342877034
H   0.8412726175  0.8073772445 -1.3252563302
H   2.1138661961 -0.0959943576  1.1079198497
H   3.9412723055  1.2718110617 -0.9813851255
H   2.6749152644  0.0198063195  1.2021299733
H   4.9256091437  3.0870841420 -0.6651866381
17
Image 417  Energy = -420.1150065700
C  -1.4056648791  0.1440959693  0.4964980618
O  -1.5941800163  1.2055823463  0.9087737919
C  -0.7079011061 -0.1090877175 -0.3175929591
C   0.5826650524  0.6293373125 -0.4131147103
C   1.6569382122  0.1132477683  0.1458039531
O   2.4960451791 -0.3947899106  0.0880707019
C   1.8995500273  0.1418850115  0.7309520503
O   4.6892091627  2.2150116356 -0.4140972182
H  -2.1329355887 -0.6273853600  0.5459289445
H  -0.7745627917 -0.9379530649 -0.1704263930
H  -1.1938584961 -0.1079459486 -0.9715184772
H   0.5399212997  1.5111530708  0.0324369243
H   0.8418066629  0.8067380175 -1.3262216498
H   2.1119238558 -0.0989602176  1.1082326825
H   3.9433041028  1.2721913505 -0.9817266602
H   2.6718923073  0.0199563688  1.2046931279
H   4.9258470156  3.0869233685 -0.6666921699
17
Image 418  Energy = -420.1098076100
C  -1.4042576163  0.1431484754  0.4977054111
O  -1.5933588398  1.2044769400  0.9106947983
C  -0.7079323511 -0.1086036185 -0.3182570356
C   0.5827937748  0.6298391939 -0.4141392269
C   1.6564838200  0.1135649521  0.1458402344
O   2.4972576512 -0.3908674246  0.0884623144
C   1.8973334306  0.1402310549  0.7329462222
O   4.6895554440  2.2148828651 -0.4148821910
H  -2.1310499282 -0.6286572106  0.5470898467
H  -0.7745094940 -0.9377672290 -0.1728267261
H  -1.1947531316 -0.1058799976 -0.9715666009
H   0.5398225327  1.5120223188  0.0305848446
H   0.8423409032  0.8060983908 -1.3271874453
H   2.1099816761 -0.1019280618  1.1085403562
H   3.9453373380  1.2725694863 -0.9820679195
H   2.6688695524  0.0201065179  1.2072612652
H   4.9260852378  3.0867633473 -0.6681981472
17
Image 419  Energy = -420.1044344341
C  -1.4028493126  0.1422010960  0.4989103896
O  -1.5925361859  1.2033695267  0.9126172807
C  -0.7079650650 -0.1081192795 -0.3189212581
C   0.5829211000  0.6303408892 -0.4151632897
C   1.6560438950  0.1138801315  0.1458694557
O   2.4984399743 -0.3869364312  0.0888701394
C   1.8951282944  0.1385742178  0.7349348551
O   4.6899025131  2.2147557697 -0.4156688091
H  -2.1291633916 -0.6299303814  0.5482519768
H  -0.7744567030 -0.9375800552 -0.1752280530
H  -1.1956471938 -0.1038133949 -0.9716145110
H   0.5397241020  1.5128912056  0.0287314769
H   0.8428753425  0.8054583576 -1.3281537811
H   2.1080395886 -0.1048978657  1.1088433005
H   3.9473720497  1.2729454729 -0.9824088944
H   2.6658471876  0.0202566799  1.2098343084
H   4.9263238046  3.0866040614 -0.6697045862
17
Image 420  Energy = -420.0989418644
C  -1.4014400072  0.1412538480  0.5001130949
O  -1.5917120120  1.2022600873  0.9145412690
C  -0.7079992526 -0.1076347910 -0.3195857416
C   0.5830466352  0.6308425781 -0.4161871049
C   1.6556172971  0.1141944633  0.1458929718
O   2.4995945686 -0.3829984495  0.0892937276
C   1.8929336499  0.1369147849  0.7369171737
O   4.6902503938  2.2146303714 -0.4164571091
H  -2.1272759447 -0.6312049062  0.5494153654
H  -0.7744043768 -0.9373914862 -0.1776304388
H  -1.1965406928 -0.1017460963 -0.9716622030
H   0.5396260382  1.5137597615  0.0268768230
H   0.8434099861  0.8048179044 -1.3291207240
H   2.1060974629 -0.1078696113  1.1091420023
H   3.9494082836  1.2733193056 -0.9827495809
H   2.6628252572  0.0204067449  1.2124119873
H   4.9265627135  3.0864454916 -0.6712115122
17
Image 421  Energy = -420.0934099918
C  -1.4000297204  0.1403067401  0.5013136390
O  -1.5908862576  1.2011485946  0.9164668040
C  -0.7080349438 -0.1071502470 -0.3202506029
C   0.5831699801  0.6313444656 -0.4172109050
C   1.6552026624  0.1145092988  0.1459125514
O   2.5007245423 -0.3790553028  0.0897324970
C   1.8907483285  0.1352531996  0.7388924480
O   4.6905991145  2.2145066966 -0.4172471277
H  -2.1253875410 -0.6324808301  0.5505800481
H  -0.7743524652 -0.9372014677 -0.1800339628
H  -1.1974336429 -0.0996780393 -0.9717096748
H   0.5395283710  1.5146280187  0.0250208683
H   0.8439448459  0.8041770080 -1.3300883323
H   2.1041551209 -0.1108432930  1.1094369834
H   3.9514460938  1.2736909714 -0.9830899798
H   2.6598035459  0.0205565680  1.2149937075
H   4.9268019655  3.0862876187 -0.6727189609
17
Image 422  Energy = -420.0879270535
C  -1.3986184499  0.1393597698  0.5025121441
O  -1.5900588419  1.2000350130  0.9183939376
C  -0.7080722002 -0.1066657367 -0.3209159553
C   0.5832907468  0.6318467724 -0.4182349312
C   1.6547984118  0.1148261904  0.1459304059
O   2.5018337196 -0.3751091011  0.0901857847
C   1.8885709836  0.1335900835  0.7408600259
O   4.6909487054  2.2143847721 -0.4180389009
H  -2.1234981222 -0.6337582104  0.5517460672
H  -0.7743009113 -0.9370099542 -0.1824387169
H  -1.1983260606 -0.0976091418 -0.9717569299
H   0.5394311318  1.5154960025  0.0231635754
H   0.8444799482  0.8035356322 -1.3310566417
H   2.1022123607 -0.1138189250  1.1097287870
H   3.9534855435  1.2740604504 -0.9834300939
H   2.6567814690  0.0207059574  1.2175784219
H   4.9270415654  3.0861304257 -0.6742269795
17
Image 423  Energy = -420.0826010047
C  -1.3972061698  0.1384129230  0.5037087384
O  -1.5892296649  1.1989192978  0.9203227327
C  -0.7081111163 -0.1061813380 -0.3215819036
C   0.5834085755  0.6323497232 -0.4192594165
C   1.6544027813  0.1151468786  0.1459492014
O   2.5029265884 -0.3711622016  0.0906528917
C   1.8864001022  0.1319262304  0.7428193099
O   4.6912991971  2.2142646214 -0.4188324637
H  -2.1216076198 -0.6350371156  0.5529134725
H  -0.7742496551 -0.9368169150 -0.1848448032
H  -1.1992179636 -0.0955393023 -0.9718039796
H   0.5393343572  1.5163637248  0.0213048796
H   0.8450153398  0.8028937267 -1.3320256529
H   2.1002690100 -0.1167965425  1.1100179505
H   3.9555267061  1.2744277198 -0.9837699270
H   2.6537580103  0.0208546709  1.2201645974
H   4.9272815217  3.0859738988 -0.6757356269
17
Image 424  Energy = -420.0775492723
C  -1.3957928358  0.1374661775  0.5049035487
O  -1.5883986128  1.1978013959  0.9222532595
C  -0.7081518086 -0.1056971108 -0.3222485386
C   0.5835231550  0.6328535292 -0.4202845662
C   1.6540139264  0.1154731959  0.1459719492
O   2.5040080322 -0.3672170922  0.0911330920
C   1.8842340289  0.1302625647  0.7447697105
O   4.6916506179  2.2141462627 -0.4196278503
H  -2.1197159597 -0.6363176220  0.5540823197
H  -0.7741986387 -0.9366223378 -0.1872523288
H  -1.2001093709 -0.0934684063 -0.9718508438
H   0.5392380893  1.5172311820  0.0194446911
H   0.8455510875  0.8022512302 -1.3329953270
H   2.0983249745 -0.1197761901  1.1103049644
H   3.9575696635  1.2747927580 -0.9841094830
H   2.6507318052  0.0210024346  1.2227503731
H   4.9275218461  3.0858180287 -0.6772449697
17
Image 425  Energy = -420.0728847115
C  -1.3943783951  0.1365195081  0.5060966895
O  -1.5875655719  1.1966812513  0.9241855882
C  -0.7081943909 -0.1052130901 -0.3229159277
C   0.5836342449  0.6333583654 -0.4213105414
C   1.6536301300  0.1158068560  0.1460017197
O   2.5050827825 -0.3632761684  0.0916256090
C   1.8820710414  0.1286000519  0.7467106141
O   4.6920029903  2.2140297067 -0.4204250927
H  -2.1178230706 -0.6375998042  0.5552526632
H  -0.7741478131 -0.9364262293 -0.1896613942
H  -1.2010003029 -0.0913963414 -0.9718975512
H   0.5391423675  1.5180983639  0.0175829074
H   0.8460872701  0.8016080791 -1.3339655954
H   2.0963802764 -0.1227578957  1.1105902210
H   3.9596144997  1.2751555500 -0.9844487672
H   2.6477013900  0.0211489851  1.2253339326
H   4.9277625516  3.0856628120 -0.6787550744
17
Image 426  Energy = -420.0687026653
C  -1.3929627980  0.1355728920  0.5072882524
O  -1.5867304445  1.1955588138  0.9261197810
C  -0.7082389448 -0.1047292840 -0.3235841080
C   0.5837416981  0.6338643476 -0.4223374487
C   1.6532500282  0.1161492233  0.1460412971
O   2.5061548242 -0.3593414952  0.0921295770
C   1.8799094485  0.1269396043  0.7486413859
O   4.6923563280  2.2139149572 -0.4212242187
H  -2.1159288926 -0.6388837262  0.5564245471
H  -0.7740971457 -0.9362286123 -0.1920720817
H  -1.2018907830 -0.0893230147 -0.9719441363
H   0.5390472186  1.5189652649  0.0157194305
H   0.8466239652  0.8009642175 -1.3349363763
H   2.0944350453 -0.1257416439  1.1108739793
H   3.9616612911  1.2755160906 -0.9847877866
H   2.6446655098  0.0212941143  1.2279139041
H   4.9280036514  3.0855082510 -0.6802659976
17
Image 427  Energy = -420.0650654887
C  -1.3915460074  0.1346263122  0.5084783012
O  -1.5858931595  1.1944340454  0.9280558863
C  -0.7082855040 -0.1042456743 -0.3242530846
C   0.5838454693  0.6343715206 -0.4233653395
C   1.6528727581  0.1165011659  0.1460929163
O   2.5072269899 -0.3554146300  0.0926440627
C   1.8777476952  0.1252820040  0.7505613938
O   4.6927106362  2.2138020127 -0.4220252501
H  -2.1140333828 -0.6401694341  0.5575979992
H  -0.7740466224 -0.9360295215 -0.1944844485
H  -1.2027808363 -0.0872483645 -0.9719906371
H   0.5389526488  1.5198318958  0.0138541813
H   0.8471612371  0.8003196048 -1.3359075941
H   2.0924894826 -0.1287273689  1.1111563587
H   3.9637100999  1.2758743837 -0.9851265507
H   2.6416233379  0.0214376950  1.2304895858
H   4.9282451574  3.0853543534 -0.6817777802
17
Image 428  Energy = -420.0620116105
C  -1.3901280018  0.1336797582  0.5096668725
O  -1.5850536758  1.1933069234  0.9299939383
C  -0.7083340503 -0.1037622214 -0.3249228351
C   0.5839456048  0.6348798601 -0.4243942197
C   1.6524979906  0.1168630305  0.1461581624
O   2.5083008445 -0.3514965520  0.0931681499
C   1.8755844567  0.1236278627  0.7524700391
O   4.6930659118  2.2136908689 -0.4228282029
H  -2.1121365153 -0.6414569550  0.5587730292
H  -0.7739962483 -0.9358289986 -0.1968985264
H  -1.2036704886 -0.0851723622 -0.9720370913
H   0.5388586428  1.5206982848  0.0119871063
H   0.8476991320  0.7996742185 -1.3368791915
H   2.0905438193 -0.1317149664  1.1114373483
H   3.9657609704  1.2762304395 -0.9854650698
H   2.6385745279  0.0215796786  1.2330609365
H   4.9284870793  3.0852011306 -0.6832904451
17
Image 429  Energy = -420.0595445573
C  -1.3887087741  0.1327332240  0.5108539776
O  -1.5842119817  1.1921774420  0.9319339572
C  -0.7083845191 -0.1032788686 -0.3255933153
C   0.5840422267  0.6353892802 -0.4254240571
C   1.6521258722  0.1172346847  0.1462379011
O   2.5093767164 -0.3475876531  0.0937010410
C   1.8734187557  0.1219775965  0.7543668322
O   4.6934221457  2.2135815196 -0.4236330873
H  -2.1102382796 -0.6427462979  0.5599496298
H  -0.7739460462 -0.9356270886 -0.1993143240
H  -1.2045597649 -0.0830950111 -0.9720835339
H   0.5387651669  1.5215644768  0.0101181791
H   0.8482376755  0.7990280538 -1.3378511352
H   2.0885982852 -0.1347043091  1.1117168238
H   3.9678139287  1.2765842712 -0.9858033542
H   2.6355191686  0.0217200839  1.2356284636
H   4.9287294241  3.0850485959 -0.6848039979
17
Image 430  Energy = -420.0576444905
C  -1.3872883270  0.1317867055  0.5120396074
O  -1.5833680890  1.1910456115  0.9338759526
C  -0.7084368109 -0.1027955479 -0.3262644665
C   0.5841355094  0.6358996494 -0.4264547956
C   1.6517569262  0.1176156095  0.1463323157
O   2.5104538663 -0.3436877951  0.0942421455
C   1.8712500335  0.1203314269  0.7562514417
O   4.6937793242  2.2134739582 -0.4244399080
H  -2.1083386780 -0.6440374570  0.5611277807
H  -0.7738960538 -0.9354238363 -0.2017318315
H  -1.2054486869 -0.0810163395 -0.9721299962
H   0.5386721745  1.5224305258  0.0082473980
H   0.8487768744  0.7983811205 -1.3388234148
H   2.0866530899 -0.1376952628  1.1119945719
H   3.9698689847  1.2769358916 -0.9861414122
H   2.6324576668  0.0218589772  1.2381930414
H   4.9289721955  3.0848967626 -0.6863184298
17
Image 431  Energy = -420.0562715901
C  -1.3858666688  0.1308402008  0.5132237440
O  -1.5825220234  1.1899114509  0.9358199278
C  -0.7084908111 -0.1023121907 -0.3269362270
C   0.5842256433  0.6364108174 -0.4274863724
C   1.6513918626  0.1180050863  0.1464411294
O   2.5115309245 -0.3397965011  0.0947910916
C   1.8690780894  0.1186894287  0.7581236714
O   4.6941374329  2.2133681792 -0.4252486670
H  -2.1064377187 -0.6453304185  0.5623074549
H  -0.7738463160 -0.9352192831 -0.2041510303
H  -1.2063372717 -0.0789363888 -0.9721765052
H   0.5385796157  1.5232964868  0.0063747765
H   0.8493167243  0.7977334364 -1.3397960351
H   2.0847084091 -0.1406877028  1.1122703501
H   3.9719261382  1.2772853114 -0.9864792501
H   2.6293905743  0.0219964440  1.2407556656
H   4.9292153952  3.0847456433 -0.6878337238
17
Image 432  Energy = -420.0553936021
C  -1.3844438089  0.1298937100  0.5144063703
O  -1.5816738137  1.1887749824  0.9377658869
C  -0.7085464088 -0.1018287374 -0.3276085422
C   0.5843127972  0.6369226436 -0.4285187397
C   1.6510314409  0.1184023604  0.1465639238
O   2.5126063172 -0.3359131424  0.0953477290
C   1.8669029521  0.1170515879  0.7599833592
O   4.6944964599  2.2132641802 -0.4260593655
H  -2.1045354105 -0.6466251679  0.5634886264
H  -0.7737968762 -0.9350134642 -0.2065719016
H  -1.2072255303 -0.0768552006 -0.9722230832
H   0.5384874461  1.5241624079  0.0045003333
H   0.8498572164  0.7970850215 -1.3407690092
H   2.0827643853 -0.1436815274  1.1125439240
H   3.9739853861  1.2776325364 -0.9868168725
H   2.6263184233  0.0221325618  1.2433172233
H   4.9294590237  3.0845952481 -0.6893498619
17
Image 433  Energy = -420.0549703518
C  -1.3830197555  0.1289472365  0.5155874766
O  -1.5808234847  1.1876362248  0.9397138372
C  -0.7086035121 -0.1013451439 -0.3282813707
C   0.5843970998  0.6374350143 -0.4295518707
C   1.6506763488  0.1188067661  0.1467003785
O   2.5136786270 -0.3320371095  0.0959120762
C   1.8647247452  0.1154178633  0.7618303130
O   4.6948563980  2.2131619625 -0.4268720051
H  -2.1026317590 -0.6479216941  0.5646712741
H  -0.7737477698 -0.9348064080 -0.2089944319
H  -1.2081134674 -0.0747728082 -0.9722697487
H   0.5383956309  1.5250283272  0.0026240854
H   0.8503983430  0.7964358943 -1.3417423526
H   2.0808211281 -0.1466766629  1.1128151047
H   3.9760467271  1.2779775682 -0.9871542832
H   2.6232416196  0.0222673843  1.2458783466
H   4.9297030811  3.0844455850 -0.6908668290
17
Image 434  Energy = -420.0549740120
C  -1.3815945152  0.1280007870  0.5167670606
O  -1.5799710562  1.1864951931  0.9416637897
C  -0.7086620522 -0.1008613819 -0.3289546843
C   0.5844786418  0.6379478453 -0.4305857566
C   1.6503271935  0.1192177429  0.1468503306
O   2.5147466640 -0.3281678574  0.0964842798
C   1.8625436276  0.1137882095  0.7636642905
O   4.6952172447  2.2130615308 -0.4276865888
H  -2.1007267664 -0.6492199902  0.5658553828
H  -0.7736990235 -0.9345981373 -0.2114186133
H  -1.2090010829 -0.0726892355 -0.9723165173
H   0.5383041425  1.5258942749  0.0007460457
H   0.8509400975  0.7957860720 -1.3427160829
H   2.0788787246 -0.1496730598  1.1130837550
H   3.9781101630  1.2783204051 -0.9874914854
H   2.6201604295  0.0224009417  1.2484394083
H   4.9299475677  3.0842966598 -0.6923846141
17
Image 435  Energy = -420.0553783458
C  -1.3801680927  0.1270543717  0.5179451256
O  -1.5791165434  1.1853518982  0.9436157582
C  -0.7087219820 -0.1003774361 -0.3296284654
C   0.5845574889  0.6384610755 -0.4316203962
C   1.6499845160  0.1196348132  0.1470137416
O   2.5158094328 -0.3243049054  0.0970645768
C   1.8603597763  0.1121625844  0.7654850196
O   4.6955790007  2.2129628915 -0.4285031209
H  -2.0988204331 -0.6505200530  0.5670409427
H  -0.7736506560 -0.9343886712 -0.2138444416
H  -1.2098883727 -0.0706044990 -0.9723634027
H   0.5382129576  1.5267602771 -0.0011337780
H   0.8514824733  0.7951355709 -1.3436902207
H   2.0769372489 -0.1526706843  1.1133497781
H   3.9801756996  1.2786610438 -0.9878284810
H   2.6170750017  0.0225332454  1.2510005736
H   4.9301924841  3.0841484773 -0.6939032092
17
Image 436  Energy = -420.0561582112
C  -1.3787404911  0.1261080030  0.5191216772
O  -1.5782599589  1.1842063486  0.9455697567
C  -0.7087832728 -0.0998932996 -0.3303027037
C   0.5846336967  0.6389746588 -0.4326557872
C   1.6496488101  0.1200575522  0.1471906155
O   2.5168660529 -0.3204478181  0.0976532583
C   1.8581733951  0.1105409461  0.7672922353
O   4.6959416682  2.2128660511 -0.4293216072
H  -2.0969127588 -0.6518218811  0.5682279471
H  -0.7736026800 -0.9341780269 -0.2162719148
H  -1.2107753315 -0.0685186106 -0.9724104172
H   0.5381220531  1.5276263593 -0.0030153808
H   0.8520254617  0.7944844081 -1.3446647905
H   2.0749967668 -0.1556695103  1.1136131113
H   3.9822433451  1.2789994814 -0.9881652715
H   2.6139854126  0.0226642968  1.2535618801
H   4.9304378308  3.0840010414 -0.6954226082
17
Image 437  Energy = -420.0573774288
C  -1.3773120421  0.1251621639  0.5202967717
O  -1.5774002020  1.1830576911  0.9475276783
C  -0.7088449231 -0.0994084096 -0.3309781792
C   0.5847075337  0.6394878382 -0.4336913894
C   1.6493225073  0.1204902443  0.1473827247
O   2.5179154999 -0.3166049714  0.0982479251
C   1.8559788904  0.1089296295  0.7690846316
O   4.6963057588  2.2127719811 -0.4301436319
H  -2.0950030750 -0.6531269657  0.5694174265
H  -0.7735550284 -0.9339665201 -0.2187020034
H  -1.2116624061 -0.0664309775 -0.9724587985
H   0.5380310530  1.5284934824 -0.0049000124
H   0.8525694411  0.7938321346 -1.3456406107
H   2.0730556933 -0.1586702678  1.1138762011
H   3.9843148391  1.2793344130 -0.9885013082
H   2.6108924516  0.0227933635  1.2561259803
H   4.9306840081  3.0838551707 -0.6969434052
17
Image 438  Energy = -420.0590004741
C  -1.3758827433  0.1242168723  0.5214703641
O  -1.5765373060  1.1819059522  0.9494894872
C  -0.7089069563 -0.0989227724 -0.3316548595
C   0.5847790714  0.6400005760 -0.4347271561
C   1.6490062269  0.1209322037  0.1475897291
O   2.5189563730 -0.3127754474  0.0988492559
C   1.8537769876  0.1073283159  0.7708620285
O   4.6966712704  2.2126806922 -0.4309691748
H  -2.0930914205 -0.6544352718  0.5706093489
H  -0.7735077146 -0.9337541561 -0.2211346540
H  -1.2125495586 -0.0643416519 -0.9725085322
H   0.5379399360  1.5293616423 -0.0067876320
H   0.8531143767  0.7931787842 -1.3466176875
H   2.0711141597 -0.1616729093  1.1141388536
H   3.9863901409  1.2796658288 -0.9888365939
H   2.6077961480  0.0229204773  1.2586927838
H   4.9309310082  3.0837108643 -0.6984655606
17
Image 439  Energy = -420.0609316867
C  -1.3744522789  0.1232716702  0.5226424568
O  -1.5756723898  1.1807520011  0.9514533542
C  -0.7089703052 -0.0984369402 -0.3323319731
C   0.5848482135  0.6405135394 -0.4357635881
C   1.6486984145  0.1213784947  0.1478097111
O   2.5199881634 -0.3089503076  0.0994602010
C   1.8515735571  0.1057307343  0.7726254158
O   4.6970376934  2.2125912096 -0.4317966852
H  -2.0911784429 -0.6557453278  0.5718026915
H  -0.7734608099 -0.9335406784 -0.2235689181
H  -1.2134363631 -0.0622512195 -0.9725584363
H   0.5378490088  1.5302299686 -0.0086770069
H   0.8536598687  0.7925248374 -1.3475953005
H   2.0691738159 -0.1646766656  1.1143986433
H   3.9884675686  1.2799950466 -0.9891716689
H   2.6046958475  0.0230463228  1.2612595943
H   4.9311784382  3.0835673143 -0.6999884904
17
Image 440  Energy = -420.0632209186
C  -1.3730209474  0.1223270443  0.5238129858
O  -1.5748043788  1.1795949988  0.9534210739
C  -0.7090340877 -0.0979503692 -0.3330102467
C   0.5849152184  0.6410259962 -0.4368000833
C   1.6484015402  0.1218330603  0.1480440311
O   2.5210092695 -0.3051372740  0.1000788148
C   1.8493637408  0.1041427948  0.7743735559
O   4.6974055357  2.2125045194 -0.4326277002
H  -2.0892635407 -0.6570585654  0.5729984403
H  -0.7734142582 -0.9333263588 -0.2260056812
H  -1.2143232006 -0.0601591597 -0.9726096801
H   0.5377579055  1.5310993599 -0.0105693281
H   0.8542062541  0.7918698683 -1.3485742136
H   2.0672331932 -0.1676822453  1.1146577544
H   3.9905487720  1.2803207446 -0.9895059931
H   2.6015923004  0.0231702558  1.2638290009
H   4.9314266835  3.0834253300 -0.7015127305
17
Image 441  Energy = -420.0658425395
C  -1.3715887378  0.1213830073  0.5249819052
O  -1.5739333000  1.1784349659  0.9553926160
C  -0.7090983415 -0.0974630625 -0.3336896490
C   0.5849801822  0.6415379148 -0.4378365705
C   1.6481160205  0.1222953777  0.1482923081
O   2.5220185916 -0.3013356877  0.1007056529
C   1.8471481335  0.1025642776  0.7761063872
O   4.6977747937  2.2124206261 -0.4334622070
H  -2.0873467462 -0.6583749555  0.5741965701
H  -0.7733680656 -0.9331112042 -0.2284448986
H  -1.2152100425 -0.0580655151 -0.9726622503
H   0.5376665946  1.5319698243 -0.0124645668
H   0.8547534950  0.7912139056 -1.3495544429
H   2.0652923930 -0.1706896171  1.1149160088
H   3.9926337240  1.2806429219 -0.9898395671
H   2.5984855669  0.0232923098  1.2664009529
H   4.9316757386  3.0832849111 -0.7030382486
17
Image 442  Energy = -420.0687737645
C  -1.3701556356  0.1204395697  0.5261491683
O  -1.5730591775  1.1772719213  0.9573679517
C  -0.7091631083 -0.0969750218 -0.3343701491
C   0.5850432008  0.6420492675 -0.4388729749
C   1.6478421749  0.1227650004  0.1485541993
O   2.5230152104 -0.2975450190  0.1013411929
C   1.8449272390  0.1009950165  0.7778238777
O   4.6981454643  2.2123395323 -0.4343001949
H  -2.0854280891 -0.6596944715  0.5753970578
H  -0.7733222354 -0.9328952209 -0.2308865296
H  -1.2160968624 -0.0559703253 -0.9727161330
H   0.5375750426  1.5328413730 -0.0143626981
H   0.8553015537  0.7905569756 -1.3505360057
H   2.0633515089 -0.1736987543  1.1151732293
H   3.9947224014  1.2809615803 -0.9901723915
H   2.5953757136  0.0234125184  1.2689754153
H   4.9319255987  3.0831460577 -0.7045650152
17
Image 443  Energy = -420.0719992366
C  -1.3687216236  0.1194967395  0.5273147285
O  -1.5721820334  1.1761058828  0.9593470542
C  -0.7092284323 -0.0964862462 -0.3350517158
C   0.5851043721  0.6425600292 -0.4399092180
C   1.6475802304  0.1232415534  0.1488294027
O   2.5239983859 -0.2937648609  0.1019858324
C   1.8427014667  0.0994349009  0.7795260257
O   4.6985175441  2.2122612401 -0.4351416550
H  -2.0835075973 -0.6610170882  0.5765998816
H  -0.7732767675 -0.9326784159 -0.2333305359
H  -1.2169836362 -0.0538736270 -0.9727713139
H   0.5374832146  1.5337140191 -0.0162637007
H   0.8558503942  0.7898991011 -1.3515189186
H   2.0614106251 -0.1767096364  1.1154292441
H   3.9968147846  1.2812767235 -0.9905044668
H   2.5922628132  0.0235309148  1.2715523589
H   4.9321762594  3.0830087702 -0.7060930031
17
Image 444  Energy = -420.0755066391
C  -1.3672866821  0.1185545232  0.5284785385
O  -1.5713018871  1.1749368673  0.9613298967
C  -0.7092943617 -0.0959967323 -0.3357343181
C   0.5851637917  0.6430701772 -0.4409452174
C   1.6473303091  0.1237247388  0.1491176630
O   2.5249675893 -0.2899949429  0.1026398663
C   1.8404711204  0.0978838803  0.7812128677
O   4.6988910297  2.2121857503 -0.4359865798
H  -2.0815852978 -0.6623427823  0.5778050209
H  -0.7732316589 -0.9324607966 -0.2357768820
H  -1.2178703410 -0.0517754554 -0.9728277777
H   0.5373910747  1.5345877779 -0.0181675564
H   0.8563999820  0.7892403018 -1.3525031969
H   2.0594698196 -0.1797222466  1.1156838905
H   3.9989108557  1.2815883571 -0.9908357934
H   2.5891469395  0.0236475328  1.2741317647
H   4.9324277170  3.0828730495 -0.7076221863
17
Image 445  Energy = -420.0792819070
C  -1.3658507896  0.1176129247  0.5296405497
O  -1.5704187572  1.1737648927  0.9633164521
C  -0.7093609481 -0.0955064742 -0.3364179248
C   0.5852215581  0.6435796892 -0.4419808834
C   1.6470924326  0.1242143277  0.1494187465
O   2.5259224952 -0.2862351223  0.1033034759
C   1.8382364017  0.0963419627  0.7828845036
O   4.6992659175  2.2121130631 -0.4368349624
H  -2.0796612180 -0.6636715314  0.5790124555
H  -0.7731869030 -0.9322423707 -0.2382255334
H  -1.2187569551 -0.0496758449 -0.9728855084
H   0.5372985853  1.5354626659 -0.0200742492
H   0.8569502837  0.7885805948 -1.3534888544
H   2.0575291583 -0.1827365702  1.1159370199
H   4.0010105978  1.2818964878 -0.9911663712
H   2.5860281727  0.0237624084  1.2767136243
H   4.9326799681  3.0827388968 -0.7091525400
17
Image 446  Energy = -420.0833218797
C  -1.3644139229  0.1166719465  0.5308007124
O  -1.5695326615  1.1725899781  0.9653066926
C  -0.7094282465 -0.0950154625 -0.3371025044
C   0.5852777734  0.6440885414 -0.4430161186
C   1.6468665363  0.1247101500  0.1497324317
O   2.5268629613 -0.2824853700  0.1039767274
C   1.8359974181  0.0948092096  0.7845410980
O   4.6996422037  2.2120431784 -0.4376867964
H  -2.0777353861 -0.6650033137  0.5802221653
H  -0.7731424898 -0.9320231465 -0.2406764563
H  -1.2196434573 -0.0475748303 -0.9729444891
H   0.5372057076  1.5363387012 -0.0219837648
H   0.8575012672  0.7879199942 -1.3544759023
H   2.0555886947 -0.1857525950  1.1161885017
H   4.0031139928  1.2822011231 -0.9914961995
H   2.5829065993  0.0238755816  1.2792979422
H   4.9329330095  3.0826063139 -0.7106840394
17
Image 447  Energy = -420.0876208839
C  -1.3629760573  0.1157315893  0.5319589750
O  -1.5686436177  1.1714121449  0.9673005886
C  -0.7094963159 -0.0945236854 -0.3377880252
C   0.5853325462  0.6445967073 -0.4440508151
C   1.6466524669  0.1252120922  0.1500584770
O   2.5277890301 -0.2787457666  0.1046595568
C   1.8337541862  0.0932857331  0.7861829086
O   4.7000198837  2.2119760954 -0.4385420751
H  -2.0758078324 -0.6663381079  0.5814341293
H  -0.7730984058 -0.9318031328 -0.2431296162
H  -1.2205298274 -0.0454724475 -0.9730047022
H   0.5371124014  1.5372159039 -0.0238960901
H   0.8580529009  0.7872585123 -1.3554643496
H   2.0536484649 -0.1887703097  1.1164382354
H   4.0052210210  1.2825022704 -0.9918252763
H   2.5797823172  0.0239870980  1.2818847393
H   4.9331868379  3.0824753030 -0.7122166595
17
Image 448  Energy = -420.0921723396
C  -1.3615371678  0.1147918519  0.5331152837
O  -1.5677516446  1.1702314184  0.9692981076
C  -0.7095652194 -0.0940311284 -0.3384744551
C   0.5853859953  0.6451041557 -0.4450848524
C   1.6464499851  0.1257200922  0.1503966005
O   2.5287009293 -0.2750164981  0.1053517485
C   1.8315066315  0.0917716934  0.7878103094
O   4.7003989522  2.2119118127 -0.4394007914
H  -2.0738785906 -0.6676758925  0.5826483253
H  -0.7730546341 -0.9315823385 -0.2455849772
H  -1.2214160455 -0.0433687347 -0.9730661289
H   0.5370186249  1.5380942949 -0.0258112120
H   0.8586051529  0.7865961596 -1.3564542016
H   2.0517084792 -0.1917897015  1.1166861572
H   4.0073316590  1.2827999372 -0.9921535984
H   2.5766554424  0.0240970110  1.2844740592
H   4.9334414500  3.0823458668 -0.7137503740
17
Image 449  Energy = -420.0969788314
C  -1.3600972291  0.1138527316  0.5342695818
O  -1.5668567624  1.1690478281  0.9712992147
C  -0.7096350232 -0.0935377754 -0.3391617615
C   0.5854382543  0.6456108496 -0.4461180957
C   1.6462587840  0.1262341268  0.1507464436
O   2.5295990399 -0.2712978346  0.1060529384
C   1.8292546004  0.0902672890  0.7894238085
O   4.7007794025  2.2118503290 -0.4402629366
H  -2.0719476984 -0.6690166454  0.5838647292
H  -0.7730111542 -0.9313607737 -0.2480425000
H  -1.2223020933 -0.0412637334 -0.9731287500
H   0.5369243352  1.5389738972 -0.0277291170
H   0.8591579901  0.7859329459 -1.3574454612
H   2.0497687151 -0.1948107576  1.1169322511
H   4.0094458782  1.2830941297 -0.9924811605
H   2.5735261189  0.0242053852  1.2870659702
H   4.9336968417  3.0822180081 -0.7152851546
17
Image 450  Energy = -420.1020414087
C  -1.3586562159  0.1129142247  0.5354218090
O  -1.5659589941  1.1678614096  0.9733038710
C  -0.7097057968 -0.0930436087 -0.3398499109
C   0.5854894760  0.6461167452 -0.4471503938
C   1.6460784911  0.1267542080  0.1511075424
O   2.5304838916 -0.2675901218  0.1067626018
C   1.8269978681  0.0887727508  0.7910240767
O   4.7011612267  2.2117916421 -0.4411285003
H  -2.0700151990 -0.6703603435  0.5850833144
H  -0.7729679422 -0.9311384494 -0.2505021409
H  -1.2231879545 -0.0391574895 -0.9731925464
H   0.5368294877  1.5398547352 -0.0296497904
H   0.8597113772  0.7852688807 -1.3584381269
H   2.0478291094 -0.1978334631  1.1171765546
H   4.0115636437  1.2833848525 -0.9928079554
H   2.5703945223  0.0243122972  1.2896605658
H   4.9339530085  3.0820917300 -0.7168209702
17
Image 451  Energy = -420.1073573859
C  -1.3572141049  0.1119763278  0.5365719017
O  -1.5650583655  1.1666722043  0.9753120331
C  -0.7097776118 -0.0925486114 -0.3405388695
C   0.5855398347  0.6466217922 -0.4481815792
C   1.6459086665  0.1272803844  0.1514793090
O   2.5313561764 -0.2638937806  0.1074800313
C   1.8247361265  0.0872883389  0.7926119647
O   4.7015444154  2.2117357500 -0.4419974695
H  -2.0680811426 -0.6717069623  0.5863040512
H  -0.7729249713 -0.9309153780 -0.2529638496
H  -1.2240736159 -0.0370500538 -0.9732574999
H   0.5367340378  1.5407368336 -0.0315732156
H   0.8602652753  0.7846039743 -1.3594321930
H   2.0458895474 -0.2008578027  1.1174191758
H   4.0136849124  1.2836721079 -0.9931339732
H   2.5672608749  0.0244178396  1.2922579696
H   4.9342099447  3.0819670358 -0.7183577864
17
Image 452  Energy = -420.1129348106
C  -1.3557708741  0.1110390380  0.5377197915
O  -1.5641549068  1.1654802613  0.9773236532
C  -0.7098505400 -0.0920527671 -0.3412286025
C   0.5855895317  0.6471259325 -0.4492114667
C   1.6457488221  0.1278127294  0.1518609998
O   2.5322167081 -0.2602092806  0.1082043506
C   1.8224690050  0.0858143288  0.7941885233
O   4.7019289569  2.2116826504 -0.4428698276
H  -2.0661455875 -0.6730564756  0.5875269062
H  -0.7728822112 -0.9306915747 -0.2554275681
H  -1.2249590688 -0.0349414836 -0.9733235933
H   0.5366379409  1.5416202173 -0.0334993729
H   0.8608196414  0.7839382386 -1.3604276488
H   2.0439498591 -0.2038837594  1.1176602896
H   4.0158096315  1.2839558948 -0.9934592016
H   2.5641254484  0.0245221211  1.2948583320
H   4.9344676433  3.0818439287 -0.7198955642
17
Image 453  Energy = -420.1187993745
C  -1.3543266594  0.1101027940  0.5388649330
O  -1.5632476656  1.1642848383  0.9793401041
C  -0.7099241602 -0.0915556085 -0.3419195875
C   0.5856388794  0.6476285129 -0.4502392460
C   1.6456002829  0.1283551610  0.1522528527
O   2.5330647493 -0.2565436718  0.1089333130
C   1.8201927271  0.0843555117  0.7957536804
O   4.7023153379  2.2116333858 -0.4437468700
H  -2.0642082076 -0.6744100589  0.5887526564
H  -0.7728396218 -0.9304671199 -0.2578938296
H  -1.2258444655 -0.0328315434 -0.9733916968
H   0.5365408696  1.5425055469 -0.0354292153
H   0.8613746810  0.7832713089 -1.3614249640
H   2.0420089749 -0.2069119092  1.1179014717
H   4.0179390120  1.2842348092 -0.9937831614
H   2.5609888462  0.0246248860  1.2974641607
H   4.9347264197  3.0817231571 -0.7214346009
17
Image 454  Energy = -420.1249265775
C  -1.3528812844  0.1091671558  0.5400077120
O  -1.5623376758  1.1630868029  0.9813598829
C  -0.7099990410 -0.0910575814 -0.3426112659
C   0.5856880642  0.6481300578 -0.4512653079
C   1.6454605664  0.1289040047  0.1526526023
O   2.5339030508 -0.2528909498  0.1096669048
C   1.8179101780  0.0829076101  0.7973102624
O   4.7027030419  2.2115869108 -0.4446272416
H  -2.0622694845 -0.6757664653  0.5899804366
H  -0.7727971746 -0.9302419689 -0.2603619409
H  -1.2267296469 -0.0307206138 -0.9734609031
H   0.5364430657  1.5433921998 -0.0373617293
H   0.8619300815  0.7826035835 -1.3624236183
H   2.0400674894 -0.2099416238  1.1181417091
H   4.0200716828  1.2845102369 -0.9941063040
H   2.5578511499  0.0247266667  1.3000732976
H   4.9349859366  3.0816039738 -0.7229744964
17
Image 455  Energy = -420.1313148339
C  -1.3514347392  0.1082321313  0.5411480521
O  -1.5614249815  1.1618862255  0.9833829250
C  -0.7100752350 -0.0905586774 -0.3433036028
C   0.5857373778  0.6486304895 -0.4522894228
C   1.6453291051  0.1294593957  0.1530590055
O   2.5347326700 -0.2492516338  0.1104038286
C   1.8156208406  0.0814708907  0.7988598967
O   4.7030920536  2.2115432267 -0.4455109106
H  -2.0603295056 -0.6771256618  0.5912102019
H  -0.7727548349 -0.9300161483 -0.2628318142
H  -1.2276146234 -0.0286087728 -0.9735312044
H   0.5363444921  1.5442801895 -0.0392968846
H   0.8624857840  0.7819350809 -1.3634235785
H   2.0381250732 -0.2129728913  1.1183813776
H   4.0222075547  1.2847821599 -0.9944286098
H   2.5547127865  0.0248276145  1.3026859369
H   4.9352461822  3.0814863810 -0.7245151962
17
Image 456  Energy = -420.1379907156
C  -1.3499871284  0.1072981592  0.5422853431
O  -1.5605086574  1.1606823840  0.9854105331
C  -0.7101523663 -0.0900584582 -0.3439970386
C   0.5857872143  0.6491291898 -0.4533107506
C   1.6452070224  0.1300254170  0.1534718252
O   2.5355531275 -0.2456327853  0.1111415716
C   1.8133210268  0.0800498985  0.8004029683
O   4.7034828555  2.2115033843 -0.4463991146
H  -2.0583879987 -0.6784887843  0.5924426928
H  -0.7727125633 -0.9297897156 -0.2653039191
H  -1.2284995391 -0.0264958279 -0.9736034291
H   0.5362448270  1.5451701303 -0.0412355978
H   0.8630419618  0.7812654475 -1.3644252527
H   2.0361806903 -0.2160062408  1.1186222096
H   4.0243477403  1.2850491446 -0.9947496115
H   2.5515743316  0.0249275480  1.3053045299
H   4.9355074555  3.0813711089 -0.7260569590
17
Image 457  Energy = -420.1449419301
C  -1.3485384241  0.1063652478  0.5434194805
O  -1.5595887660  1.1594753653  0.9874426003
C  -0.7102304944 -0.0895569328 -0.3446915186
C   0.5858379067  0.6496261143 -0.4543290558
C   1.6450936764  0.1306022859  0.1538895563
O   2.5363654908 -0.2420348828  0.1118787961
C   1.8110103550  0.0786447120  0.8019413313
O   4.7038754302  2.2114673888 -0.4472917832
H  -2.0564450823 -0.6798557745  0.5936778399
H  -0.7726703272 -0.9295626871 -0.2677781324
H  -1.2293843982 -0.0243818822 -0.9736775419
H   0.5361440363  1.5460619992 -0.0431778167
H   0.8635985390  0.7805947049 -1.3654285634
H   2.0342340861 -0.2190416276  1.1188646028
H   4.0264920883  1.2853111550 -0.9950692997
H   2.5484361493  0.0250266674  1.3079292127
H   4.9357697341  3.0812581461 -0.7275997075
17
Image 458  Energy = -420.1521334106
C  -1.3470885297  0.1054329889  0.5445509432
O  -1.5586663347  1.1582660636  0.9894776881
C  -0.7103100012 -0.0890545223 -0.3453865478
C   0.5858897396  0.6501216792 -0.4553447027
C   1.6449868597  0.1311861652  0.1543094957
O   2.5371721172 -0.2384516325  0.1126154598
C   1.8086915256  0.0772511868  0.8034782249
O   4.7042692622  2.2114341960 -0.4481876022
H  -2.0545012276 -0.6812254253  0.5949148005
H  -0.7726280999 -0.9293350776 -0.2702537892
H  -1.2302690949 -0.0222673078 -0.9737527130
H   0.5360423829  1.5469551802 -0.0451225511
H   0.8641552144  0.7799232450 -1.3664330053
H   2.0322856195 -0.2220784886  1.1191076034
H   4.0286392785  1.2855695708 -0.9953880968
H   2.5452985970  0.0251254106  1.3105578520
H   4.9360326914  3.0811467676 -0.7291430590
17
Image 459  Energy = -420.1595804837
C  -1.3456375163  0.1045018183  0.5456790791
O  -1.5577404620  1.1570537818  0.9915170356
C  -0.7103905147 -0.0885508159 -0.3460825445
C   0.5859430741  0.6506153327 -0.4563568999
C   1.6448875741  0.1317812335  0.1547314134
O   2.5379724426 -0.2348899392  0.1133493052
C   1.8063611687  0.0758735291  0.8050139721
O   4.7046648318  2.2114048637 -0.4490877547
H  -2.0525562007 -0.6825988321  0.5961542778
H  -0.7725858548 -0.9291069126 -0.2727313182
H  -1.2311537412 -0.0201519499 -0.9738297100
H   0.5359395541  1.5478502179 -0.0470706828
H   0.8647121420  0.7792507156 -1.3674389112
H   2.0303345116 -0.2251173052  1.1193527755
H   4.0307903430  1.2858229424 -0.9957055575
H   2.5421620373  0.0252236394  1.3131927597
H   4.9362966103  3.0810376804 -0.7306872391
17
Image 460  Energy = -420.1672629887
C  -1.3441853745  0.1035717474  0.5468038022
O  -1.5568112215  1.1558386411  0.9935605263
C  -0.7104720085 -0.0880458263 -0.3467794787
C   0.5859981501  0.6511070149 -0.4573655040
C   1.6447951164  0.1323876720  0.1551541555
O   2.5387673983 -0.2313499783  0.1140794447
C   1.8040190171  0.0745116483  0.8065501136
O   4.7050621164  2.2113793979 -0.4499921649
H  -2.0506101317 -0.6839759224  0.5973961869
H  -0.7725435707 -0.9288782015 -0.2752105908
H  -1.2320383159 -0.0180359361 -0.9739084798
H   0.5358355364  1.5487470514 -0.0490221360
H   0.8652692473  0.7785771400 -1.3684461705
H   2.0283807071 -0.2281580199  1.1196001816
H   4.0329451249  1.2860712429 -0.9960216786
H   2.5390267445  0.0253214588  1.3158339480
H   4.9365614642  3.0809308697 -0.7322321548
17
Image 461  Energy = -420.1751685188
C  -1.3427320987  0.1026427843  0.5479250343
O  -1.5558786899  1.1546207737  0.9956080414
C  -0.7105544347 -0.0875395695 -0.3474773351
C   0.5860551069  0.6515966678 -0.4583704466
C   1.6447086219  0.1330056813  0.1555769541
O   2.5395580963 -0.2278318779  0.1148051793
C   1.8016647995  0.0731654021  0.8080879056
O   4.7054610892  2.2113578024 -0.4509007599
H  -2.0486631503 -0.6853566169  0.5986404392
H  -0.7725012291 -0.9286489438 -0.2776914818
H  -1.2329227781 -0.0159193997 -0.9739889571
H   0.5357303246  1.5496456161 -0.0509768236
H   0.8658264596  0.7779025448 -1.3694546696
H   2.0264242568 -0.2312005436  1.1198497157
H   4.0351034752  1.2863144580 -0.9963364601
H   2.5358929252  0.0254189027  1.3184813732
H   4.9368272255  3.0808263181 -0.7337777084
17
Image 462  Energy = -420.1832796231
C  -1.3412776909  0.1017149364  0.5490427073
O  -1.5549429446  1.1534003157  0.9976594567
C  -0.7106377353 -0.0870320644 -0.3481761145
C   0.5861139624  0.6520842437 -0.4593717405
C   1.6446270237  0.1336354461  0.1559994602
O   2.5403458820 -0.2243356924  0.1155259943
C   1.7992982845  0.0718345708  0.8096282686
O   4.7058617172  2.2113400739 -0.4518134713
H  -2.0467153851 -0.6867408293  0.5998869438
H  -0.7724588123 -0.9284191265 -0.2801738680
H  -1.2338070646 -0.0138024772 -0.9740710658
H   0.5356239200  1.5505458471 -0.0529346471
H   0.8663837123  0.7772269606 -1.3704642962
H   2.0244653144 -0.2342447305  1.1201011377
H   4.0372652544  1.2865525873 -0.9966499028
H   2.5327606967  0.0255159319  1.3211349359
H   4.9370938653  3.0807240066 -0.7353237976
17
Image 463  Energy = -420.1915839145
C  -1.3398221738  0.1007882223  0.5501567573
O  -1.5540040685  1.1521774042  0.9997146269
C  -0.7107218655 -0.0865233384 -0.3488758322
C   0.5861746080  0.6525697105 -0.4603694656
C   1.6445491403  0.1342770509  0.1564216583
O   2.5411322385 -0.2208612481  0.1162416058
C   1.7969193761  0.0705187873  0.8111718126
O   4.7062639557  2.2113261995 -0.4527302297
H  -2.0447669759 -0.6881284598  0.6011356034
H  -0.7724163040 -0.9281887249 -0.2826576118
H  -1.2346910845 -0.0116853175 -0.9741547209
H   0.5355163365  1.5514476684 -0.0548954884
H   0.8669409432  0.7765504267 -1.3714749317
H   2.0225041282 -0.2372903842  1.1203540717
H   4.0394303176  1.2867856405 -0.9969620030
H   2.5296300766  0.0256124476  1.3237944556
H   4.9373613513  3.0806239148 -0.7368703078
17
Image 464  Energy = -420.2000711506
C  -1.3383656579  0.0998631170  0.5512663844
O  -1.5530612746  1.1509514448  1.0017744955
C  -0.7108066094 -0.0860131063 -0.3495768836
C   0.5862366917  0.6530526362 -0.4613631942
C   1.6444756471  0.1349338920  0.1568445503
O   2.5419165342 -0.2174133838  0.1169515950
C   1.7945260817  0.0692208974  0.8127175552
O   4.7066682108  2.2113172008 -0.4536520719
H  -2.0428178771 -0.6895203891  0.6023869668
H  -0.7723737317 -0.9279576417 -0.2851428997
H  -1.2355747034 -0.0095679664 -0.9742404930
H   0.5354073932  1.5523513848 -0.0568599803
H   0.8674982709  0.7758726821 -1.3724867227
H   2.0205407036 -0.2403378426  1.1206087770
H   4.0415994552  1.2870122241 -0.9972723462
H   2.5265009583  0.0257081602  1.3264615483
H   4.9376299074  3.0805266904 -0.7384172806
17
Image 465  Energy = -420.2087208795
C  -1.3369081201  0.0989392262  0.5523723329
O  -1.5521154825  1.1497232018  1.0038378169
C  -0.7108922627 -0.0855017595 -0.3502789768
C   0.5863000815  0.6535335233 -0.4623536338
C   1.6444031879  0.1356024145  0.1572669559
O   2.5427022970 -0.2139867167  0.1176560740
C   1.7921211176  0.0679371638  0.8142678196
O   4.7070739600  2.2113119773 -0.4545778182
H  -2.0408683833 -0.6909155500  0.6036403281
H  -0.7723310561 -0.9277259032 -0.2876292996
H  -1.2364578642 -0.0074506116 -0.9743276422
H   0.5352973333  1.5532565399 -0.0588272765
H   0.8680554739  0.7751940849 -1.3734993305
H   2.0185756014 -0.2433862860  1.1208642278
H   4.0437716219  1.2872337719 -0.9975813335
H   2.5233732552  0.0258032922  1.3291342288
H   4.9378992392  3.0804316310 -0.7399644723
17
Image 466  Energy = -420.2175236603
C  -1.3354496000  0.0980165773  0.5534746420
O  -1.5511666883  1.1484926638  1.0059045086
C  -0.7109789571 -0.0849893353 -0.3509821807
C   0.5863645340  0.6540124554 -0.4633409450
C   1.6443308226  0.1362825697  0.1576888313
O   2.5434903875 -0.2105812177  0.1183551828
C   1.7897050632  0.0666673295  0.8158230639
O   4.7074811590  2.2113104747 -0.4555074292
H  -2.0389185384 -0.6923139117  0.6048956744
H  -0.7722882806 -0.9274934850 -0.2901167744
H  -1.2373405198 -0.0053332694 -0.9744161409
H   0.5351861605  1.5541631239 -0.0607973440
H   0.8686125299  0.7745146752 -1.3745127468
H   2.0166090720 -0.2464355283  1.1211201994
H   4.0459467660  1.2874502979 -0.9978889535
H   2.5202467635  0.0258978619  1.3318122677
H   4.9381693261  3.0803387179 -0.7415118547
17
Image 467  Energy = -420.2264607408
C  -1.3339901167  0.0970947518  0.5545741425
O  -1.5502157023  1.1472604884  1.0079734591
C  -0.7110669916 -0.0844761785 -0.3516862091
C   0.5864299318  0.6544899262 -0.4643258941
C   1.6442565019  0.1369712441  0.1581100674
O   2.5442832321 -0.2071918109  0.1190499161
C   1.7872801767  0.0654079101  0.8173841646
O   4.7078893338  2.2113116197 -0.4564398038
H  -2.0369685257 -0.6937145089  0.6061523976
H  -0.7722453731 -0.9272604428 -0.2926050075
H  -1.2382226916 -0.0032160051 -0.9745053750
H   0.5350740866  1.5550707680 -0.0627694309
H   0.8691693017  0.7738347741 -1.3755267347
H   2.0146416699 -0.2494850248  1.1213757031
H   4.0481239528  1.2876631925 -0.9981955870
H   2.5171213057  0.0259920081  1.3344934783
H   4.9384399080  3.0802472877 -0.7430592859
17
Image 468  Energy = -420.2355330868
C  -1.3325297892  0.0961741733  0.5556701123
O  -1.5492616534  1.1460258994  1.0100456779
C  -0.7111562508 -0.0839619960 -0.3523914289
C   0.5864958981  0.6549655256 -0.4653081351
C   1.6441817827  0.1376713225  0.1585321643
O   2.5450783716 -0.2038227434  0.1197410415
C   1.7848451056  0.0641617828  0.8189487943
O   4.7082989187  2.2113164253 -0.4573759918
H  -2.0350181612 -0.6951182563  0.6074111263
H  -0.7722023913 -0.9270266388 -0.2950942895
H  -1.2391042853 -0.0010987131 -0.9745959529
H   0.5349609635  1.5559798255 -0.0647442261
H   0.8697260011  0.7731541084 -1.3765415465
H   2.0126732134 -0.2525353436  1.1216311572
H   4.0503040554  1.2878710632 -0.9985008454
H   2.5139969941  0.0260855850  1.3371792522
H   4.9387112270  3.0801579801 -0.7446069090
17
Image 469  Energy = -420.2447484111
C  -1.3310686938  0.0952544067  0.5567633897
O  -1.5483053675  1.1447895440  1.0121200869
C  -0.7112468084 -0.0834471346 -0.3530975128
C   0.5865623796  0.6554396754 -0.4662885086
C   1.6441043739  0.1383800189  0.1589562233
O   2.5458789335 -0.2004692599  0.1204290216
C   1.7824009743  0.0629256484  0.8205165010
O   4.7087094709  2.2113238722 -0.4583149085
H  -2.0330676051 -0.6965241695  0.6086712495
H  -0.7721592835 -0.9267921030 -0.2975842977
H  -1.2399853361  0.0010185382 -0.9746872693
H   0.5348470591  1.5568899275 -0.0667209477
H   0.8702825693  0.7724729598 -1.3775569056
H   2.0107039145 -0.2555861705  1.1218860244
H   4.0524861559  1.2880752851 -0.9988051276
H   2.5108742278  0.0261788211  1.3398675708
H   4.9389830355  3.0800701400 -0.7461545884
17
Image 470  Energy = -420.2533389567
C  -1.3296068207  0.0943352908  0.5578537507
O  -1.5473469450  1.1435515246  1.0141967034
C  -0.7113384575 -0.0829316421 -0.3538043836
C   0.5866292385  0.6559122379 -0.4672672262
C   1.6440229405  0.1390977350  0.1593841476
O   2.5466871103 -0.1971318458  0.1211129358
C   1.7799462693  0.0616996464  0.8220857180
O   4.7091210508  2.2113340447 -0.4592564511
H  -2.0311168578 -0.6979321400  0.6099326951
H  -0.7721160743 -0.9265566416 -0.3000749247
H  -1.2408657831  0.0031356784 -0.9747791970
H   0.5347324582  1.5578010447 -0.0686994979
H   0.8708390892  0.7717913203 -1.3785727159
H   2.0087333688 -0.2586377428  1.1221408243
H   4.0546701830  1.2882758448 -0.9991085511
H   2.5077539185  0.0262718986  1.3425584816
H   4.9392553113  3.0799837459 -0.7477023083
17
Image 471  Energy = -420.2628532528
C  -1.3281444997  0.0934174241  0.5589406396
O  -1.5463855695  1.1423110672  1.0162762995
C  -0.7114308516 -0.0824152671 -0.3545123684
C   0.5866964527  0.6563828390 -0.4682438280
C   1.6439370369  0.1398278879  0.1598167145
O   2.5475035416 -0.1938155801  0.1217905321
C   1.7774784187  0.0604867985  0.8236550066
O   4.7095340176  2.2113479349 -0.4602016400
H  -2.0291659101 -0.6993429593  0.6111959948
H  -0.7720727370 -0.9263202276 -0.3025662961
H  -1.2417455248  0.0052526663 -0.9748723784
H   0.5346170950  1.5587134320 -0.0706804105
H   0.8713957493  0.7711089078 -1.3795890288
H   2.0067605130 -0.2616906641  1.1223975919
H   4.0568568659  1.2884713826 -0.9994106701
H   2.5046371076  0.0263649216  1.3452539139
H   4.9395282945  3.0798994361 -0.7492500719
17
Image 472  Energy = -420.2724847763
C  -1.3266819092  0.0925004375  0.5600248001
O  -1.5454221633  1.1410689537  1.0183576889
C  -0.7115238596 -0.0818983873 -0.3552210896
C   0.5867644115  0.6568518225 -0.4692188547
C   1.6438428404  0.1405684690  0.1602533017
O   2.5483341894 -0.1905169292  0.1224588227
C   1.7749972034  0.0592841262  0.8252258713
O   4.7099479186  2.2113645693 -0.4611493347
H  -2.0272150864 -0.7007555555  0.6124604330
H  -0.7720291947 -0.9260829344 -0.3050579081
H  -1.2426245798  0.0073692478 -0.9749661913
H   0.5345012581  1.5596266470 -0.0726628022
H   0.8719524272  0.7704259913 -1.3806053788
H   2.0047847373 -0.2647446646  1.1226576037
H   4.0590451607  1.2886632632 -0.9997118824
H   2.5015249231  0.0264583734  1.3479525482
H   4.9398017233  3.0798165699 -0.7507976270
17
Image 473  Energy = -420.2821636657
C  -1.3252192905  0.0915848018  0.5611052922
O  -1.5444560458  1.1398246287  1.0204415832
C  -0.7116171851 -0.0813807864 -0.3559307664
C   0.5868333244  0.6573186804 -0.4701915433
C   1.6437400865  0.1413228865  0.1606925063
O   2.5491798281 -0.1872407652  0.1231142615
C   1.7725000343  0.0580944868  0.8267987259
O   4.7103631475  2.2113849959 -0.4621004059
H  -2.0252644931 -0.7021706019  0.6137264171
H  -0.7719855050 -0.9258446230 -0.3075496966
H  -1.2435027605  0.0094852060 -0.9750611138
H   0.5343849001  1.5605408240 -0.0746471068
H   0.8725092272  0.7697423153 -1.3816216741
H   2.0028045757 -0.2678004040  1.1229238127
H   4.0612356314  1.2888501388 -1.0000118405
H   2.4984187337  0.0265524569  1.3506564382
H   4.9400757911  3.0797357592 -0.7523448891
17
Image 474  Energy = -420.2917990137
C  -1.3237568628  0.0906701498  0.5621827588
O  -1.5434881499  1.1385789390  1.0225267634
C  -0.7117107492 -0.0808628358 -0.3566410001
C   0.5869037518  0.6577837274 -0.4711622239
C   1.6436258539  0.1420890349  0.1611311783
O   2.5500449482 -0.1839829783  0.1237536899
C   1.7699875083  0.0569145888  0.8283766922
O   4.7107792555  2.2114082652 -0.4630536969
H  -2.0233145216 -0.7035870129  0.6149932053
H  -0.7719416412 -0.9256053839 -0.3100410911
H  -1.2443800423  0.0116002044 -0.9751565091
H   0.5342683231  1.5614554581 -0.0766324079
H   0.8730659888  0.7690581536 -1.3826373973
H   2.0008193165 -0.2708576408  1.1231982099
H   4.0634271805  1.2890333655 -1.0003109314
H   2.4953196133  0.0266475925  1.3533643198
H   4.9403502270  3.0796563721 -0.7538915591
17
Image 475  Energy = -420.3012791281
C  -1.3222948536  0.0897568906  0.5632561703
O  -1.5425178014  1.1373313817  1.0246138990
C  -0.7118043757 -0.0803443165 -0.3573519686
C   0.5869758318  0.6582464658 -0.4721300891
C   1.6435013880  0.1428698128  0.1615663137
O   2.5509276574 -0.1807469816  0.1243749827
C   1.7674584150  0.0557465311  0.8299605906
O   4.7111966345  2.2114354291 -0.4640100504
H  -2.0213652995 -0.7050054323  0.6162611789
H  -0.7718977228 -0.9253650288 -0.3125320121
H  -1.2452561635  0.0137139808 -0.9752527878
H   0.5341515208  1.5623706044 -0.0786190930
H   0.8736228084  0.7683732659 -1.3836524480
H   1.9988278249 -0.2739169218  1.1234836028
H   4.0656203285  1.2892116253 -1.0006088299
H   2.4922285928  0.0267436863  1.3560780656
H   4.9406252145  3.0795790069 -0.7554375241
17
Image 476  Energy = -420.3105073474
C  -1.3208334107  0.0888449563  0.5643253636
O  -1.5415450784  1.1360820994  1.0267027985
C  -0.7118980157 -0.0798252716 -0.3580635671
C   0.5870496930  0.6587068428 -0.4730950068
C   1.6433670185  0.1436651127  0.1619949933
O   2.5518268089 -0.1775314949  0.1249774840
C   1.7649135858  0.0545893421  0.8315515663
O   4.7116152692  2.2114665316 -0.4649693486
H  -2.0194169831 -0.7064256966  0.6175302051
H  -0.7718538351 -0.9251234570 -0.3150222716
H  -1.2461309712  0.0158263215 -0.9753498147
H   0.5340346390  1.5632860542 -0.0806069574
H   0.8741796985  0.7676876554 -1.3846666304
H   1.9968298143 -0.2769781574  1.1237814216
H   4.0678148854  1.2893849632 -1.0009055919
H   2.4891461560  0.0268405568  1.3587980027
H   4.9409007256  3.0795036414 -0.7569826460
17
Image 477  Energy = -420.3194247315
C  -1.3193726000  0.0879342258  0.5653902728
O  -1.5405699859  1.1348311585  1.0287933852
C  -0.7119916970 -0.0793056990 -0.3587757285
C   0.5871252893  0.6591648342 -0.4740569077
C   1.6432237467  0.1444744345  0.1624151761
O   2.5527398245 -0.1743350011  0.1255619445
C   1.7623544193  0.0534420820  0.8331499034
O   4.7120351584  2.2115015913 -0.4659315282
H  -2.0174695999 -0.7078477333  0.6188002260
H  -0.7718100768 -0.9248805528 -0.3175118598
H  -1.2470043512  0.0179371428 -0.9754474769
H   0.5339177784  1.5642016650 -0.0825959104
H   0.8747367200  0.7670012977 -1.3856798897
H   1.9948255485 -0.2800409507  1.1240919381
H   4.0700107970  1.2895534356 -1.0012012870
H   2.4860722715  0.0269378099  1.3615246313
H   4.9411767573  3.0794302593 -0.7585268885
17
Image 478  Energy = -420.3280091746
C  -1.3179124340  0.0870249597  0.5664500686
O  -1.5395917130  1.1335779224  1.0308864820
C  -0.7120855980 -0.0787853145 -0.3594886771
C   0.5872022141  0.6596200499 -0.4750151424
C   1.6430752951  0.1452994341  0.1628263198
O   2.5536606079 -0.1711593090  0.1261306287
C   1.7597813334  0.0523061522  0.8347539559
O   4.7124567044  2.2115415697 -0.4668974793
H  -2.0155230289 -0.7092723225  0.6200717409
H  -0.7717666071 -0.9246360671 -0.3200010703
H  -1.2478760840  0.0200464387 -0.9755461688
H   0.5338008580  1.5651175787 -0.0845865344
H   0.8752940686  0.7663139226 -1.3866924121
H   1.9928154947 -0.2831049275  1.1244143060
H   4.0722087928  1.2897157890 -1.0014956562
H   2.4830065672  0.0270346870  1.3642599657
H   4.9414535289  3.0793594364 -0.7600703263
17
Image 479  Energy = -420.3362861974
C  -1.3164529025  0.0861174469  0.5675040582
O  -1.5386093987  1.1323216891  1.0329828947
C  -0.7121800754 -0.0782638635 -0.3602026858
C   0.5872800142  0.6600721273 -0.4759690528
C   1.6429262440  0.1461411591  0.1632290304
O   2.5545819761 -0.1680055101  0.1266871008
C   1.7571952923  0.0511827003  0.8363616045
O   4.7128802958  2.2115873719 -0.4678680621
H  -2.0135771114 -0.7107002605  0.6213452634
H  -0.7717235532 -0.9243897727 -0.3224902707
H  -1.2487459909  0.0221542756 -0.9756462992
H   0.5336837734  1.5660339513 -0.0865794509
H   0.8758519406  0.7656252529 -1.3877044180
H   1.9908003955 -0.2861694785  1.1247459386
H   4.0744096075  1.2898707993 -1.0017884636
H   2.4799482363  0.0271303868  1.3670058886
H   4.9417312565  3.0792917245 -0.7616130754
17
Image 480  Energy = -420.3443322918
C  -1.3149939591  0.0852112902  0.5685535460
O  -1.5376235364  1.1310628229  1.0350819985
C  -0.7122754458 -0.0777416344 -0.3609176969
C   0.5873590095  0.6605215021 -0.4769191389
C   1.6427786121  0.1469947616  0.1636247246
O   2.5554997742 -0.1648676748  0.1272353778
C   1.7546003430  0.0500690405  0.8379722628
O   4.7133055733  2.2116379477 -0.4688423968
H  -2.0116316295 -0.7121309759  0.6226204553
H  -0.7716808358 -0.9241418016 -0.3249797205
H  -1.2496143228  0.0242610030 -0.9757474630
H   0.5335665452  1.5669507003 -0.0885743307
H   0.8764103427  0.7649354104 -1.3887160317
H   1.9887814656 -0.2892334173  1.1250826559
H   4.0766128103  1.2900198251 -1.0020801238
H   2.4768954673  0.0272246805  1.3697612367
H   4.9420097864  3.0792265191 -0.7631553548
17
Image 481  Energy = -420.3522778346
C  -1.3135355297  0.0843061569  0.5695999321
O  -1.5366345841  1.1298015968  1.0371833584
C  -0.7123718497 -0.0772189623 -0.3616337598
C   0.5874393606  0.6609688150 -0.4778662233
C   1.6426356925  0.1478554478  0.1640162823
O   2.5564083974 -0.1617398234  0.1277805614
C   1.7520011173  0.0489623542  0.8395838648
O   4.7137322252  2.2116923003 -0.4698197033
H  -2.0096862766 -0.7135640306  0.6238970916
H  -0.7716383506 -0.9238923336 -0.3274697634
H  -1.2504814249  0.0263670977 -0.9758493461
H   0.5334491712  1.5678678554 -0.0905709741
H   0.8769692724  0.7642445090 -1.3897274235
H   1.9867597729 -0.2922959679  1.1254202098
H   4.0788180983  1.2901641534 -1.0023710140
H   2.4738459298  0.0273176073  1.3725243738
H   4.9422889782  3.0791632237 -0.7646974658
17
Image 482  Energy = -420.3602682987
C  -1.3120774531  0.0834024627  0.5706427200
O  -1.5356416708  1.1285371473  1.0392880267
C  -0.7124695534 -0.0766957391 -0.3623513657
C   0.5875206668  0.6614140692 -0.4788100872
C   1.6425039081  0.1487233921  0.1644061526
O   2.5572981270 -0.1586224944  0.1283277445
C   1.7494005693  0.0478639817  0.8411927046
O   4.7141606877  2.2117513539 -0.4708009420
H  -2.0077407507 -0.7150003882  0.6251758483
H  -0.7715961197 -0.9236412258 -0.3299608810
H  -1.2513473056  0.0284728772 -0.9759524533
H   0.5333314488  1.5687857878 -0.0925701789
H   0.8775287936  0.7635523064 -1.3907389387
H   1.9847354176 -0.2953574075  1.1257559293
H   4.0810263368  1.2903025049 -1.0026608472
H   2.4707978552  0.0274090296  1.3752962226
H   4.9425690424  3.0791023417 -0.7662396538
17
Image 483  Energy = -420.3684078895
C  -1.3106196101  0.0824999257  0.5716830006
O  -1.5346454985  1.1272700042  1.0413954112
C  -0.7125686727 -0.0761723069 -0.3630705058
C   0.5876030980  0.6618579096 -0.4797513809
C   1.6423840583  0.1495954141  0.1647934591
O   2.5581669142 -0.1555111753  0.1288786587
C   1.7468030860  0.0467708070  0.8427996666
O   4.7145906142  2.2118141414 -0.4717852803
H  -2.0057949845 -0.7164394741  0.6264563792
H  -0.7715540262 -0.9233887278 -0.3324531008
H  -1.2522122701  0.0305785811 -0.9760564542
H   0.5332134111  1.5697044049 -0.0945715695
H   0.8780887333  0.7628590080 -1.3917505775
H   1.9827086628 -0.2984172555  1.1260886111
H   4.0832369953  1.2904361376 -1.0029499428
H   2.4677496989  0.0274993221  1.3780756468
H   4.9428497901  3.0790432834 -0.7677820209
17
Image 484  Energy = -420.3767059469
C  -1.3091618566  0.0815989696  0.5727198565
O  -1.5336454976  1.1259996592  1.0435061617
C  -0.7126696378 -0.0756485048 -0.3637914605
C   0.5876863741  0.6623001087 -0.4806894206
C   1.6422792163  0.1504734614  0.1651755404
O   2.5590101977 -0.1524079824  0.1294337541
C   1.7442100222  0.0456839370  0.8444051680
O   4.7150223429  2.2118815515 -0.4727735049
H  -2.0038490297 -0.7178819448  0.6277390951
H  -0.7715121030 -0.9231347333 -0.3349464565
H  -1.2530761881  0.0326841206 -0.9761617538
H   0.5330949063  1.5706238625 -0.0965755964
H   0.8786490057  0.7621644967 -1.3927624512
H   1.9806788203 -0.3014758615  1.1264190172
H   4.0854505428  1.2905638285 -1.0032379901
H   2.4647015219  0.0275884828  1.3808645428
H   4.9431313629  3.0789865480 -0.7693245012
17
Image 485  Energy = -420.3851237684
C  -1.3077041398  0.0806993186  0.5737540790
O  -1.5326425258  1.1247268342  1.0456194446
C  -0.7127726106 -0.0751245443 -0.3645140101
C   0.5877707485  0.6627410288 -0.4816245154
C   1.6421883471  0.1513556291  0.1655483795
O   2.5598290383 -0.1493095426  0.1299919803
C   1.7416236877  0.0446005477  0.8460121496
O   4.7154554680  2.2119525983 -0.4737647135
H  -2.0019030190 -0.7193270459  0.6290234898
H  -0.7714702583 -0.9228795138 -0.3374407134
H  -1.2539392529  0.0347894532 -0.9762679919
H   0.5329759657  1.5715439689 -0.0985816718
H   0.8792094212  0.7614690329 -1.3937744386
H   1.9786457405 -0.3045331405  1.1267483482
H   4.0876662488  1.2906868576 -1.0035252715
H   2.4616535912  0.0276769361  1.3836624679
H   4.9434135496  3.0789315813 -0.7708670121
17
Image 486  Energy = -420.3935994456
C  -1.3062464161  0.0798010338  0.5747855222
O  -1.5316367359  1.1234516253  1.0477351137
C  -0.7128778053 -0.0746003437 -0.3652380424
C   0.5878562838  0.6631805763 -0.4825564331
C   1.6421126555  0.1522420365  0.1659087911
O   2.5606218026 -0.1462152047  0.1305530401
C   1.7390445165  0.0435201464  0.8476215830
O   4.7158899403  2.2120272170 -0.4747588530
H  -1.9999570497 -0.7207746792  0.6303094847
H  -0.7714284895 -0.9226231407 -0.3399357395
H  -1.2548014522  0.0368944515 -0.9763751822
H   0.5328565181  1.5724646909 -0.1005896779
H   0.8797698905  0.7607726891 -1.3947865101
H   1.9766090721 -0.3075896450  1.1270780625
H   4.0898839692  1.2908052774 -1.0038117577
H   2.4586069793  0.0277648980  1.3864700541
H   4.9436963211  3.0788783707 -0.7724094550
17
Image 487  Energy = -420.4020751316
C  -1.3047886769  0.0789041656  0.5758140372
O  -1.5306282543  1.1221740828  1.0498530382
C  -0.7129853259 -0.0740757789 -0.3659633779
C   0.5879431307  0.6636185916 -0.4834849735
C   1.6420536294  0.1531326144  0.1662547945
O   2.5613867402 -0.1431242244  0.1311170451
C   1.7364721279  0.0424425670  0.8492334382
O   4.7163257155  2.2121053428 -0.4757558886
H  -1.9980111804 -0.7222247440  0.6315970108
H  -0.7713868101 -0.9223656793 -0.3424314269
H  -1.2556627651  0.0389990068 -0.9764833392
H   0.5327364972  1.5733859890 -0.1025995025
H   0.8803303564  0.7600755222 -1.3957986260
H   1.9745686662 -0.3106460623  1.1274093322
H   4.0921035876  1.2909191461 -1.0040974160
H   2.4555629055  0.0278525552  1.3892876046
H   4.9439796561  3.0788269051 -0.7739517497
17
Image 488  Energy = -420.4105062928
C  -1.3033309413  0.0780087466  0.5768394644
O  -1.5296171868  1.1208942364  1.0519730991
C  -0.7130951670 -0.0735507225 -0.3666897887
C   0.5880315386  0.6640548849 -0.4844099583
C   1.6420125567  0.1540271920  0.1665856301
O   2.5621226826 -0.1400359937  0.1316841159
C   1.7339054040  0.0413679902  0.8508470444
O   4.7167627583  2.2121869243 -0.4767557904
H  -1.9960654480 -0.7236771300  0.6328859997
H  -0.7713452439 -0.9221071885 -0.3449276687
H  -1.2565231664  0.0411030255 -0.9765924763
H   0.5326158513  1.5743078134 -0.1046110327
H   0.8808907700  0.7593775764 -1.3968107253
H   1.9725245851 -0.3137030865  1.1277430792
H   4.0943249949  1.2910285119 -1.0043822153
H   2.4525224757  0.0279400496  1.3921150468
H   4.9442635364  3.0787771699 -0.7754938232
17
Image 489  Energy = -420.4188624470
C  -1.3018732883  0.0771144660  0.5778625262
O  -1.5286042848  1.1196126939  1.0540945676
C  -0.7132070145 -0.0730252726 -0.3674168465
C   0.5881220667  0.6644896181 -0.4853317672
C   1.6419881224  0.1549239854  0.1669012336
O   2.5628321153 -0.1369478841  0.1322535789
C   1.7313434667  0.0402950850  0.8524625657
O   4.7172007113  2.2122710461 -0.4777577466
H  -1.9941198783 -0.7251311111  0.6341759871
H  -0.7713037405 -0.9218479264 -0.3474242709
H  -1.2573828276  0.0432065064 -0.9767022868
H   0.5324946224  1.5752299915 -0.1066237253
H   0.8814510339  0.7586790424 -1.3978226541
H   1.9704773629 -0.3167611681  1.1280800959
H   4.0965475692  1.2911345791 -1.0046664052
H   2.4494861764  0.0280276930  1.3949507943
H   4.9445477871  3.0787286548 -0.7770356459
17
Image 490  Energy = -420.4270993302
C  -1.3004157363  0.0762215965  0.5788820790
O  -1.5275889830  1.1183289602  1.0562179162
C  -0.7133208755 -0.0724991893 -0.3681444182
C   0.5882147853  0.6649223160 -0.4862497589
C   1.6419817164  0.1558249887  0.1672024624
O   2.5635143269 -0.1338624967  0.1328251190
C   1.7287831431  0.0392265068  0.8540778349
O   4.7176398831  2.2123586008 -0.4787624726
H  -1.9921745468 -0.7265871286  0.6354672576
H  -0.7712623962 -0.9215876920 -0.3499210917
H  -1.2582415173  0.0453092528 -0.9768130920
H   0.5323727181  1.5761525981 -0.1086378583
H   0.8820111081  0.7579798030 -1.3988343631
H   1.9684269821 -0.3198215105  1.1284219791
H   4.0987716511  1.2912361706 -1.0049496952
H   2.4464552028  0.0281153921  1.3977951655
H   4.9448325381  3.0786818311 -0.7785770632
17
Image 491  Energy = -420.4351777159
C  -1.2989583676  0.0753300553  0.5798978452
O  -1.5265713886  1.1170431500  1.0583429573
C  -0.7134364930 -0.0719724901 -0.3688721767
C   0.5883099203  0.6653529130 -0.4871639323
C   1.6419913668  0.1567308470  0.1674903399
O   2.5641730774 -0.1307804740  0.1333973624
C   1.7262216614  0.0381632492  0.8556916577
O   4.7180802404  2.2124496018 -0.4797698724
H  -1.9902295600 -0.7280449749  0.6367596767
H  -0.7712212227 -0.9213264514 -0.3524178516
H  -1.2590991876  0.0474111266 -0.9769248730
H   0.5322501414  1.5770755935 -0.1106532438
H   0.8825709020  0.7572799125 -1.3998457033
H   1.9663737088 -0.3228853455  1.1287707968
H   4.1009970330  1.2913332911 -1.0052320881
H   2.4434304142  0.0282033285  1.4006470417
H   4.9451177541  3.0786366670 -0.7801179358
17
Image 492  Energy = -420.4430659220
C  -1.2975013312  0.0744394503  0.5809104348
O  -1.5255522568  1.1157559511  1.0604689029
C  -0.7135533393 -0.0714454107 -0.3695996475
C   0.5884077380  0.6657817383 -0.4880749606
C   1.6420117369  0.1576412070  0.1677660793
O   2.5648166628 -0.1277009441  0.1339677985
C   1.7236566889  0.0371047055  0.8573039217
O   4.7185214207  2.2125431965 -0.4807790880
H  -1.9882850362 -0.7295038544  0.6380527297
H  -0.7711801523 -0.9210643571 -0.3549141762
H  -1.2599559822  0.0495120621 -0.9770373073
H   0.5321269754  1.5779988547 -0.1126692753
H   0.8831303110  0.7565795841 -1.4008564588
H   1.9643180198 -0.3259538871  1.1291289819
H   4.1032230253  1.2914270994 -1.0055138597
H   2.4404122692  0.0282919426  1.4035040921
H   4.9454032502  3.0785926616 -0.7816581672
17
Image 493  Energy = -420.4507056281
C  -1.2960447001  0.0735500073  0.5819186451
O  -1.5245310841  1.1144669657  1.0625960725
C  -0.7136714174 -0.0709178539 -0.3703266875
C   0.5885078004  0.6662085048 -0.4889825614
C   1.6420403670  0.1585590068  0.1680313164
O   2.5654498638 -0.1246276222  0.1345343072
C   1.7210844036  0.0360536118  0.8589127408
O   4.7189636735  2.2126402505 -0.4817907333
H  -1.9863411843 -0.7309640830  0.6393466119
H  -0.7711392829 -0.9208011103 -0.3574097445
H  -1.2608116176  0.0516117592 -0.9771506376
H   0.5320031702  1.5789224717 -0.1146861133
H   0.8836893218  0.7558787644 -1.4018665129
H   1.9622597713 -0.3290286791  1.1294993834
H   4.1054498605  1.2915164833 -1.0057947771
H   2.4374019230  0.0283812545  1.4063661974
H   4.9456891315  3.0785502681 -0.7831975064
17
Image 494  Energy = -420.4580481345
C  -1.2945885974  0.0726614006  0.5829231667
O  -1.5235086187  1.1131768702  1.0647237061
C  -0.7137903619 -0.0703900772 -0.3710529505
C   0.5886098543  0.6666336419 -0.4898875703
C   1.6420715656  0.1594839921  0.1682873756
O   2.5660817777 -0.1215601287  0.1350939579
C   1.7185033607  0.0350088949  0.8605193083
O   4.7194066180  2.2127398731 -0.4828039670
H  -1.9843981283 -0.7324249133  0.6406408267
H  -0.7710985813 -0.9205368936 -0.3599042397
H  -1.2616662416  0.0537101630 -0.9772645389
H   0.5318788034  1.5798463551 -0.1167031950
H   0.8842479243  0.7551776783 -1.4028757166
H   1.9601994908 -0.3321100180  1.1298834342
H   4.1076769223  1.2916026375 -1.0060751348
H   2.4343989851  0.0284715070  1.4092314123
H   4.9459752273  3.0785090171 -0.7847358743
17
Image 495  Energy = -420.4650480904
C  -1.2931330037  0.0717736265  0.5839239196
O  -1.5224849273  1.1118857407  1.0668517437
C  -0.7139102371 -0.0698621578 -0.3717783889
C   0.5887131289  0.6670573667 -0.4907903371
C   1.6421036281  0.1604164806  0.1685359069
O   2.5667162136 -0.1184995778  0.1356454887
C   1.7159129117  0.0339705376  0.8621245310
O   4.7198502078  2.2128420173 -0.4838187437
H  -1.9824559156 -0.7338862708  0.6419353075
H  -0.7710581086 -0.9202717389 -0.3623975573
H  -1.2625198514  0.0558072477 -0.9773789900
H   0.5317538843  1.5807705183 -0.1187204764
H   0.8848062053  0.7544763761 -1.4038840791
H   1.9581377151 -0.3351971510  1.1302805828
H   4.1099041884  1.2916856246 -1.0063549859
H   2.4314024261  0.0285624374  1.4120992917
H   4.9462615346  3.0784689225 -0.7862732127
17
Image 496  Energy = -420.4717008806
C  -1.2916777045  0.0708869481  0.5849200959
O  -1.5214593857  1.1105930380  1.0689808757
C  -0.7140315580 -0.0693340046 -0.3725032781
C   0.5888163639  0.6674797598 -0.4916907869
C   1.6421395549  0.1613568527  0.1687794852
O   2.5673505646 -0.1154480758  0.1361900717
C   1.7133134481  0.0329394499  0.8637284147
O   4.7202947403  2.2129474708 -0.4848358167
H  -1.9805144527 -0.7353487752  0.6432304442
H  -0.7710180006 -0.9200055227 -0.3648898650
H  -1.2633723210  0.0579030994 -0.9774942519
H   0.5316283778  1.5816950505 -0.1207384722
H   0.8853643512  0.7537747107 -1.4048917734
H   1.9560750710 -0.3382881268  1.1306876913
H   4.1121322593  1.2917643906 -1.0066341590
H   2.4284104733  0.0286532800  1.4149708510
H   4.9465482182  3.0784304542 -0.7878095258
17
Image 497  Energy = -420.4781009893
C  -1.2902224477  0.0700010440  0.5859128302
O  -1.5204325096  1.1092991883  1.0711109667
C  -0.7141543810 -0.0688058408 -0.3732277777
C   0.5889185930  0.6679017017 -0.4925899913
C   1.6421807635  0.1623018417  0.1690213564
O   2.5679838208 -0.1124034097  0.1367295458
C   1.7107080870  0.0319129362  0.8653328585
O   4.7207399727  2.2130553545 -0.4858546122
H  -1.9785733970 -0.7368121651  0.6445260771
H  -0.7709782189 -0.9197386149 -0.3673815065
H  -1.2642240220  0.0599982327 -0.9776100902
H   0.5315024040  1.5826198638 -0.1227571536
H   0.8859225719  0.7530727221 -1.4058989955
H   1.9540128547 -0.3413795862  1.1310991138
H   4.1143610583  1.2918400676 -1.0069129741
H   2.4254196430  0.0287434717  1.4178454805
H   4.9468352075  3.0783931921 -0.7893451274
17
Image 498  Energy = -420.4843905755
C  -1.2887669123  0.0691158552  0.5869023712
O  -1.5194041699  1.1080040581  1.0732424642
C  -0.7142790312 -0.0682777306 -0.3739522257
C   0.5890187831  0.6683237599 -0.4934884713
C   1.6422310044  0.1632492477  0.1692651274
O   2.5686116425 -0.1093649803  0.1372665076
C   1.7080993998  0.0308899130  0.8669382565
O   4.7211859844  2.2131656542 -0.4868752903
H  -1.9766324117 -0.7382767497  0.6458224273
H  -0.7709387660 -0.9194711267 -0.3698728947
H  -1.2650751248  0.0620930914 -0.9777265303
H   0.5313760434  1.5835449312 -0.1247768887
H   0.8864811019  0.7523702817 -1.4069059535
H   1.9519519331 -0.3444683100  1.1315091277
H   4.1165909610  1.2919126397 -1.0071914933
H   2.4224269877  0.0288322970  1.4207237511
H   4.9471225749  3.0783571679 -0.7908802846
17
Image 499  Energy = -420.4906970149
C  -1.2873108323  0.0682315951  0.5878879851
O  -1.5183736801  1.1067070489  1.0753761658
C  -0.7144060448 -0.0677496023 -0.3746770007
C   0.5891161420  0.6687460212 -0.4943860346
C   1.6422948235  0.1641985701  0.1695137686
O   2.5692286606 -0.1063339666  0.1378029591
C   1.7054883517  0.0298711662  0.8685436629
O   4.7216331169  2.2132791832 -0.4878986310
H  -1.9746913258 -0.7397432356  0.6471199735
H  -0.7708996824 -0.9192028628 -0.3723643144
H  -1.2659255277  0.0641878562 -0.9778438117
H   0.5312493155  1.5844702740 -0.1267982553
H   0.8870401245  0.7516671550 -1.4079127603
H   1.9498925154 -0.3475521320  1.1319138566
H   4.1188225977  1.2919809966 -1.0074695229
H   2.4194309488  0.0289190994  1.4236070461
H   4.9474104967  3.0783228331 -0.7924150862
17
Image 500  Energy = -420.4971001925
C  -1.2858542069  0.0673479909  0.5888706176
O  -1.5173416061  1.1054086683  1.0775116598
C  -0.7145352130 -0.0672216845 -0.3754020788
C   0.5892108617  0.6691689295 -0.4952832320
C   1.6423713439  0.1651477557  0.1697685403
O   2.5698364909 -0.1033084599  0.1383383002
C   1.7028759063  0.0288549787  0.8701502466
O   4.7220811066  2.2133951175 -0.4889239562
H  -1.9727500545 -0.7412111917  0.6484184503
H  -0.7708608299 -0.9189340275 -0.3748558136
H  -1.2667754691  0.0662827100 -0.9779616910
H   0.5311223264  1.5853957767 -0.1288209609
H   0.8875996888  0.7509634069 -1.4089193608
H   1.9478347621 -0.3506298759  1.1323116838
H   4.1210555927  1.2920461872 -1.0077472916
H   2.4164304356  0.0290039492  1.4264945627
H   4.9476988647  3.0782897686 -0.7939496757
17
Image 501  Energy = -420.5035960208
C  -1.2843971576  0.0664650697  0.5898502096
O  -1.5163079922  1.1041089927  1.0796488046
C  -0.7146664838 -0.0666940517 -0.3761274083
C   0.5893034162  0.6695923660 -0.4961798417
C   1.6424600627  0.1660968610  0.1700294547
O   2.5704364175 -0.1002884461  0.1388710430
C   1.7002609237  0.0278416170  0.8717578728
O   4.7225299313  2.2135134487 -0.4899511853
H  -1.9708087355 -0.7426805268  0.6497177996
H  -0.7708221350 -0.9186645400 -0.3773472449
H  -1.2676248892  0.0683774954 -0.9780801516
H   0.5309950823  1.5863214081 -0.1308448716
H   0.8881597482  0.7502590435 -1.4099256189
H   1.9457781731 -0.3537019877  1.1327036926
H   4.1232897791  1.2921081919 -1.0080247694
H   2.4134261968  0.0290870824  1.4293861804
H   4.9479876625  3.0782579754 -0.7954839648
17
Image 502  Energy = -420.5101079730
C  -1.2829398608  0.0655831152  0.5908257583
O  -1.5152723604  1.1028076546  1.0817877841
C  -0.7148000270 -0.0661666288 -0.3768529533
C   0.5893943564  0.6700157571 -0.4970749999
C   1.6425614806  0.1670475860  0.1702958767
O   2.5710284671 -0.0972754644  0.1393996401
C   1.6976407214  0.0268330435  0.8733648888
O   4.7229798053  2.2136349509 -0.4909808450
H  -1.9688676593 -0.7441515129  0.6510181934
H  -0.7707836074 -0.9183940595 -0.3798383465
H  -1.2684734606  0.0704718062 -0.9781993772
H   0.5308675034  1.5872472101 -0.1328700645
H   0.8887201866  0.7495540067 -1.4109313679
H   1.9437217972 -0.3567701149  1.1330926495
H   4.1255252556  1.2921659696 -1.0083016979
H   2.4104204342  0.0291688279  1.4322825388
H   4.9482769679  3.0782278523 -0.7970176772
17
Image 503  Energy = -420.5165533251
C  -1.2814826052  0.0647019155  0.5917980617
O  -1.5142353929  1.1015052811  1.0839278668
C  -0.7149352949 -0.0656395860 -0.3775784289
C   0.5894846642  0.6704390915 -0.4979688552
C   1.6426722535  0.1679995410  0.1705668240
O   2.5716171772 -0.0942679584  0.1399218982
C   1.6950138839  0.0258284047  0.8749713247
O   4.7234304077  2.2137587982 -0.4920121580
H  -1.9669269973 -0.7456234959  0.6523192044
H  -0.7707451273 -0.9181227375 -0.3823288654
H  -1.2693212855  0.0725654813 -0.9783191335
H   0.5307396114  1.5881731286 -0.1348959836
H   0.8892808464  0.7488484906 -1.4119364653
H   1.9416650458 -0.3598359331  1.1334811798
H   4.1277613853  1.2922205964 -1.0085782450
H   2.4074148058  0.0292500110  1.4351825285
H   4.9485666220  3.0781989708 -0.7985507529
17
Image 504  Energy = -420.5228385523
C  -1.2800255408  0.0638217066  0.5927661671
O  -1.5131966292  1.1002015027  1.0860692758
C  -0.7150723941 -0.0651128032 -0.3783038110
C   0.5895748020  0.6708617845 -0.4988606202
C   1.6427928614  0.1689544110  0.1708419312
O   2.5722019589 -0.0912672325  0.1404372942
C   1.6923780055  0.0248295934  0.8765745455
O   4.7238819461  2.2138857371 -0.4930456743
H  -1.9649869929 -0.7470967575  0.6536210188
H  -0.7707067516 -0.9178502592 -0.3848185980
H  -1.2701680456  0.0746581662 -0.9784395831
H   0.5306113384  1.5890992135 -0.1369227282
H   0.8898415951  0.7481424657 -1.4129408272
H   1.9396070051 -0.3629014360  1.1338717837
H   4.1299983150  1.2922710830 -1.0088541629
H   2.4044118292  0.0293311182  1.4380869312
H   4.9488566978  3.0781717061 -0.8000829418
17
Image 505  Energy = -420.5289173228
C  -1.2785688446  0.0629422371  0.5937309490
O  -1.5121567082  1.0988968854  1.0882114661
C  -0.7152107518 -0.0645863879 -0.3790289224
C   0.5896654124  0.6712838971 -0.4997506162
C   1.6429204219  0.1699116184  0.1711209810
O   2.5727859277 -0.0882716972  0.1409451781
C   1.6897327239  0.0238355847  0.8781738797
O   4.7243341343  2.2140149567 -0.4940807132
H  -1.9630476871 -0.7485707682  0.6549233013
H  -0.7706684122 -0.9175768257 -0.3873074519
H  -1.2710138955  0.0767498536 -0.9785605038
H   0.5304827491  1.5900254178 -0.1389498644
H   0.8904023299  0.7474361107 -1.4139444526
H   1.9375472801 -0.3659679297  1.1342657394
H   4.1322355749  1.2923184991 -1.0091296236
H   2.4014126871  0.0294129101  1.4409949410
H   4.9491470582  3.0781456375 -0.8016142866
17
Image 506  Energy = -420.5347627182
C  -1.2771125803  0.0620634693  0.5946924222
O  -1.5111156871  1.0975914837  1.0903544070
C  -0.7153501679 -0.0640602979 -0.3797537555
C   0.5897567364  0.6717052451 -0.5006387524
C   1.6430540589  0.1708715206  0.1714040496
O   2.5733693875 -0.0852811766  0.1414459480
C   1.6870777006  0.0228466116  0.8797676458
O   4.7247869528  2.2141464321 -0.4951172681
H  -1.9611091294 -0.7500454915  0.6562260409
H  -0.7706301360 -0.9173024124 -0.3897953956
H  -1.2718587964  0.0788404762 -0.9786818628
H   0.5303538871  1.5909517324 -0.1409773040
H   0.8909629897  0.7467294814 -1.4149473912
H   1.9354854187 -0.3690365552  1.1346638646
H   4.1344731179  1.2923628827 -1.0094046008
H   2.3984185629  0.0294958560  1.4439067104
H   4.9494376851  3.0781207422 -0.8031447573
17
Image 507  Energy = -420.5403564091
C  -1.2756567217  0.0611855679  0.5956497362
O  -1.5100730720  1.0962848721  1.0924985013
C  -0.7154908527 -0.0635343648 -0.3804784385
C   0.5898486664  0.6721253971 -0.5015245039
C   1.6431948264  0.1718353844  0.1716911990
O   2.5739501574 -0.0822967787  0.1419407449
C   1.6844124741  0.0218641045  0.8813534509
O   4.7252406212  2.2142808900 -0.4961559541
H  -1.9591714131 -0.7515213203  0.6575295074
H  -0.7705920377 -0.9170267555 -0.3922824135
H  -1.2727025044  0.0809298709 -0.9788037854
H   0.5302247681  1.5918781678 -0.1430052515
H   0.8915235383  0.7460225235 -1.4159497040
H   1.9334209286 -0.3721083577  1.1350667944
H   4.1367112552  1.2924032831 -1.0096788880
H   2.3954307035  0.0295801463  1.4468232222
H   4.9497286627  3.0780973690 -0.8046742166
17
Image 508  Energy = -420.5457086379
C  -1.2742013279  0.0603082849  0.5966038097
O  -1.5090294451  1.0949775499  1.0946433507
C  -0.7156323238 -0.0630086462 -0.3812029092
C   0.5899413535  0.6725445196 -0.5024083541
C   1.6433403366  0.1728025355  0.1719818028
O   2.5745302172 -0.0793170242  0.1424298437
C   1.6817382269  0.0208868025  0.8829316362
O   4.7256948817  2.2144175467 -0.4971961627
H  -1.9572344826 -0.7529978389  0.6588334365
H  -0.7705540883 -0.9167501043 -0.3947685371
H  -1.2735452315  0.0830181485 -0.9789260670
H   0.5300955081  1.5928046520 -0.1450333627
H   0.8920839521  0.7453153882 -1.4169514994
H   1.9313537978 -0.3751838221  1.1354746654
H   4.1389496553  1.2924407432 -1.0099526664
H   2.3924490965  0.0296661520  1.4497438026
H   4.9500198737  3.0780751123 -0.8062027884
17
Image 509  Energy = -420.5508052500
C  -1.2727463666  0.0594317950  0.5975537938
O  -1.5079843168  1.0936690944  1.0967893087
C  -0.7157748929 -0.0624829793 -0.3819272942
C   0.5900345370  0.6729622219 -0.5032897887
C   1.6434920216  0.1737741944  0.1722750013
O   2.5751071622 -0.0763429565  0.1429142668
C   1.6790548686  0.0199159862  0.8845010145
O   4.7261499330  2.2145571059 -0.4982384767
H  -1.9552984419 -0.7544754087  0.6601380670
H  -0.7705164073 -0.9164722048 -0.3972537333
H  -1.2743867468  0.0851051394 -0.9790488196
H   0.5299661219  1.5937311605 -0.1470618231
H   0.8926442008  0.7446080256 -1.4179528256
H   1.9292838206 -0.3782636496  1.1358880252
H   4.1411886051  1.2924743398 -1.0102257501
H   2.3894745084  0.0297538281  1.4526693535
H   4.9503113934  3.0780543075 -0.8077303189
17
Image 510  Energy = -420.5556368158
C  -1.2712919219  0.0585559000  0.5985005805
O  -1.5069382559  1.0923599952  1.0989359329
C  -0.7159181425 -0.0619574179 -0.3826515105
C   0.5901283064  0.6733786756 -0.5041692372
C   1.6436480952  0.1747497164  0.1725691905
O   2.5756826563 -0.0733731459  0.1433939785
C   1.6763635388  0.0189503827  0.8860631103
O   4.7266055118  2.2146987886 -0.4992822767
H  -1.9533632606 -0.7559535999  0.6614431083
H  -0.7704789587 -0.9161933205 -0.3997379932
H  -1.2752272717  0.0871909236 -0.9791718670
H   0.5298366934  1.5946576114 -0.1490902913
H   0.8932042509  0.7439005889 -1.4189537671
H   1.9272112314 -0.3813480867  1.1363071016
H   4.1434277535  1.2925051000 -1.0104983132
H   2.3865066695  0.0298433221  1.4555991636
H   4.9506031042  3.0780345662 -0.8092569094
17
Image 511  Energy = -420.5601674383
C  -1.2698379896  0.0576807930  0.5994433052
O  -1.5058907871  1.0910498434  1.1010834869
C  -0.7160624624 -0.0614318144 -0.3833756414
C   0.5902224091  0.6737935174 -0.5050461421
C   1.6438106714  0.1757301772  0.1728628534
O   2.5762540509 -0.0704085149  0.1438696291
C   1.6736638671  0.0179911625  0.8876176934
O   4.7270617880  2.2148432644 -0.5003280975
H  -1.9514290726 -0.7574327151  0.6627487469
H  -0.7704418465 -0.9159132017 -0.4022212307
H  -1.2760665837  0.0892752984 -0.9792953156
H   0.5297071963  1.5955839692 -0.1511189405
H   0.8937640501  0.7431930357 -1.4199543160
H   1.9251360768 -0.3844376041  1.1367324781
H   4.1456673291  1.2925321290 -1.0107701816
H   2.3835462332  0.0299344461  1.4585340432
H   4.9508950701  3.0780162137 -0.8107823703
17
Image 512  Energy = -420.5643692881
C  -1.2683846690  0.0568063149  0.6003828337
O  -1.5048424658  1.0897391150  1.1032315038
C  -0.7162074614 -0.0609062186 -0.3840995730
C   0.5903169378  0.6742069601 -0.5059209257
C   1.6439786099  0.1767148055  0.1731542976
O   2.5768227160 -0.0674476719  0.1443409214
C   1.6709566499  0.0170370346  0.8891668052
O   4.7275184979  2.2149897578 -0.5013753184
H  -1.9494958561 -0.7589123230  0.6640546779
H  -0.7704050138 -0.9156321270 -0.4047034106
H  -1.2769049163  0.0913583304 -0.9794190196
H   0.5295776636  1.5965101758 -0.1531474683
H   0.8943235527  0.7424855108 -1.4209545144
H   1.9230587463 -0.3875322335  1.1371642562
H   4.1479069723  1.2925564340 -1.0110415160
H   2.3805928586  0.0300272548  1.4614732442
H   4.9511871778  3.0779988801 -0.8123067934
17
Image 513  Energy = -420.5676323743
C  -1.2669319891  0.0559324873  0.6013191862
O  -1.5037933192  1.0884278373  1.1053799000
C  -0.7163531180 -0.0603805449 -0.3848232923
C   0.5904116824  0.6746190216 -0.5067936363
C   1.6441531310  0.1777033388  0.1734425842
O   2.5773874787 -0.0644903283  0.1448082045
C   1.6682420499  0.0160881340  0.8907114521
O   4.7279756021  2.2151382232 -0.5024239347
H  -1.9475636456 -0.7603923876  0.6653608505
H  -0.7703684669 -0.9153501354 -0.4071845040
H  -1.2777422743  0.0934399720 -0.9795429646
H   0.5294480721  1.5974362308 -0.1551758810
H   0.8948827299  0.7417780504 -1.4219543348
H   1.9209796158 -0.3906322094  1.1376023771
H   4.1501466621  1.2925781009 -1.0113122925
H   2.3776463934  0.0301216832  1.4644164313
H   4.9514793961  3.0779825258 -0.8138301451
17
Image 514  Energy = -420.5710874013
C  -1.2654799730  0.0550593404  0.6022523276
O  -1.5027433725  1.0871160071  1.1075285882
C  -0.7164994747 -0.0598547809 -0.3855467544
C   0.5905066187  0.6750297370 -0.5076642942
C   1.6443344415  0.1786958920  0.1737270028
O   2.5779482700 -0.0615364269  0.1452713604
C   1.6655199572  0.0151440855  0.8922522601
O   4.7284330587  2.2152886047 -0.5034738843
H  -1.9456324729 -0.7618728560  0.6666672177
H  -0.7703322062 -0.9150672392 -0.4096644455
H  -1.2785786906  0.0955201885 -0.9796671506
H   0.5293183869  1.5983621035 -0.1572041594
H   0.8954415302  0.7410706779 -1.4229537619
H   1.9188988066 -0.3937373279  1.1380467522
H   4.1523863227  1.2925971313 -1.0115825132
H   2.3747070748  0.0302177007  1.4673638507
H   4.9517717230  3.0779671620 -0.8153523955
17
Image 515  Energy = -420.5741393607
C  -1.2640286145  0.0541868913  0.6031822600
O  -1.5016926386  1.0858036161  1.1096775266
C  -0.7166465391 -0.0593288819 -0.3862699431
C   0.5906015774  0.6754392154 -0.5085330512
C   1.6445230704  0.1796922373  0.1740076206
O   2.5785046907 -0.0585858752  0.1457305881
C   1.6627904380  0.0142047103  0.8937896917
O   4.7288908417  2.2154408624 -0.5045251511
H  -1.9437023375 -0.7633537146  0.6679737560
H  -0.7702962265 -0.9147834698 -0.4121432217
H  -1.2794141891  0.0975989808 -0.9797915708
H   0.5291885795  1.5992877952 -0.1592323368
H   0.8959999387  0.7403634019 -1.4239527653
H   1.9168164657 -0.3968474360  1.1384968735
H   4.1546259370  1.2926135579 -1.0118521689
H   2.3717748573  0.0303153348  1.4703154331
H   4.9520641490  3.0779527737 -0.8168735400
17
Image 516  Energy = -420.5767900793
C  -1.2625778884  0.0533151506  0.6041089950
O  -1.5006411225  1.0844906432  1.1118267061
C  -0.7167943153 -0.0588028094 -0.3869928585
C   0.5906963751  0.6758475926 -0.5094001122
C   1.6447193444  0.1806920903  0.1742849779
O   2.5790564890 -0.0556386296  0.1461861716
C   1.6600536138  0.0132697959  0.8953239479
O   4.7293489376  2.2155949695 -0.5055777303
H  -1.9417732172 -0.7648349693  0.6692804593
H  -0.7702605222 -0.9144988601 -0.4146208414
H  -1.2802487934  0.0996763771 -0.9799162160
H   0.5290586319  1.6002133112 -0.1612604581
H   0.8965579596  0.7396562186 -1.4249513236
H   1.9147326326 -0.3999623034  1.1389519837
H   4.1568655083  1.2926274044 -1.0121212536
H   2.3688496982  0.0304146731  1.4732711449
H   4.9523566690  3.0779393451 -0.8183935921
17
Image 517  Energy = -420.5790585459
C  -1.2611278075  0.0524439835  0.6050333955
O  -1.4995893064  1.0831774709  1.1139758402
C  -0.7169423741 -0.0582766094 -0.3877154372
C   0.5907909941  0.6762552536 -0.5102661686
C   1.6449216633  0.1816944062  0.1745597817
O   2.5796054585 -0.0526937224  0.1466380769
C   1.6573102655  0.0123380337  0.8968559699
O   4.7298071606  2.2157502435 -0.5066311010
H  -1.9398449904 -0.7663163295  0.6705871256
H  -0.7702250169 -0.9142137138 -0.4170973676
H  -1.2810827480  0.1017525589 -0.9800409894
H   0.5289285695  1.6011386619 -0.1632883554
H   0.8971156222  0.7389492031 -1.4259494922
H   1.9126473296 -0.4030815283  1.1394109905
H   4.1591048086  1.2926395739 -1.0123899019
H   2.3659311620  0.0305159649  1.4762303680
H   4.9526492096  3.0779265491 -0.8199127343
17
Image 518  Energy = -420.5809567114
C  -1.2596782834  0.0515735419  0.6059546363
O  -1.4985367002  1.0818636437  1.1161252759
C  -0.7170911369 -0.0577501854 -0.3884377796
C   0.5908851380  0.6766620689 -0.5111309738
C   1.6451316875  0.1826996417  0.1748332124
O   2.5801496409 -0.0497521690  0.1470870721
C   1.6545598038  0.0114102756  0.8983844217
O   4.7302657053  2.2159073607 -0.5076858061
H  -1.9379176932 -0.7677981375  0.6718939834
H  -0.7701897860 -0.9139277931 -0.4195727962
H  -1.2819158412  0.1038274482 -0.9801659629
H   0.5287983636  1.6020638517 -0.1653162810
H   0.8976729431  0.7382422530 -1.4269472306
H   1.9105602953 -0.4062049403  1.1398730582
H   4.1613441176  1.2926491766 -1.0126579737
H   2.3630198999  0.0306192795  1.4791939868
H   4.9529418461  3.0779146837 -0.8214308422
17
Image 519  Energy = -420.5825140197
C  -1.2582293281  0.0507036991  0.6068735802
O  -1.4974837762  1.0805495288  1.1182747635
C  -0.7172401586 -0.0572235982 -0.3891598319
C   0.5909788582  0.6770683792 -0.5119951906
C   1.6453474887  0.1837068212  0.1751061368
O   2.5806909645 -0.0468130758  0.1475331652
C   1.6518028975  0.0104852251  0.8999097771
O   4.7307244059  2.2160656690 -0.5087413432
H  -1.9359911900 -0.7692801204  0.6732008478
H  -0.7701547624 -0.9136414012 -0.4220472068
H  -1.2827483058  0.1059012390 -0.9802910413
H   0.5286680515  1.6029888983 -0.1673440559
H   0.8982299589  0.7375354389 -1.4279446373
H   1.9084714165 -0.4093321202  1.1403370762
H   4.1635832284  1.2926570923 -1.0129256025
H   2.3601157395  0.0307248979  1.4821616717
H   4.9532345117  3.0779034268 -0.8229481085
17
Image 520  Energy = -420.5837464675
C  -1.2567808658  0.0498346010  0.6077894200
O  -1.4964300476  1.0792346705  1.1204246523
C  -0.7173898564 -0.0566967678 -0.3898816931
C   0.5910719244  0.6774740194 -0.5128585406
C   1.6455703695  0.1847164589  0.1753796877
O   2.5812277082 -0.0438774558  0.1479770797
C   1.6490388692  0.0095637024  0.9014304026
O   4.7311834556  2.2162258438 -0.5097982489
H  -1.9340655107 -0.7707626105  0.6745079473
H  -0.7701200303 -0.9133542972 -0.4245206095
H  -1.2835799247  0.1079738590 -0.9804162874
H   0.5285376107  1.6039138101 -0.1693719134
H   0.8987866817  0.7368286621 -1.4289416981
H   1.9063804556 -0.4124628339  1.1408023620
H   4.1658224201  1.2926624404 -1.0131926607
H   2.3572194604  0.0308328308  1.4851345094
H   4.9535272802  3.0778930666 -0.8244644086
17
Image 521  Energy = -420.5846922296
C  -1.2553329186  0.0489661272  0.6087030500
O  -1.4953759653  1.0779194142  1.1225747212
C  -0.7175397707 -0.0561697421 -0.3906033270
C   0.5911643903  0.6778793034 -0.5137216651
C   1.6457980094  0.1857277240  0.1756545547
O   2.5817620853 -0.0409445080  0.1484187712
C   1.6462684800  0.0086444412  0.9029467527
O   4.7316426951  2.2163872439 -0.5108560347
H  -1.9321405013 -0.7722453598  0.6758151188
H  -0.7700855304 -0.9130667867 -0.4269931271
H  -1.2844109413  0.1100455208 -0.9805416289
H   0.5284070720  1.6048386283 -0.1713997005
H   0.8993431467  0.7361219882 -1.4299385357
H   1.9042875107 -0.4155964908  1.1412680902
H   4.1680615172  1.2926660863 -1.0134592837
H   2.3543306286  0.0309431194  1.4881121970
H   4.9538200924  3.0778832903 -0.8259799524
17
Image 522  Energy = -420.5853983017
C  -1.2538854537  0.0480982800  0.6096145870
O  -1.4943214803  1.0766036740  1.1247250720
C  -0.7176898797 -0.0556424731 -0.3913248138
C   0.5912560910  0.6782843177 -0.5145847629
C   1.6460294851  0.1867405465  0.1759315737
O   2.5822947835 -0.0380144228  0.1488585449
C   1.6434921259  0.0077272173  0.9044586255
O   4.7321021416  2.2165498822 -0.5119147350
H  -1.9302160621 -0.7737284487  0.6771224284
H  -0.7700512777 -0.9127789053 -0.4294649020
H  -1.2852414012  0.1121163421 -0.9806670913
H   0.5282764348  1.6057634025 -0.1734275183
H   0.8998993920  0.7354153819 -1.4309352057
H   1.9021928912 -0.4187323036  1.1417337264
H   4.1703006197  1.2926680170 -1.0137254877
H   2.3514486256  0.0310553998  1.4910947782
H   4.9541129645  3.0778740922 -0.8274948185
17
Image 523  Energy = -420.5859368737
C  -1.2524384160  0.0472310433  0.6105242347
O  -1.4932665090  1.0752873303  1.1268758520
C  -0.7178401688 -0.0551148753 -0.3920462993
C   0.5913467548  0.6786891800 -0.5154480653
C   1.6462635466  0.1877548729  0.1762116811
O   2.5828269494 -0.0350874532  0.1492967006
C   1.6407106392  0.0068117866  0.9059663497
O   4.7325618130  2.2167137647 -0.5129743949
H  -1.9282920473 -0.7752120038  0.6784299818
H  -0.7700172854 -0.9124906919 -0.4319361622
H  -1.2860713884  0.1141865014 -0.9807927305
H   0.5281456978  1.6066882014 -0.1754555403
H   0.9004554821  0.7347087806 -1.4319317554
H   1.9000972455 -0.4218690446  1.1421988323
H   4.1725398841  1.2926682165 -1.0139913034
H   2.3485718795  0.0311689185  1.4940817503
H   4.9544059231  3.0778654724 -0.8290091305
17
Image 524  Energy = -420.5864012515
C  -1.2509916777  0.0463644983  0.6114314531
O  -1.4922104744  1.0739698412  1.1290275209
C  -0.7179910807 -0.0545867729 -0.3927680628
C   0.5914358730  0.6790938042 -0.5163113671
C   1.6465004072  0.1887712727  0.1764962037
O   2.5833583431 -0.0321647390  0.1497338636
C   1.6379245739  0.0058988702  0.9074697548
O   4.7330218921  2.2168795273 -0.5140355634
H  -1.9263683596 -0.7766964695  0.6797381108
H  -0.7699836341 -0.9122019104 -0.4344071651
H  -1.2869007962  0.1162560980 -0.9809186860
H   0.5280148376  1.6076130843 -0.1774841918
H   0.9010114978  0.7340020132 -1.4329281460
H   1.8980013574 -0.4250051843  1.1426631629
H   4.1747797374  1.2926658189 -1.0142566585
H   2.3456984374  0.0312825227  1.4970726576
H   4.9546990660  3.0778577247 -0.8305228859
17
Image 525  Energy = -420.5869210757
C  -1.2495451819  0.0454984800  0.6123373790
O  -1.4911537156  1.0726514529  1.1311799958
C  -0.7181421794 -0.0540581101 -0.3934902604
C   0.5915232059  0.6794985739 -0.5171753427
C   1.6467369712  0.1897889306  0.1767863102
O   2.5838925161 -0.0292456620  0.1501698819
C   1.6351358945  0.0049872015  0.9089707458
O   4.7334822338  2.2170465237 -0.5150977958
H  -1.9244447242 -0.7781817441  0.6810467753
H  -0.7699502517 -0.9119128646 -0.4368782715
H  -1.2877299685  0.1183255094 -0.9810449846
H   0.5278838824  1.6085381360 -0.1795135277
H   0.9015675563  0.7332950603 -1.4339244698
H   1.8959060405 -0.4281389277  1.1431262180
H   4.1770201746  1.2926616623 -1.0145217211
H   2.3428251774  0.0313952072  1.5000654928
H   4.9549923685  3.0778505704 -0.8320364245
17
Image 526  Energy = -420.5876056530
C  -1.2480988298  0.0446329441  0.6132422822
O  -1.4900961228  1.0713320421  1.1333334332
C  -0.7182934816 -0.0535287962 -0.3942130895
C   0.5916084527  0.6799035962 -0.5180401199
C   1.6469721289  0.1908076444  0.1770833675
O   2.5844309986 -0.0263303857  0.1506048598
C   1.6323456879  0.0040765356  0.9104699956
O   4.7339428546  2.2172147469 -0.5161611356
H  -1.9225209908 -0.7796679752  0.6823561038
H  -0.7699171330 -0.9116235687 -0.4393497460
H  -1.2885589966  0.1203949376 -0.9811716979
H   0.5277528349  1.6094634022 -0.1815437475
H   0.9021237544  0.7325878316 -1.4349207392
H   1.8938116873 -0.4312688396  1.1435876854
H   4.1792613795  1.2926557367 -1.0147865350
H   2.3399499126  0.0315061265  1.5030589755
H   4.9552858634  3.0778440213 -0.8335498919
17
Image 527  Energy = -420.5885374796
C  -1.2466525406  0.0437678525  0.6141463585
O  -1.4890376181  1.0700115288  1.1354879346
C  -0.7184450067 -0.0529987821 -0.3949366884
C   0.5916914605  0.6803089069 -0.5189057059
C   1.6472052196  0.1918272074  0.1773885005
O   2.5849748061 -0.0234189511  0.1510388285
C   1.6295547003  0.0031666410  0.9119677689
O   4.7344037652  2.2173841882 -0.5172256110
H  -1.9205970644 -0.7811552594  0.6836661849
H  -0.7698842689 -0.9113340211 -0.4418217679
H  -1.2893879310  0.1224645190 -0.9812988725
H   0.5276216944  1.6103889062 -0.1835749747
H   0.9026801663  0.7318802605 -1.4359169668
H   1.8917182884 -0.4343939233  1.1440473289
H   4.1815034792  1.2926480429 -1.0150511332
H   2.3370712776  0.0316147965  1.5060522035
H   4.9555795723  3.0778380870 -0.8350633873
17
Image 528  Energy = -420.5897784570
C  -1.2452063425  0.0429029600  0.6150513292
O  -1.4879790585  1.0686906443  1.1376430295
C  -0.7185958856 -0.0524681704 -0.3956609917
C   0.5917725163  0.6807149120 -0.5197728757
C   1.6474327584  0.1928462263  0.1777020186
O   2.5855277916 -0.0205096723  0.1514711060
C   1.6267646693  0.0022554055  0.9134658485
O   4.7348646626  2.2175536030 -0.5182902775
H  -1.9186727313 -0.7826431178  0.6849767010
H  -0.7698515076 -0.9110447509 -0.4442945152
H  -1.2902172213  0.1245345839 -0.9814264322
H   0.5274904998  1.6113147000 -0.1856068952
H   0.9032368644  0.7311724652 -1.4369133225
H   1.8896256419 -0.4375134710  1.1445047621
H   4.1837461252  1.2926402384 -1.0153157534
H   2.3341878265  0.0317212193  1.5090435650
H   4.9558733909  3.0778322243 -0.8365772959
17
Image 529  Energy = -420.5913432894
C  -1.2437602044  0.0420382256  0.6159572492
O  -1.4869204485  1.0673694081  1.1397987142
C  -0.7187461337 -0.0519369880 -0.3963860127
C   0.5918517903  0.6811214981 -0.5206414263
C   1.6476548411  0.1938646304  0.1780240553
O   2.5860897679 -0.0176023576  0.1519016541
C   1.6239758062  0.0013425956  0.9149638835
O   4.7353255413  2.2177229636 -0.5193551231
H  -1.9167479909 -0.7841315404  0.6862876557
H  -0.7698188396 -0.9107557384 -0.4467680066
H  -1.2910468533  0.1266051513 -0.9815543746
H   0.5273592448  1.6122407848 -0.1876394873
H   0.9037938722  0.7304644325 -1.4379098343
H   1.8875332881 -0.4406273234  1.1449600383
H   4.1859893351  1.2926323662 -1.0155804123
H   2.3312996657  0.0318254633  1.5120330606
H   4.9561673178  3.0778264281 -0.8380916330
17
Image 530  Energy = -420.5932220521
C  -1.2423141186  0.0411736052  0.6168640810
O  -1.4858618071  1.0660478669  1.1419549595
C  -0.7188957854 -0.0514052852 -0.3971117178
C   0.5919295657  0.6815284855 -0.5215110670
C   1.6478718224  0.1948824906  0.1783542784
O   2.5866600888 -0.0146967986  0.1523304181
C   1.6211880849  0.0004280783  0.9164612988
O   4.7357863952  2.2178922620 -0.5204201415
H  -1.9148228800 -0.7856204890  0.6875990281
H  -0.7697862607 -0.9104669488 -0.4492421990
H  -1.2918767815  0.1286761913 -0.9816826833
H   0.5272279219  1.6131671578 -0.1896726838
H   0.9043511909  0.7297561694 -1.4389065356
H   1.8854407325 -0.4437356874  1.1454134048
H   4.1882330950  1.2926244493 -1.0158451155
H   2.3284073911  0.0319277535  1.5150210501
H   4.9564613450  3.0778206987 -0.8396063748
17
Image 531  Energy = -420.5953861491
C  -1.2408680945  0.0403090467  0.6177717409
O  -1.4848031750  1.0647260988  1.1441117137
C  -0.7190448832 -0.0508731270 -0.3978380400
C   0.5920061887  0.6819356639 -0.5223814730
C   1.6480840776  0.1958999899  0.1786920514
O   2.5872380086 -0.0117927962  0.1527572834
C   1.6184013128 -0.0004881812  0.9179574328
O   4.7362472136  2.2180614886 -0.5214853173
H  -1.9128974591 -0.7871099012  0.6889107774
H  -0.7697537699 -0.9101783459 -0.4517170077
H  -1.2927069439  0.1307476442 -0.9818113317
H   0.5270965265  1.6140938136 -0.1917063836
H   0.9049088076  0.7290476991 -1.4399034597
H   1.8833475453 -0.4468390311  1.1458652851
H   4.1904773626  1.2926165151 -1.0161098628
H   2.3255118239  0.0320283879  1.5180080663
H   4.9567554585  3.0778150344 -0.8411214745
17
Image 532  Energy = -420.5977991315
C  -1.2394221489  0.0394444944  0.6186801224
O  -1.4837446037  1.0634042018  1.1462689134
C  -0.7191934793 -0.0503405840 -0.3985648992
C   0.5920820028  0.6823428260 -0.5232523262
C   1.6482918269  0.1969173979  0.1790366122
O   2.5878229854 -0.0088902033  0.1531820471
C   1.6156152034 -0.0014061103  0.9194516649
O   4.7367079825  2.2182306330 -0.5225506278
H  -1.9109718024 -0.7885997045  0.6902228536
H  -0.7697213686 -0.9098898966 -0.4541923273
H  -1.2935372700  0.1328194347 -0.9819402879
H   0.5269650610  1.6150207408 -0.1937404707
H   0.9054667035  0.7283390533 -1.4409006298
H   1.8812534215 -0.4499379599  1.1463162439
H   4.1927220781  1.2926085908 -1.0163746503
H   2.3226137667  0.0321276535  1.5209946357
H   4.9570496413  3.0778094321 -0.8426368732
17
Image 533  Energy = -420.6004207239
C  -1.2379763010  0.0385798938  0.6195891154
O  -1.4826861467  1.0620822854  1.1484264892
C  -0.7193416329 -0.0498077272 -0.3992922182
C   0.5921572945  0.6827497959 -0.5241233519
C   1.6484950116  0.1979350293  0.1793872301
O   2.5884149010 -0.0059889516  0.1536044085
C   1.6128294205 -0.0023255149  0.9209435064
O   4.7371686860  2.2183996854 -0.5236160435
H  -1.9090459922 -0.7900898260  0.6915352040
H  -0.7696890606 -0.9096015755 -0.4566680449
H  -1.2943676867  0.1348914821 -0.9820695193
H   0.5268335389  1.6159479172 -0.1957748248
H   0.9060248597  0.7276302669 -1.4418980512
H   1.8791582054 -0.4530331302  1.1467669236
H   4.1949671697  1.2926006991 -1.0166394711
H   2.3197138571  0.0322257813  1.5239811549
H   4.9573438759  3.0778038888 -0.8441525064
17
Image 534  Energy = -420.6032079303
C  -1.2365305705  0.0377151963  0.6204986154
O  -1.4816278518  1.0607604638  1.1505843697
C  -0.7194894047 -0.0492746285 -0.4000199299
C   0.5922322685  0.6831564444 -0.5249943395
C   1.6486932970  0.1989531953  0.1797432780
O   2.5890140728 -0.0030890521  0.1540240100
C   1.6100435971 -0.0032460772  0.9224326427
O   4.7376293087  2.2185686389 -0.5246815303
H  -1.9071201151 -0.7915801968  0.6928477763
H  -0.7696568502 -0.9093133674 -0.4591440468
H  -1.2951981224  0.1369637065 -0.9821989927
H   0.5267019856  1.6168753088 -0.1978093262
H   0.9065832581  0.7269213762 -1.4428957133
H   1.8770618794 -0.4561252124  1.1472179532
H   4.1972125565  1.2925928562 -1.0169043159
H   2.3168125463  0.0323229471  1.5269678579
H   4.9576381449  3.0777984007 -0.8456683078
17
Image 535  Energy = -420.6061198095
C  -1.2350849759  0.0368503605  0.6214085291
O  -1.4805697556  1.0594388486  1.1527424865
C  -0.7196368489 -0.0487413597 -0.4007479798
C   0.5923070480  0.6835626913 -0.5258651514
C   1.6488861716  0.1999721567  0.1801042502
O   2.5896211071 -0.0001905746  0.1544405205
C   1.6072573428 -0.0041673837  0.9239189519
O   4.7380898379  2.2187374918 -0.5257470529
H  -1.9051942549 -0.7930707543  0.6941605202
H  -0.7696247402 -0.9090252669 -0.4616202238
H  -1.2960285120  0.1390360353 -0.9823286759
H   0.5265704352  1.6178028747 -0.1998438620
H   0.9071418814  0.7262124161 -1.4438935960
H   1.8749645448 -0.4592148553  1.1476698469
H   4.1994581542  1.2925850701 -1.0171691728
H   2.3139101320  0.0324192861  1.5299548236
H   4.9579324326  3.0777929630 -0.8471842134
17
Image 536  Energy = -420.6091213890
C  -1.2336395323  0.0359853501  0.6223187786
O  -1.4795118762  1.0581175386  1.1549007824
C  -0.7197840057 -0.0482079903 -0.4014763281
C   0.5923816908  0.6839685017 -0.5267357203
C   1.6490730861  0.2009920887  0.1804697400
O   2.5902366923  0.0027063847  0.1548537267
C   1.6044702708 -0.0050889657  0.9254025403
O   4.7385502658  2.2189062493 -0.5268125795
H  -1.9032684826 -0.7945614459  0.6954733905
H  -0.7695927295 -0.9087372782 -0.4640964782
H  -1.2968588047  0.1411084129 -0.9824585396
H   0.5264389251  1.6187305756 -0.2018783339
H   0.9077007129  0.7255034180 -1.4448916796
H   1.8728664122 -0.4623026396  1.1481229364
H   4.2017038836  1.2925773400 -1.0174340295
H   2.3110067653  0.0325148898  1.5329419628
H   4.9582267262  3.0777875700 -0.8487001682
17
Image 537  Energy = -420.6121807783
C  -1.2321942507  0.0351201323  0.6232293050
O  -1.4784542094  1.0567966114  1.1570592179
C  -0.7199308968 -0.0476745803 -0.4022049525
C   0.5924562100  0.6843738772 -0.5276060395
C   1.6492535557  0.2020130736  0.1808393901
O   2.5908614453  0.0056017349  0.1552635995
C   1.6016820329 -0.0060103238  0.9268837904
O   4.7390105909  2.2190749244 -0.5278780834
H  -1.9013428481 -0.7960522320  0.6967863499
H  -0.7695608120 -0.9084494137 -0.4665727293
H  -1.2976889706  0.1431808070 -0.9825885601
H   0.5263074917  1.6196583796 -0.2039126658
H   0.9082597378  0.7247944053 -1.4458899482
H   1.8707678046 -0.4653890578  1.1485773727
H   4.2039496782  1.2925696550 -1.0176988760
H   2.3081024237  0.0326097921  1.5359289608
H   4.9585210169  3.0777822145 -0.8502161308
17
Image 538  Energy = -420.6152771487
C  -1.2307491405  0.0342546776  0.6241400725
O  -1.4773967284  1.0554761158  1.1592177722
C  -0.7200775231 -0.0471411728 -0.4029338488
C   0.5925305962  0.6847788444 -0.5284761463
C   1.6494272096  0.2030351243  0.1812128211
O   2.5914958251  0.0084954134  0.1556703120
C   1.5988923645 -0.0069309597  0.9283633842
O   4.7394708176  2.2192435356 -0.5289435436
H  -1.8994173764 -0.7975430858  0.6980993706
H  -0.7695289765 -0.9081616935 -0.4690489160
H  -1.2985190043  0.1452532108 -0.9827187233
H   0.5261761652  1.6205862659 -0.2059468079
H   0.9088189429  0.7240853934 -1.4468883921
H   1.8686691509 -0.4684745068  1.1490331870
H   4.2061954900  1.2925619956 -1.0179637070
H   2.3051968866  0.0327039524  1.5389152423
H   4.9588153009  3.0777768893 -0.8517320764
17
Image 539  Energy = -420.6184002883
C  -1.2293042144  0.0333889635  0.6250510655
O  -1.4763393892  1.0541560714  1.1613764350
C  -0.7202238653 -0.0466077892 -0.4036630238
C   0.5926048367  0.6851834423 -0.5293461002
C   1.6495938064  0.2040582261  0.1815895783
O   2.5921400945  0.0113873927  0.1560742080
C   1.5961010814 -0.0078504028  0.9298422138
O   4.7399309525  2.2194121034 -0.5300089428
H  -1.8974920721 -0.7990339891  0.6994124312
H  -0.7694972085 -0.9078741439 -0.4715249912
H  -1.2993489208  0.1473256338 -0.9828490253
H   0.5260449656  1.6215142233 -0.2079807309
H   0.9093783146  0.7233763913 -1.4478870082
H   1.8665709386 -0.4715593324  1.1494903647
H   4.2084412866  1.2925543382 -1.0182285223
H   2.3022898154  0.0327972841  1.5419000415
H   4.9591095779  3.0777715871 -0.8532479925
17
Image 540  Energy = -420.6215417289
C  -1.2278594927  0.0325229817  0.6259622719
O  -1.4752821416  1.0528364725  1.1635351923
C  -0.7203698885 -0.0460744302 -0.4043924748
C   0.5926789394  0.6855877076 -0.5302159555
C   1.6497532728  0.2050823796  0.1819690870
O   2.5927942222  0.0142776768  0.1564757838
C   1.5933080374 -0.0087682106  0.9313211759
O   4.7403910034  2.2195806487 -0.5310742661
H  -1.8955669313 -0.8005249234  0.7007255103
H  -0.7694654929 -0.9075867946 -0.4740009089
H  -1.3001787449  0.1493980854 -0.9829794683
H   0.5259139003  1.6224422450 -0.2100144125
H   0.9099378369  0.7226674066 -1.4488858023
H   1.8644736282 -0.4746439563  1.1499488706
H   4.2106870411  1.2925466586 -1.0184933223
H   2.2993809612  0.0328897518  1.5448825898
H   4.9594038490  3.0777663003 -0.8547638703
17
Image 541  Energy = -420.6246949804
C  -1.2264150002  0.0316567369  0.6268736729
O  -1.4742249353  1.0515172873  1.1656940250
C  -0.7205155484 -0.0455410731 -0.4051221733
C   0.5927529639  0.6859916578 -0.5310857337
C   1.6499058117  0.2061076677  0.1823504725
O   2.5934575897  0.0171663036  0.1568757788
C   1.5905131980 -0.0096840397  0.9328010512
O   4.7408509770  2.2197491905 -0.5321395044
H  -1.8936419420 -0.8020158692  0.7020385880
H  -0.7694338173 -0.9072996754 -0.4764766284
H  -1.3010085043  0.1514705699 -0.9831100570
H   0.5257829550  1.6233703359 -0.2120478371
H   0.9104974913  0.7219584444 -1.4498848012
H   1.8623775843 -0.4777289362  1.1504086233
H   4.2129327343  1.2925389371 -1.0187581058
H   2.2964703280  0.0329814423  1.5478623341
H   4.9596981145  3.0777610199 -0.8562797044
17
Image 542  Energy = -420.6278585269
C  -1.2249707538  0.0307902329  0.6277852631
O  -1.4731677138  1.0501984431  1.1678529347
C  -0.7206607996 -0.0450076560 -0.4058520746
C   0.5928270483  0.6863952802 -0.5319554088
C   1.6500520600  0.2071343469  0.1827322356
O   2.5941285442  0.0200533640  0.1572753654
C   1.5877169428 -0.0105978693  0.9342826150
O   4.7413108786  2.2199177370 -0.5332046698
H  -1.8917170609 -0.8035068258  0.7033516637
H  -0.7694021760 -0.9070128143 -0.4789521556
H  -1.3018382407  0.1535431093 -0.9832408043
H   0.5256520774  1.6242985441 -0.2140810301
H   0.9110572618  0.7212494983 -1.4508840781
H   1.8602830759 -0.4808147821  1.1508694705
H   4.2151783930  1.2925311701 -1.0190228738
H   2.2935580874  0.0330724869  1.5508390602
H   4.9599923755  3.0777557343 -0.8577955126
17
Image 543  Energy = -420.6310515434
C  -1.2235267496  0.0299234536  0.6286970867
O  -1.4721104076  1.0488798174  1.1700119780
C  -0.7208056049 -0.0444740633 -0.4065821475
C   0.5929014022  0.6867985337 -0.5328249087
C   1.6501931069  0.2081628782  0.1831121515
O   2.5948042783  0.0229390001  0.1576761829
C   1.5849203353 -0.0115101925  0.9357667835
O   4.7417707093  2.2200862759 -0.5342698073
H  -1.8897921875 -0.8049978341  0.7046647773
H  -0.7693705701 -0.9067262361 -0.4814275900
H  -1.3026680271  0.1556157746 -0.9833717431
H   0.5255211693  1.6252269857 -0.2161140981
H   0.9116171420  0.7205405389 -1.4518837645
H   1.8581903252 -0.4839016329  1.1513311972
H   4.2174241321  1.2925233809 -1.0192876379
H   2.2906443087  0.0331628890  1.5538128996
H   4.9602866376  3.0777504308 -0.8593113592
17
Image 544  Energy = -420.6343257592
C  -1.2220829608  0.0290563561  0.6296092523
O  -1.4710529398  1.0475612578  1.1721712721
C  -0.7209499454 -0.0439401379 -0.4073124034
C   0.5929762502  0.6872013688 -0.5336941329
C   1.6503302500  0.2091937939  0.1834877999
O   2.5954814352  0.0258233571  0.1580800218
C   1.5821249534 -0.0124219054  0.9372544661
O   4.7422304652  2.2202547736 -0.5353349907
H  -1.8878671687 -0.8064889797  0.7059780102
H  -0.7693390052 -0.9064399590 -0.4839031251
H  -1.3034979714  0.1576886866 -0.9835029331
H   0.5253901054  1.6261558246 -0.2181472277
H   0.9121771395  0.7198315138 -1.4528840233
H   1.8560995490 -0.4869890951  1.1517935466
H   4.2196701514  1.2925156177 -1.0195524244
H   2.2877287808  0.0332524287  1.5567842453
H   4.9605809113  3.0777450982 -0.8608273531
17
Image 545  Energy = -420.6377520018
C  -1.2206393495  0.0281888835  0.6305219047
O  -1.4699952444  1.0462426276  1.1743309618
C  -0.7210938245 -0.0434057226 -0.4080428978
C   0.5930517580  0.6876037537 -0.5345629759
C   1.6504645859  0.2102274390  0.1838575462
O   2.5961572267  0.0287065139  0.1584882712
C   1.5793322432 -0.0133339014  0.9387461309
O   4.7426901387  2.2204231882 -0.5364003014
H  -1.8859418415 -0.8079803669  0.7072914589
H  -0.7693074832 -0.9061539903 -0.4863789889
H  -1.3043281956  0.1597619795 -0.9836344511
H   0.5252587735  1.6270852104 -0.2201806321
H   0.9127372717  0.7191223615 -1.4538849911
H   1.8540109486 -0.4900763888  1.1522562249
H   4.2219166730  1.2925079370 -1.0198172667
H   2.2848111098  0.0333407448  1.5597536225
H   4.9608752097  3.0777397307 -0.8623436154
17
Image 546  Energy = -420.6413971800
C  -1.2191958820  0.0273209882  0.6314351750
O  -1.4689372835  1.0449238417  1.1764911711
C  -0.7212372656 -0.0428707059 -0.4087737062
C   0.5931279881  0.6880056896 -0.5354313515
C   1.6505967080  0.2112637667  0.1842212889
O   2.5968303123  0.0315884519  0.1589015169
C   1.5765428596 -0.0142466672  0.9402414429
O   4.7431497213  2.2205914843 -0.5374658036
H  -1.8840160800 -0.8094720827  0.7086052017
H  -0.7692759952 -0.9058683219 -0.4888553683
H  -1.3051588058  0.1618357561 -0.9837663721
H   0.5251271073  1.6280152226 -0.2222144865
H   0.9132975581  0.7184130302 -1.4548867295
H   1.8519246645 -0.4931626817  1.1527189026
H   4.2241638667  1.2925003821 -1.0200821917
H   2.2818909819  0.0334275172  1.5627215516
H   4.9611695444  3.0777343284 -0.8638602409
17
Image 547  Energy = -420.6453080882
C  -1.2177525375  0.0264526467  0.6323491496
O  -1.4678790505  1.0436048747  1.1786519743
C  -0.7213803042 -0.0423350439 -0.4095048987
C   0.5932049048  0.6884072084 -0.5362992046
C   1.6507266693  0.2123023283  0.1845804681
O   2.5975009352  0.0344690852  0.1593195192
C   1.5737564731 -0.0151601546  0.9417392858
O   4.7436092058  2.2207596408 -0.5385315337
H  -1.8820898170 -0.8109641775  0.7099192799
H  -0.7692445180 -0.9055829291 -0.4913323688
H  -1.3059898749  0.1639100672 -0.9838987532
H   0.5249950948  1.6289458562 -0.2242488961
H   0.9138580119  0.7177034889 -1.4558892129
H   1.8498407408 -0.4962473524  1.1531812503
H   4.2264118140  1.2924929724 -1.0203472114
H   2.2789683290  0.0335125911  1.5656884326
H   4.9614639237  3.0777288973 -0.8653772798
17
Image 548  Energy = -420.6495076863
C  -1.2163093084  0.0255838619  0.6332638722
O  -1.4668205614  1.0422857418  1.1808133955
C  -0.7215229813 -0.0417987519 -0.4102365296
C   0.5932823985  0.6888083635 -0.5371665171
C   1.6508541660  0.2133424291  0.1849374505
O   2.5981704327  0.0373483246  0.1597414680
C   1.5709721045 -0.0160739322  0.9432381413
O   4.7440685859  2.2209276481 -0.5395975013
H  -1.8801630359 -0.8124566653  0.7112336987
H  -0.7692130163 -0.9052977752 -0.4938100191
H  -1.3068214442  0.1659849188 -0.9840316320
H   0.5248627645  1.6298770425 -0.2262839032
H   0.9144186371  0.7169937274 -1.4568923485
H   1.8477591204 -0.4993300531  1.1536430174
H   4.2286605178  1.2924857068 -1.0206123241
H   2.2760432684  0.0335959658  1.5686544752
H   4.9617583521  3.0777234471 -0.8668947433
17
Image 549  Energy = -420.6539970060
C  -1.2148661987  0.0247146596  0.6341793641
O  -1.4657618453  1.0409664810  1.1829754167
C  -0.7216653353 -0.0412618846 -0.4109686409
C   0.5933603047  0.6892092227 -0.5380333072
C   1.6509787367  0.2143833296  0.1852947785
O   2.5988406554  0.0402261281  0.1601662453
C   1.5681886260 -0.0169874239  0.9447365539
O   4.7445278532  2.2210954991 -0.5406636941
H  -1.8782357577 -0.8139495324  0.7125484355
H  -0.7691814479 -0.9050128178 -0.4962882909
H  -1.3076535325  0.1680602854 -0.9841650315
H   0.5247301678  1.6308086784 -0.2283195038
H   0.9149794284  0.7162837509 -1.4578960017
H   1.8456796653 -0.5024106453  1.1541041343
H   4.2309099287  1.2924785732 -1.0208775197
H   2.2731159200  0.0336777060  1.5716196760
H   4.9620528312  3.0777179900 -0.8684126140
17
Image 550  Energy = -420.6587590059
C  -1.2134232254  0.0238450851  0.6350956390
O  -1.4647029407  1.0396471462  1.1851379813
C  -0.7218073925 -0.0407245228 -0.4117012653
C   0.5934384113  0.6896098647 -0.5388996266
C   1.6510998778  0.2154243996  0.1856546177
O   2.5995136083  0.0431025149  0.1605925572
C   1.5654051037 -0.0179000764  0.9462334712
O   4.7449869947  2.2212631834 -0.5417300772
H  -1.8763080363 -0.8154427401  0.7138634427
H  -0.7691497692 -0.9047280155 -0.4987671069
H  -1.3084861399  0.1701361128 -0.9842989652
H   0.5245973670  1.6317406428 -0.2303556537
H   0.9155403714  0.7155735781 -1.4589000150
H   1.8436021854 -0.5054891315  1.1545647892
H   4.2331599580  1.2924715570 -1.0211427845
H   2.2701862679  0.0337578619  1.5745838471
H   4.9623473586  3.0777125394 -0.8699308505
17
Image 551  Energy = -420.6637606344
C  -1.2119804228  0.0229752018  0.6360127062
O  -1.4636438952  1.0383278109  1.1873009917
C  -0.7219491563 -0.0401867671 -0.4124344222
C   0.5935164683  0.6900103741 -0.5397655524
C   1.6512170918  0.2164651990  0.1860184786
O   2.6001912930  0.0459775522  0.1610189831
C   1.5626208868 -0.0188114300  0.9477283857
O   4.7454459907  2.2214306867 -0.5427965922
H  -1.8743799635 -0.8169362231  0.7151786466
H  -0.7691179394 -0.9044433316 -0.5012463392
H  -1.3093192472  0.1722123136 -0.9844334388
H   0.5244644286  1.6326728050 -0.2323922633
H   0.9161014435  0.7148632417 -1.4599042207
H   1.8415264633 -0.5085656372  1.1550254340
H   4.2354104764  1.2924646442 -1.0214081013
H   2.2672541552  0.0338364503  1.5775466888
H   4.9626419269  3.0777071092 -0.8714493841
17
Image 552  Energy = -420.6689478493
C  -1.2105378412  0.0221050878  0.6369305625
O  -1.4625847639  1.0370085683  1.1894643109
C  -0.7220905994 -0.0396487351 -0.4131681075
C   0.5935942124  0.6904108312 -0.5406311709
C   1.6513299383  0.2175054954  0.1863871477
O   2.6008755892  0.0488513270  0.1614440579
C   1.5598355167 -0.0197211454  0.9492213118
O   4.7459048175  2.2215979927 -0.5438631586
H  -1.8724516689 -0.8184298912  0.7164939492
H  -0.7690859242 -0.9041587352 -0.5037258104
H  -1.3101528128  0.1742887657 -0.9845684494
H   0.5243314168  1.6336050321 -0.2344291960
H   0.9166626146  0.7141527874 -1.4609084536
H   1.8394522699 -0.5116404043  1.1554866867
H   4.2376613144  1.2924578213 -1.0216734487
H   2.2643193980  0.0339134889  1.5805078880
H   4.9629365229  3.0777017131 -0.8729681191
17
Image 553  Energy = -420.6742497026
C  -1.2090955369  0.0212348247  0.6378491863
O  -1.4615256016  1.0356895224  1.1916277810
C  -0.7222316661 -0.0391105546 -0.4139022875
C   0.5936714037  0.6908112996 -0.5414965574
C   1.6514381233  0.2185452299  0.1867607772
O   2.6015680692  0.0517239209  0.1618664531
C   1.5570485882 -0.0206290306  0.9507126578
O   4.7463634515  2.2217650888 -0.5449296857
H  -1.8705233060 -0.8199236405  0.7178092396
H  -0.7690536978 -0.9038741983 -0.5062053135
H  -1.3109867770  0.1763653268 -0.9847039851
H   0.5241983868  1.6345372014 -0.2364662840
H   0.9172238531  0.7134422684 -1.4619125681
H   1.8373793673 -0.5147137470  1.1559491365
H   4.2399122777  1.2924510732 -1.0219387999
H   2.2613819350  0.0339890520  1.5834671942
H   4.9632311298  3.0776963626 -0.8744869438
17
Image 554  Energy = -420.6795918949
C  -1.2076535531  0.0203644824  0.6387685358
O  -1.4604664519  1.0343707699  1.1937912524
C  -0.7223722826 -0.0385723527 -0.4146368989
C   0.5937478628  0.6912118143 -0.5423617582
C   1.6515415978  0.2195844486  0.1871390797
O   2.6022697998  0.0545953933  0.1622852042
C   1.5542596353 -0.0215350840  0.9522030591
O   4.7468218766  2.2219319697 -0.5459960904
H  -1.8685950240 -0.8214173731  0.7191244139
H  -0.7690212452 -0.9035896927 -0.5086846474
H  -1.3118210731  0.1784418619 -0.9848400269
H   0.5240653795  1.6354692163 -0.2385033585
H   0.9177851342  0.7127317348 -1.4629164556
H   1.8353074966 -0.5177859504  1.1564131202
H   4.2421631771  1.2924443820 -1.0222041248
H   2.2584419397  0.0340633131  1.5864244467
H   4.9635257306  3.0776910664 -0.8760057505
17
Image 555  Energy = -420.6849067834
C  -1.2062119015  0.0194941039  0.6396885518
O  -1.4594073385  1.0330523837  1.1959546139
C  -0.7225123753 -0.0380342445 -0.4153718575
C   0.5938234941  0.6916123777 -0.5432267797
C   1.6516406100  0.2206232320  0.1875215497
O   2.6029812223  0.0574657823  0.1626998580
C   1.5514681108 -0.0224395334  0.9536932300
O   4.7472800890  2.2220986403 -0.5470623141
H  -1.8666669403 -0.8229110158  0.7204393944
H  -0.7689885632 -0.9033051888 -0.5111636530
H  -1.3126556390  0.1805182706 -0.9849765498
H   0.5239324201  1.6364010163 -0.2405402798
H   0.9183464481  0.7120212231 -1.4639200564
H   1.8332363553 -0.5208571517  1.1568785759
H   4.2444138601  1.2924377265 -1.0224693930
H   2.2554998364  0.0341365482  1.5893795655
H   4.9638203116  3.0776858293 -0.8775244553
17
Image 556  Energy = -420.6901473375
C  -1.2047705552  0.0186236966  0.6406091631
O  -1.4583482669  1.0317344099  1.1981178050
C  -0.7226518873 -0.0374963235 -0.4161070724
C   0.5938982868  0.6920129607 -0.5440915869
C   1.6517356851  0.2216616515  0.1879076121
O   2.6037021766  0.0603351209  0.1631104375
C   1.5486734780 -0.0233428342  0.9551838784
O   4.7477380968  2.2222651138 -0.5481283308
H  -1.8647391267 -0.8244045275  0.7217541373
H  -0.7689556626 -0.9030206579 -0.5136422303
H  -1.3134904243  0.1825944977 -0.9851135229
H   0.5237995203  1.6373325786 -0.2425769526
H   0.9189078017  0.7113107523 -1.4649233600
H   1.8311655756 -0.5239272731  1.1573450605
H   4.2466642269  1.2924310845 -1.0227345760
H   2.2525562112  0.0342090971  1.5923325451
H   4.9641148641  3.0776806524 -0.8790430065
17
Image 557  Energy = -420.6952907482
C  -1.2033294590  0.0177532370  0.6415302889
O  -1.4572892352  1.0304168784  1.2002808046
C  -0.7227907880 -0.0369586558 -0.4168424581
C   0.5939722883  0.6924135141 -0.5449561138
C   1.6518275320  0.2226997700  0.1882966556
O   2.6044320738  0.0632034620  0.1635172125
C   1.5458753732 -0.0242456160  0.9566756977
O   4.7481959148  2.2224314068 -0.5491941408
H  -1.8628116182 -0.8258978903  0.7230686243
H  -0.7689225683 -0.9027360792 -0.5161203281
H  -1.3143253898  0.1846705193 -0.9852509079
H   0.5236666858  1.6382639056 -0.2446133191
H   0.9194692130  0.7106003290 -1.4659263913
H   1.8290947249 -0.5269960469  1.1578119394
H   4.2489142217  1.2924244367 -1.0229996488
H   2.2496116485  0.0342812949  1.5952834620
H   4.9644093827  3.0776755341 -0.8805613767
17
Image 558  Energy = -420.7003218512
C  -1.2018885539  0.0168826867  0.6424518390
O  -1.4562302482  1.0290998250  1.2024435998
C  -0.7229290718 -0.0364212790 -0.4175779393
C   0.5940455513  0.6928139947 -0.5458202985
C   1.6519168908  0.2237376674  0.1886880152
O   2.6051701942  0.0660708955  0.1639203629
C   1.5430737206 -0.0251485870  0.9581694103
O   4.7486535573  2.2225975347 -0.5502597544
H  -1.8608844385 -0.8273910909  0.7243828428
H  -0.7688893170 -0.9024514464 -0.5185979109
H  -1.3151605008  0.1867463115 -0.9853886619
H   0.5235339274  1.6391950003 -0.2466493311
H   0.9200307050  0.7098899578 -1.4669291806
H   1.8270233467 -0.5300631162  1.1582786570
H   4.2511638050  1.2924177700 -1.0232645884
H   2.2466665697  0.0343534038  1.5982324810
H   4.9647038623  3.0776704721 -0.8820795424
17
Image 559  Energy = -420.7052234209
C  -1.2004478091  0.0160120164  0.6433737131
O  -1.4551713252  1.0277833101  1.2046061485
C  -0.7230667504 -0.0358842076 -0.4183134509
C   0.5941180817  0.6932143949 -0.5466841262
C   1.6520043634  0.2247754405  0.1890810338
O   2.6059160516  0.0689375492  0.1643196559
C   1.5402686596 -0.0260523973  0.9596657734
O   4.7491110326  2.2227635096 -0.5513251725
H  -1.8589576299 -0.8288840994  0.7256967615
H  -0.7688559509 -0.9021667712 -0.5210749163
H  -1.3159957198  0.1888218148 -0.9855267426
H   0.5234012766  1.6401258333 -0.2486849165
H   0.9205922997  0.7091796517 -1.4679317220
H   1.8249510399 -0.5331281738  1.1587449557
H   4.2534129158  1.2924110776 -1.0235293715
H   2.2437211692  0.0344255841  1.6011798374
H   4.9649982953  3.0776654667 -0.8835974604
17
Image 560  Energy = -420.7099622744
C  -1.1990072408  0.0151412260  0.6442958119
O  -1.4541124963  1.0264674139  1.2067683694
C  -0.7232038463 -0.0353474395 -0.4190489395
C   0.5941898346  0.6936147494 -0.5475476462
C   1.6520904081  0.2258131545  0.1894752089
O   2.6066694364  0.0718035896  0.1647144237
C   1.5374603932 -0.0269574807  0.9611654208
O   4.7495683427  2.2229293387 -0.5523903821
H  -1.8570312593 -0.8303768649  0.7270103247
H  -0.7688225065 -0.9018820798 -0.5235512446
H  -1.3168310117  0.1908969304 -0.9856651200
H   0.5232687910  1.6410563279 -0.2507199735
H   0.9211540121  0.7084694361 -1.4689339507
H   1.8228775370 -0.5361911080  1.1592109163
H   4.2556614615  1.2924043599 -1.0237939731
H   2.2407754728  0.0344979235  1.6041258181
H   4.9652926718  3.0776605229 -0.8851150636
17
Image 561  Energy = -420.7144951443
C  -1.1975669029  0.0142703442  0.6452180637
O  -1.4530537837  1.0251521972  1.2089301791
C  -0.7233403942 -0.0348109531 -0.4197843755
C   0.5942607626  0.6940151107 -0.5484109488
C   1.6521755387  0.2268507659  0.1898703398
O   2.6074299984  0.0746692229  0.1651039517
C   1.5346491467 -0.0278639395  0.9626685824
O   4.7500254888  2.2230950217 -0.5534553743
H  -1.8551053840 -0.8318693391  0.7283234752
H  -0.7687890107 -0.9015974072 -0.5260268060
H  -1.3176663641  0.1929715629 -0.9858037856
H   0.5231365386  1.6419863828 -0.2527544158
H   0.9217158436  0.7077593424 -1.4699357669
H   1.8208027429 -0.5392520788  1.1596768018
H   4.2579093588  1.2923976276 -1.0240583701
H   2.2378294360  0.0345704886  1.6070707392
H   4.9655869845  3.0776556505 -0.8866322892
17
Image 562  Energy = -420.7187933600
C  -1.1961268516  0.0133994072  0.6461404552
O  -1.4519951814  1.0238376575  1.2110915533
C  -0.7234764356 -0.0342747002 -0.4205197681
C   0.5943308558  0.6944155244 -0.5492741414
C   1.6522605056  0.2278880859  0.1902665716
O   2.6081967491  0.0775346752  0.1654880308
C   1.5318352594 -0.0287715369  0.9641749193
O   4.7504824800  2.2232605514 -0.5545201723
H  -1.8531800006 -0.8333615132  0.7296361936
H  -0.7687554823 -0.9013127894 -0.5285015950
H  -1.3185018071  0.1950456837 -0.9859427541
H   0.5230045736  1.6429159193 -0.2547882353
H   0.9222777825  0.7070493926 -1.4709370891
H   1.8187267329 -0.5423114704  1.1601428254
H   4.2601565992  1.2923909045 -1.0243225494
H   2.2348829854  0.0346433466  1.6100148783
H   4.9658812352  3.0776508615 -0.8881491222
17
Image 563  Energy = -420.7228674661
C  -1.1946871133  0.0125284325  0.6470630404
O  -1.4509366457  1.0225237139  1.2132525630
C  -0.7236119994 -0.0337386088 -0.4212551665
C   0.5944001373  0.6948160262 -0.5501373526
C   1.6523462450  0.2289248276  0.1906642984
O   2.6089679674  0.0804001442  0.1658672598
C   1.5290192454 -0.0296798008  0.9656836311
O   4.7509393387  2.2234259187 -0.5555848426
H  -1.8512550200 -0.8348534388  0.7309485204
H  -0.7687219397 -0.9010282542 -0.5309757265
H  -1.3193374124  0.1971193638 -0.9860820540
H   0.5228729213  1.6438449168 -0.2568215282
H   0.9228398162  0.7063395842 -1.4719378922
H   1.8166497324 -0.5453697613  1.1606090094
H   4.2624032831  1.2923842227 -1.0245865145
H   2.2319360068  0.0347165473  1.6129583732
H   4.9661754372  3.0776461658 -0.8896656180
17
Image 564  Energy = -420.7267719366
C  -1.1932476716  0.0116574077  0.6479859208
O  -1.4498781038  1.0212102293  1.2154133630
C  -0.7237470838 -0.0332025989 -0.4219906435
C   0.5944686284  0.6952166533 -0.5510007467
C   1.6524336547  0.2299607095  0.1910639668
O   2.6097415256  0.0832657542  0.1662429415
C   1.5262017582 -0.0305881853  0.9671937459
O   4.7513960993  2.2235911209 -0.5566494834
H  -1.8493302837 -0.8363452181  0.7322605476
H  -0.7686884050 -0.9007438153 -0.5334494133
H  -1.3201732704  0.1991927577 -0.9862217137
H   0.5227415810  1.6447734160 -0.2588544684
H   0.9234019450  0.7056298841 -1.4729382060
H   1.8145720700 -0.5484273940  1.1610751928
H   4.2646496030  1.2923776147 -1.0248502873
H   2.2289883407  0.0347900957  1.6159011750
H   4.9664696125  3.0776415681 -0.8911818906
17
Image 565  Energy = -420.7305892477
C  -1.1918084780  0.0107862955  0.6489092117
O  -1.4488194723  1.0198970481  1.2175741482
C  -0.7238816516 -0.0326665989 -0.4227262749
C   0.5945363219  0.6956174488 -0.5518645186
C   1.6525234038  0.2309955568  0.1914658712
O   2.6105153103  0.0861315434  0.1666167324
C   1.5233835114 -0.0314962117  0.9687043855
O   4.7518528006  2.2237561645 -0.5577142000
H  -1.8474056053 -0.8378369749  0.7335723917
H  -0.7686549044 -0.9004594686 -0.5359229078
H  -1.3210094626  0.2012660563 -0.9863617505
H   0.5226105362  1.6457015003 -0.2608872549
H   0.9239641885  0.7049202357 -1.4739380929
H   1.8124941073 -0.5514847199  1.1615411389
H   4.2668957932  1.2923711079 -1.0251139033
H   2.2260398151  0.0348639498  1.6188431039
H   4.9667637859  3.0776370665 -0.8926980801
17
Image 566  Energy = -420.7324346742
C  -1.1903694515  0.0099148916  0.6498330881
O  -1.4477607254  1.0185841805  1.2197352006
C  -0.7240155792 -0.0321305560 -0.4234622310
C   0.5946030597  0.6960185424 -0.5527290961
C   1.6526161713  0.2320293259  0.1918699306
O   2.6112866374  0.0889975441  0.1669907414
C   1.5205659513 -0.0324032837  0.9702152989
O   4.7523094825  2.2239211180 -0.5587792010
H  -1.8454807769 -0.8393288649  0.7348841650
H  -0.7686214723 -0.9001751476 -0.5383965379
H  -1.3218460592  0.2033394730 -0.9865021558
H   0.5224797885  1.6466292756 -0.2629200870
H   0.9245266192  0.7042105508 -1.4749376512
H   1.8104163230 -0.5545424333  1.1620067041
H   4.2691421797  1.2923648383 -1.0253773640
H   2.2230899352  0.0349380541  1.6217835035
H   4.9670579167  3.0776324910 -0.8942143075
17
Image 567  Energy = -420.7363572004
C  -1.1889305639  0.0090433155  0.6507575369
O  -1.4467017607  1.0172713607  1.2218965781
C  -0.7241488736 -0.0315944420 -0.4241984473
C   0.5946689139  0.6964198717 -0.5535944076
C   1.6527118348  0.2330621081  0.1922761281
O   2.6120550246  0.0918636300  0.1673658708
C   1.5177489116 -0.0333093760  0.9717256235
O   4.7527661687  2.2240859439 -0.5598444338
H  -1.8435557003 -0.8408209326  0.7361959581
H  -0.7685881214 -0.8998908655 -0.5408703892
H  -1.3226830630  0.2054131098 -0.9866429289
H   0.5223492726  1.6475568473 -0.2649530850
H   0.9250892240  0.7035007998 -1.4759369352
H   1.8083388314 -0.5576004039  1.1624717510
H   4.2713888397  1.2923587024 -1.0256407491
H   2.2201389786  0.0350123393  1.6247226192
H   4.9673520830  3.0776279911 -0.8957306889
17
Image 568  Energy = -420.7404193885
C  -1.1874917739  0.0081715432  0.6516825803
O  -1.4456425520  1.0159585113  1.2240583866
C  -0.7242814906 -0.0310582495 -0.4249349443
C   0.5947338461  0.6968214453 -0.5544605625
C   1.6528103942  0.2340940275  0.1926842601
O   2.6128195722  0.0947297345  0.1677431239
C   1.5149328528 -0.0342142540  0.9732350379
O   4.7532228771  2.2242506581 -0.5609099384
H  -1.8416302913 -0.8423132325  0.7375078351
H  -0.7685548668 -0.8996065849 -0.5433445785
H  -1.3235204640  0.2074870526 -0.9867840466
H   0.5222189494  1.6484843123 -0.2669863418
H   0.9256520216  0.7027909489 -1.4769360240
H   1.8062618134 -0.5606589510  1.1629363055
H   4.2736358978  1.2923527103 -1.0259040901
H   2.2171869215  0.0350867773  1.6276602911
H   4.9676462923  3.0776235505 -0.8972472939
17
Image 569  Energy = -420.7446532449
C  -1.1860530514  0.0072995696  0.6526081976
O  -1.4445831024  1.0146455953  1.2262206784
C  -0.7244134033 -0.0305219904 -0.4256717159
C   0.5947978499  0.6972232476 -0.5553276008
C   1.6529117381  0.2351251880  0.1930941830
O   2.6135798879  0.0975958095  0.1681230266
C   1.5121180089 -0.0351176866  0.9747433023
O   4.7536796151  2.2244152737 -0.5619757268
H  -1.8397045215 -0.8438057831  0.7388198276
H  -0.7685217180 -0.8993222758 -0.5458191508
H  -1.3243582304  0.2095613309 -0.9869254797
H   0.5220887819  1.6494117458 -0.2690198970
H   0.9262150140  0.7020809896 -1.4779349893
H   1.8041853624 -0.5637184130  1.1634004759
H   4.2758834110  1.2923468669 -1.0261674076
H   2.2142338131  0.0351613789  1.6305964285
H   4.9679405447  3.0776191528 -0.8987641515
17
Image 570  Energy = -420.7490656499
C  -1.1846143722  0.0064274070  0.6535343306
O  -1.4435234403  1.0133326139  1.2283834571
C  -0.7245445993 -0.0299856902 -0.4264087298
C   0.5948609637  0.6976252361 -0.5561954871
C   1.6530157104  0.2361556523  0.1935058204
O   2.6143359945  0.1004618386  0.1685056378
C   1.5093043817 -0.0360194757  0.9762502355
O   4.7541363816  2.2245798005 -0.5630417863
H  -1.8377784143 -0.8452985704  0.7401319371
H  -0.7684886814 -0.8990379218 -0.5482940872
H  -1.3251963182  0.2116359250 -0.9870671989
H   0.5219587378  1.6503391965 -0.2710537419
H   0.9267781869  0.7013709362 -1.4789338905
H   1.8021094814 -0.5667790909  1.1638644121
H   4.2781313743  1.2923411726 -1.0264307114
H   2.2112797794  0.0352361863  1.6335310558
H   4.9682348339  3.0776147837 -0.9002812527
17
Image 571  Energy = -420.7536436316
C  -1.1831757120  0.0055550791  0.6544608952
O  -1.4424636122  1.0120195976  1.2305466905
C  -0.7246750775 -0.0294493811 -0.4271459345
C   0.5949232757  0.6980273419 -0.5570641131
C   1.6531221689  0.2371854526  0.1939190966
O   2.6150881687  0.1033278383  0.1688906508
C   1.5064918006 -0.0369195026  0.9777557192
O   4.7545931701  2.2247442451 -0.5641080872
H  -1.8358520305 -0.8467915571  0.7414441416
H  -0.7684557620 -0.8987535211 -0.5507693238
H  -1.3260346801  0.2137107816 -0.9872091776
H   0.5218287905  1.6512666897 -0.2730878340
H   0.9273415140  0.7006608181 -1.4799327700
H   1.8000340949 -0.5698411875  1.1643282722
H   4.2803797370  1.2923356247 -1.0266940032
H   2.2083250045  0.0353112485  1.6364643388
H   4.9685291495  3.0776104317 -0.9017985609
17
Image 572  Energy = -420.7583590213
C  -1.1817370438  0.0046826142  0.6553877929
O  -1.4414036746  1.0107065946  1.2327103268
C  -0.7248048477 -0.0289130985 -0.4278832688
C   0.5949849179  0.6984294762 -0.5579333102
C   1.6532310225  0.2382146124  0.1943338590
O   2.6158367911  0.1061938527  0.1692775271
C   1.5036800026 -0.0378177588  0.9792597217
O   4.7550499717  2.2249086120 -0.5651745914
H  -1.8339254523 -0.8482846932  0.7427564059
H  -0.7684229631 -0.8984690821 -0.5532447726
H  -1.3268732708  0.2157858308 -0.9873513929
H   0.5216989179  1.6521942321 -0.2751221148
H   0.9279049609  0.6999506723 -1.4809316508
H   1.7979590728 -0.5729047652  1.1647922042
H   4.2826284235  1.2923302192 -1.0269572801
H   2.2053696929  0.0353865920  1.6393965690
H   4.9688234787  3.0776060890 -0.9033160245
17
Image 573  Energy = -420.7631756461
C  -1.1802983404  0.0038100409  0.6563149197
O  -1.4403436886  1.0093936631  1.2348743046
C  -0.7249339303 -0.0283768793 -0.4286206707
C   0.5950460513  0.6988315417 -0.5588028685
C   1.6533422264  0.2392431684  0.1947498175
O   2.6165822820  0.1090599440  0.1696656015
C   1.5008686938 -0.0387143528  0.9807623443
O   4.7555067766  2.2250729032 -0.5662412570
H  -1.8319987721 -0.8497779231  0.7440686877
H  -0.7683902860 -0.8981846170 -0.5557203359
H  -1.3277120481  0.2178609960 -0.9874938238
H   0.5215691027  1.6531218119 -0.2771565228
H   0.9284684891  0.6992405379 -1.4819305317
H   1.7958842590 -0.5759697364  1.1652563415
H   4.2848773474  1.2923249527 -1.0272205377
H   2.2024140291  0.0354621975  1.6423281167
H   4.9691178080  3.0776017509 -0.9048335848
17
Image 574  Energy = -420.7680565294
C  -1.1788595853  0.0029373886  0.6572421730
O  -1.4392837170  1.0080808660  1.2370385563
C  -0.7250623559 -0.0278407605 -0.4293580829
C   0.5951068477  0.6992334469 -0.5596725629
C   1.6534557515  0.2402711938  0.1951665114
O   2.6173251040  0.1119261803  0.1700541531
C   1.4980575833 -0.0396094948  0.9822638704
O   4.7559635738  2.2252371184 -0.5673080406
H  -1.8300720881 -0.8512711878  0.7453809403
H  -0.7683577290 -0.8979001416 -0.5581959137
H  -1.3285509718  0.2199361982 -0.9876364499
H   0.5214393341  1.6540493986 -0.2791909972
H   0.9290320582  0.6985304530 -1.4829293829
H   1.7938094994 -0.5790358909  1.1657208119
H   4.2871264190  1.2923198224 -1.0274837717
H   2.1994581518  0.0355379934  1.6452593665
H   4.9694121243  3.0775974156 -0.9063511808
17
Image 575  Energy = -420.7729619783
C  -1.1774207841  0.0020646903  0.6581694610
O  -1.4382238180  1.0067682623  1.2392030089
C  -0.7251901641 -0.0273047744 -0.4300954564
C   0.5951674718  0.6996351231 -0.5605421862
C   1.6535715560  0.2412988208  0.1955833169
O   2.6180657509  0.1147926204  0.1704424899
C   1.4952463970 -0.0405034506  0.9837647663
O   4.7564203504  2.2254012563 -0.5683748971
H  -1.8281454976 -0.8527644277  0.7466931171
H  -0.7683252881 -0.8976156801 -0.5606714104
H  -1.3293900050  0.2220113592 -0.9877792506
H   0.5213096083  1.6549769448 -0.2812254791
H   0.9295956284  0.6978204522 -1.4839281502
H   1.7917346788 -0.5821029708  1.1661857544
H   4.2893755485  1.2923148258 -1.0277469786
H   2.1965021521  0.0356138660  1.6481906468
H   4.9697064144  3.0775930822 -0.9078687521
17
Image 576  Energy = -420.7778555025
C  -1.1759819723  0.0011919868  0.6590967131
O  -1.4371640385  1.0054558951  1.2413675851
C  -0.7253174016 -0.0267689385 -0.4308327495
C   0.5952280732  0.7000365377 -0.5614115832
C   1.6536895694  0.2423262563  0.1959994966
O   2.6188046972  0.1176592968  0.1708300515
C   1.4924348859 -0.0413964851  0.9852656178
O   4.7568770912  2.2255653168 -0.5694417805
H  -1.8262190878 -0.8542575871  0.7480051757
H  -0.7682929575 -0.8973312758 -0.5631467447
H  -1.3302291167  0.2240864074 -0.9879222069
H   0.5211799267  1.6559043984 -0.2832599113
H   0.9301591649  0.6971105614 -1.4849267693
H   1.7896597565 -0.5851707607  1.1666513337
H   4.2916246520  1.2923099576 -1.0280101572
H   2.1935460916  0.0356896845  1.6511221736
H   4.9700006659  3.0775887483 -0.9093862441
17
Image 577  Energy = -420.7827012469
C  -1.1745432165  0.0003193332  0.6600238796
O  -1.4361044142  1.0041437890  1.2435321978
C  -0.7254441197 -0.0262332576 -0.4315699190
C   0.5952887919  0.7004376901 -0.5622806489
C   1.6538096753  0.2433537898  0.1964142208
O   2.6195424247  0.1205262091  0.1712164071
C   1.4896227945 -0.0422888521  0.9867671076
O   4.7573337755  2.2257292991 -0.5705086410
H  -1.8242929358 -0.8557506102  0.7493170763
H  -0.7682607302 -0.8970469930 -0.5656218452
H  -1.3310682799  0.2261612747 -0.9880652997
H   0.5210502930  1.6568317090 -0.2852942268
H   0.9307226385  0.6964007951 -1.4859251758
H   1.7875847573 -0.5882391220  1.1671177337
H   4.2938736457  1.2923052094 -1.0282733069
H   2.1905900332  0.0357653269  1.6540540463
H   4.9702948666  3.0775844094 -0.9109036052
17
Image 578  Energy = -420.7874618514
C  -1.1731046139 -0.0005531947  0.6609509106
O  -1.4350449861  1.0028319685  1.2456967306
C  -0.7255703688 -0.0256977420 -0.4323069089
C   0.5953497710  0.7008385861 -0.5631492802
C   1.6539317040  0.2443817788  0.1968265215
O   2.6202796033  0.1233933438  0.1716010552
C   1.4868097688 -0.0431808620  0.9882701173
O   4.7577903726  2.2258931966 -0.5715754147
H  -1.8223671299 -0.8572434243  0.7506287640
H  -0.7682286004 -0.8967629055 -0.5680966186
H  -1.3319074561  0.2282358722 -0.9882085057
H   0.5209207152  1.6577588166 -0.2873283258
H   0.9312860197  0.6956911635 -1.4869232925
H   1.7855097032 -0.5913079286  1.1675851330
H   4.2961224226  1.2923005710 -1.0285364237
H   2.1876340719  0.0358406970  1.6569863085
H   4.9705890030  3.0775800628 -0.9124207704
17
Image 579  Energy = -420.7920865836
C  -1.1716662799 -0.0014255103  0.6618777415
O  -1.4339858052  1.0015204734  1.2478610413
C  -0.7256961938 -0.0251624149 -0.4330436548
C   0.5954111504  0.7012392211 -0.5640173536
C   1.6540554800  0.2454105794  0.1972354152
O   2.6210171286  0.1262607073  0.1719833204
C   1.4839952887 -0.0440728893  0.9897756825
O   4.7582468425  2.2260569953 -0.5726420258
H  -1.8204417759 -0.8587359363  0.7519401644
H  -0.7681965646 -0.8964790798 -0.5705709381
H  -1.3327465857  0.2303100817 -0.9883517916
H   0.5207912053  1.6586856459 -0.2893620758
H   0.9318492780  0.6949816805 -1.4879210258
H   1.7834345805 -0.5943770216  1.1680536917
H   4.2983708460  1.2922960320 -1.0287994960
H   2.1846783444  0.0359157263  1.6599189608
H   4.9708830607  3.0775757090 -0.9139376557
17
Image 580  Energy = -420.7965201372
C  -1.1702283141 -0.0022975515  0.6628043195
O  -1.4329269024  1.0002093365  1.2500250201
C  -0.7258216352 -0.0246272810 -0.4337801164
C   0.5954730422  0.7016395976 -0.5648847975
C   1.6541808822  0.2464404207  0.1976403801
O   2.6217557535  0.1291283315  0.1723626680
C   1.4811787840 -0.0449652052  0.9912845363
O   4.7587031526  2.2262206871 -0.5737084187
H  -1.8185169453 -0.8602280770  0.7532512211
H  -0.7681646201 -0.8961955691 -0.5730447054
H  -1.3335856075  0.2323838047 -0.9884951175
H   0.5206617710  1.6596121482 -0.2913953704
H   0.9324123995  0.6942723555 -1.4889183171
H   1.7813594227 -0.5974462872  1.1685235620
H   4.3006188071  1.2922915788 -1.0290625093
H   2.1817229796  0.0359903634  1.6628518422
H   4.9711770303  3.0775713469 -0.9154541963
17
Image 581  Energy = -420.8007394469
C  -1.1687907650 -0.0031693106  0.6637306402
O  -1.4318682552  0.9988985480  1.2521886526
C  -0.7259467380 -0.0240922927 -0.4345163030
C   0.5955355249  0.7020397441 -0.5657516610
C   1.6543078276  0.2474713297  0.1980417202
O   2.6224957024  0.1319962498  0.1727390838
C   1.4783598765 -0.0458578403  0.9927967160
O   4.7591592947  2.2263842831 -0.5747745891
H  -1.8165926183 -0.8617198488  0.7545619405
H  -0.7681327604 -0.8959124184 -0.5755179277
H  -1.3344244915  0.2344570219 -0.9886384480
H   0.5205324041  1.6605383529 -0.2934281913
H   0.9329754048  0.6935631796 -1.4899152003
H   1.7792843795 -0.6005157146  1.1689948790
H   4.3028662922  1.2922871946 -1.0293254549
H   2.1787680087  0.0360645557  1.6657845340
H   4.9714709129  3.0775669658 -0.9169703906
17
Image 582  Energy = -420.8047677972
C  -1.1673536223 -0.0040408294  0.6646567520
O  -1.4308097915  0.9975880526  1.2543520224
C  -0.7260715543 -0.0235573545 -0.4352522677
C   0.5955986638  0.7024397018 -0.5666180851
C   1.6544362087  0.2485031735  0.1984403921
O   2.6232366750  0.1348644785  0.1731130727
C   1.4755385231 -0.0467506455  0.9943116652
O   4.7596152852  2.2265478102 -0.5758405825
H  -1.8146686876 -0.8632113263  0.7558723943
H  -0.7681009695 -0.8956296657 -0.5779907210
H  -1.3352632516  0.2365297986 -0.9887817632
H   0.5204030783  1.6614643705 -0.2954606106
H   0.9335383472  0.6928541240 -1.4909118013
H   1.7772096646 -0.6035853343  1.1694677261
H   4.3051133907  1.2922828635 -1.0295883339
H   2.1758133213  0.0361382361  1.6687164440
H   4.9717647190  3.0775625461 -0.9184863028
17
Image 583  Energy = -420.8086629715
C  -1.1659168325 -0.0049121748  0.6655827363
O  -1.4297514187  0.9962777691  1.2565152704
C  -0.7261961385 -0.0230223513 -0.4359880844
C   0.5956625191  0.7028395038 -0.5674842324
C   1.6545658817  0.2495357387  0.1988375876
O   2.6239780577  0.1377330200  0.1734854089
C   1.4727149911 -0.0476434168  0.9958285318
O   4.7600711542  2.2267112987 -0.5769064726
H  -1.8127450012 -0.8647026243  0.7571826908
H  -0.7680692201 -0.8953473389 -0.5804632615
H  -1.3361019371  0.2386022505 -0.9889250647
H   0.5202737570  1.6623903569 -0.2974927528
H   0.9341012953  0.6921451483 -1.4919082925
H   1.7751354626 -0.6066551460  1.1699421229
H   4.3073602551  1.2922785769 -1.0298511542
H   2.1728587103  0.0362113242  1.6716470019
H   4.9720584640  3.0775580650 -0.9200020349
17
Image 584  Energy = -420.8124993108
C  -1.1644803225 -0.0057834154  0.6665086856
O  -1.4286930520  0.9949676134  1.2586785498
C  -0.7263205335 -0.0224871752 -0.4367238268
C   0.5957271318  0.7032391714 -0.5683502442
C   1.6546967036  0.2505687772  0.1992344347
O   2.6247191333  0.1406018758  0.1738568799
C   1.4698897297 -0.0485359541  0.9973463617
O   4.7605269347  2.2268747719 -0.5779723394
H  -1.8108214046 -0.8661938632  0.7584929435
H  -0.7680374770 -0.8950654532 -0.5829357322
H  -1.3369406150  0.2406745070 -0.9890683726
H   0.5201444023  1.6633164704 -0.2995247528
H   0.9346643126  0.6914362100 -1.4929048465
H   1.7730618767 -0.6097251132  1.1704180523
H   4.3096070533  1.2922743350 -1.0301139263
H   2.1699039617  0.0362837378  1.6745758299
H   4.9723521647  3.0775535042 -0.9215176961
17
Image 585  Energy = -420.8163444579
C  -1.1630440245 -0.0066546071  0.6674346849
O  -1.4276346331  0.9936575183  1.2608419892
C  -0.7264447597 -0.0219517423 -0.4374595566
C   0.5957925004  0.7036387195 -0.5692162279
C   1.6548285485  0.2516020343  0.1996318430
O   2.6254592801  0.1434710534  0.1742280974
C   1.4670632114 -0.0494280783  0.9988642291
O   4.7609826549  2.2270382415 -0.5790382515
H  -1.8088977734 -0.8676851423  0.7598032458
H  -0.7680057055 -0.8947840105 -0.5854082812
H  -1.3377793508  0.2427466801 -0.9892117183
H   0.5200149830  1.6642428396 -0.3015567236
H   0.9352274443  0.6907272747 -1.4939016015
H   1.7709889264 -0.6127951915  1.1708954912
H   4.3118539291  1.2922701458 -1.0303766593
H   2.1669489320  0.0363554097  1.6775028176
H   4.9726458370  3.0775488546 -0.9230333778
17
Image 586  Energy = -420.8202499535
C  -1.1616078955 -0.0075257868  0.6683608040
O  -1.4265761376  0.9923474443  1.2630056710
C  -0.7265688090 -0.0214159991 -0.4381953210
C   0.5958585701  0.7040381635 -0.5700822606
C   1.6549612840  0.2526352743  0.2000304485
O   2.6261981247  0.1463405618  0.1745994079
C   1.4642358065 -0.0503196304  1.0003813449
O   4.7614383342  2.2272017079 -0.5801042560
H  -1.8069740303 -0.8691765257  0.7611136584
H  -0.7679738780 -0.8945030021 -0.5878810007
H  -1.3386181951  0.2448188462 -0.9893551370
H   0.5198854783  1.6651695463 -0.3035887365
H   0.9357907126  0.6900183209 -1.4948986450
H   1.7689165781 -0.6158653598  1.1713744244
H   4.3141009788  1.2922660213 -1.0306393587
H   2.1639935847  0.0364263000  1.6804280968
H   4.9729394933  3.0775441170 -0.9245491399
17
Image 587  Energy = -420.8242431407
C  -1.1601719242 -0.0083969728  0.6692870996
O  -1.4255175688  0.9910373798  1.2651696279
C  -0.7266926462 -0.0208799176 -0.4389311568
C   0.5959252429  0.7044375225 -0.5709483981
C   1.6550947393  0.2536682940  0.2004306451
O   2.6269355863  0.1492104032  0.1749709090
C   1.4614077252 -0.0512104565  1.0018971052
O   4.7618939834  2.2273651647 -0.5811703764
H  -1.8050501444 -0.8706680421  0.7624242095
H  -0.7679419768 -0.8942224144 -0.5903539270
H  -1.3394571802  0.2468910427 -0.9894986637
H   0.5197558786  1.6660966242 -0.3056208195
H   0.9363541224  0.6893093406 -1.4958960155
H   1.7668447871 -0.6189356441  1.1718548409
H   4.3163482479  1.2922619730 -1.0309020268
H   2.1610379857  0.0364964027  1.6833519562
H   4.9732331418  3.0775392997 -0.9260650093
17
Image 588  Energy = -420.8283320389
C  -1.1587361276 -0.0092681669  0.6702136231
O  -1.4244589467  0.9897273316  1.2673338532
C  -0.7268162174 -0.0203434850 -0.4396670969
C   0.5959924017  0.7048368174 -0.5718146798
C   1.6552286959  0.2547009193  0.2008326725
O   2.6276718250  0.1520805716  0.1753425223
C   1.4585790154 -0.0521003868  1.0034110730
O   4.7623496062  2.2275286018 -0.5822366171
H  -1.8031261190 -0.8721596932  0.7637349029
H  -0.7679099922 -0.8939422343 -0.5928270561
H  -1.3402963237  0.2489632777 -0.9896423323
H   0.5196261839  1.6670240685 -0.3076529676
H   0.9369176676  0.6886003358 -1.4968937133
H   1.7647735295 -0.6220061274  1.1723367238
H   4.3185957412  1.2922580092 -1.0311646634
H   2.1580822730  0.0365657448  1.6862747433
H   4.9735267871  3.0775344155 -0.9275809873
17
Image 589  Energy = -420.8325113339
C  -1.1573005411 -0.0101393589  0.6711404249
O  -1.4234002976  0.9884173158  1.2694983148
C  -0.7269394602 -0.0198066957 -0.4404031751
C   0.5960599359  0.7052360663 -0.5726811268
C   1.6553629071  0.2557329982  0.2012366936
O   2.6284071522  0.1549510565  0.1757140668
C   1.4557495949 -0.0529892330  1.0049229421
O   4.7628052009  2.2276920084 -0.5833029697
H  -1.8012019770 -0.8736514646  0.7650457273
H  -0.7678779187 -0.8936624531 -0.5953003591
H  -1.3411356339  0.2510355411 -0.9897861749
H   0.5194964014  1.6679518471 -0.3096851567
H   0.9374813370  0.6878913145 -1.4978917120
H   1.7627028103 -0.6250769364  1.1728200399
H   4.3208434374  1.2922541338 -1.0314272664
H   2.1551266207  0.0366343807  1.6891967912
H   4.9738204309  3.0775294790 -0.9290970594
17
Image 590  Energy = -420.8367672436
C  -1.1558652099 -0.0110105289  0.6720675538
O  -1.4223416472  0.9871073501  1.2716629681
C  -0.7270623128 -0.0192695469 -0.4411394262
C   0.5961277568  0.7056352794 -0.5735477388
C   1.6554971348  0.2567643987  0.2016428353
O   2.6291419412  0.1578218483  0.1760853173
C   1.4529193023 -0.0538768074  1.0064325098
O   4.7632607611  2.2278553728 -0.5843694188
H  -1.7992777502 -0.8751433339  0.7663566637
H  -0.7678457513 -0.8933830671 -0.5977737949
H  -1.3419751139  0.2531078152 -0.9899302213
H   0.5193665420  1.6688799117 -0.3117173556
H   0.9380451161  0.6871822873 -1.4988899698
H   1.7606326517 -0.6281482174  1.1733047339
H   4.3230913013  1.2922503466 -1.0316898322
H   2.1521712054  0.0367023868  1.6921183788
H   4.9741140726  3.0775245046 -0.9306132026
17
Image 591  Energy = -420.8410827811
C  -1.1544301807 -0.0118816520  0.6729950536
O  -1.4212830186  0.9857974506  1.2738277645
C  -0.7271847214 -0.0187320397 -0.4418758839
C   0.5961958024  0.7060344548 -0.5744144923
C   1.6556311778  0.2577950251  0.2020511755
O   2.6298765685  0.1606929353  0.1764560482
C   1.4500879463 -0.0547629566  1.0079396801
O   4.7637162759  2.2280186813 -0.5854359456
H  -1.7973534725 -0.8766352756  0.7676676889
H  -0.7678134840 -0.8931040737 -0.6002473157
H  -1.3428147631  0.2551800796 -0.9900744973
H   0.5192366178  1.6698082091 -0.3137495309
H   0.9386089880  0.6864732647 -1.4998884392
H   1.7585630758 -0.6312201113  1.1737907262
H   4.3253392919  1.2922466456 -1.0319523558
H   2.1492161854  0.0367698572  1.6950397148
H   4.9744077103  3.0775195052 -0.9321293906
17
Image 592  Energy = -420.8454390892
C  -1.1529955017 -0.0127526982  0.6739229583
O  -1.4202244324  0.9844876322  1.2759926521
C  -0.7273066451 -0.0181941827 -0.4426125780
C   0.5962640344  0.7064335762 -0.5752813405
C   1.6557648701  0.2588248510  0.2024616788
O   2.6306114130  0.1635642934  0.1768260537
C   1.4472553304 -0.0556475945  1.0094445011
O   4.7641717285  2.2281819174 -0.5865025289
H  -1.7954291801 -0.8781272611  0.7689787753
H  -0.7677811102 -0.8928254683 -0.6027208663
H  -1.3436545761  0.2572523105 -0.9902190225
H   0.5191066392  1.6707366869 -0.3157816452
H   0.9391729324  0.6857642571 -1.5008870727
H   1.7564940966 -0.6342927420  1.1742779179
H   4.3275873642  1.2922430296 -1.0322148304
H   2.1462616966  0.0368369011  1.6979609410
H   4.9747013403  3.0775144911 -0.9336455932
17
Image 593  Energy = -420.8498148154
C  -1.1515612257 -0.0136236301  0.6748512872
O  -1.4191659110  0.9831779120  1.2781575699
C  -0.7274280606 -0.0176559995 -0.4433495304
C   0.5963324309  0.7068326118 -0.5761482119
C   1.6558980578  0.2598539612  0.2028741042
O   2.6313469033  0.1664358727  0.1771951420
C   1.4444212476 -0.0565307294  1.0109472276
O   4.7646270957  2.2283450600 -0.5875691420
H  -1.7935049173 -0.8796192539  0.7702898862
H  -0.7677486247 -0.8925472414 -0.6051943764
H  -1.3444945404  0.2593244735 -0.9903638096
H   0.5189766150  1.6716652946 -0.3178136508
H   0.9397369254  0.6850552763 -1.5018858232
H   1.7544257223 -0.6373662163  1.1747662042
H   4.3298354644  1.2922395001 -1.0324772469
H   2.1433078612  0.0369036381  1.7008821435
H   4.9749949561  3.0775094700 -0.9351617730
17
Image 594  Energy = -420.8541826188
C  -1.1501274161 -0.0144944013  0.6757800427
O  -1.4181074821  0.9818683139  1.2803224421
C  -0.7275489660 -0.0171175328 -0.4440867535
C   0.5964009794  0.7072315161 -0.5770150111
C   1.6560305769  0.2608825803  0.2032879391
O   2.6320835650  0.1693075892  0.1775631222
C   1.4415854666 -0.0574124751  1.0124483640
O   4.7650823476  2.2285080836 -0.5886357500
H  -1.7915807418 -0.8811112056  0.7716009722
H  -0.7677160247 -0.8922693784 -0.6076677550
H  -1.3453346347  0.2613965179 -0.9905088641
H   0.5188465538  1.6725939811 -0.3198454843
H   0.9403009390  0.6843463393 -1.5028846413
H   1.7523579659 -0.6404406309  1.1752554921
H   4.3320835245  1.2922360629 -1.0327395945
H   2.1403547983  0.0369701925  1.7038033615
H   4.9752885483  3.0775044471 -0.9366778814
17
Image 595  Energy = -420.8585057945
C  -1.1486941459 -0.0153649580  0.6767092125
O  -1.4170491796  0.9805588692  1.2824871791
C  -0.7276693793 -0.0165788441 -0.4448242513
C   0.5964696690  0.7076302362 -0.5778816277
C   1.6561622488  0.2619110657  0.2037024129
O   2.6328220141  0.1721793278  0.1779298102
C   1.4387477347 -0.0582930432  1.0139486371
O   4.7655374502  2.2286709605 -0.5897023100
H  -1.7896567248 -0.8826030566  0.7729119732
H  -0.7676833102 -0.8919918614 -0.6101408936
H  -1.3461748304  0.2634683782 -0.9906541862
H   0.5187164643  1.6735226942 -0.3218770687
H   0.9408649424  0.6836374690 -1.5038834757
H   1.7502908505 -0.6435160753  1.1757457171
H   4.3343314645  1.2922327277 -1.0330018620
H   2.1374026270  0.0370366843  1.7067245934
H   4.9755821048  3.0774994254 -0.9381938597
17
Image 596  Energy = -420.8627462156
C  -1.1472614887 -0.0162352497  0.6776387787
O  -1.4159910387  0.9792496127  1.2846516931
C  -0.7277893308 -0.0160400035 -0.4455620229
C   0.5965384879  0.7080287206 -0.5787479545
C   1.6562928999  0.2629398540  0.2041166292
O   2.6335628640  0.1750509575  0.1782950710
C   1.4359078131 -0.0591727120  1.0154488626
O   4.7659923709  2.2288336634 -0.5907687772
H  -1.7877329388 -0.8840947458  0.7742228283
H  -0.7676504841 -0.8917146714 -0.6126136837
H  -1.3470150993  0.2655399874 -0.9907997740
H   0.5185863549  1.6744513871 -0.3239083272
H   0.9414289068  0.6829286913 -1.5048822804
H   1.7482244063 -0.6465926218  1.1762368508
H   4.3365792054  1.2922295062 -1.0332640402
H   2.1344514585  0.0371032172  1.7096457964
H   4.9758756128  3.0774944065 -0.9397096492
17
Image 597  Energy = -420.8668683119
C  -1.1458294989 -0.0171052448  0.6785687315
O  -1.4149330851  0.9779405719  1.2868159215
C  -0.7279088502 -0.0155010738 -0.4463000688
C   0.5966074277  0.7084269294 -0.5796139110
C   1.6564223900  0.2639693634  0.2045297959
O   2.6343065703  0.1779223541  0.1786588884
C   1.4330655343 -0.0600517721  1.0169497260
O   4.7664470851  2.2289961708 -0.5918351165
H  -1.7858094365 -0.8855862279  0.7755334921
H  -0.7676175498 -0.8914377909 -0.6150860467
H  -1.3478554235  0.2676113005 -0.9909456268
H   0.5184562307  1.6753800313 -0.3259392058
H   0.9419928112  0.6822200260 -1.5058810274
H   1.7461586621 -0.6496703027  1.1767288964
H   4.3388266932  1.2922264100 -1.0335261254
H   2.1315013777  0.0371698641  1.7125668853
H   4.9761690618  3.0774893904 -0.9412252083
17
Image 598  Energy = -420.8708527528
C  -1.1443981919 -0.0179749451  0.6794990817
O  -1.4138753236  0.9766317549  1.2889798516
C  -0.7280279538 -0.0149620920 -0.4470383958
C   0.5966764907  0.7088248423 -0.5804794651
C   1.6565506371  0.2649998880  0.2049414664
O   2.6350532831  0.1807934241  0.1790214243
C   1.4302208573 -0.0609304669  1.0184515695
O   4.7669015825  2.2291584701 -0.5929013141
H  -1.7838862289 -0.8870774898  0.7768439508
H  -0.7675845100 -0.8911612050 -0.6175579630
H  -1.3486958059  0.2696823160 -0.9910917479
H   0.5183260894  1.6763086299 -0.3279696958
H   0.9425566471  0.6815114785 -1.5068797191
H   1.7440936332 -0.6527490842  1.1772218721
H   4.3410739215  1.2922234475 -1.0337881213
H   2.1285524247  0.0372366556  1.7154877350
H   4.9764624475  3.0774843758 -0.9427405288
17
Image 599  Energy = -420.8747048851
C  -1.1429675358 -0.0188443887  0.6804298655
O  -1.4128177317  0.9753231442  1.2911435284
C  -0.7281466384 -0.0144230601 -0.4477770192
C   0.5967456964  0.7092224604 -0.5813446382
C   1.6566776247  0.2660315318  0.2053516630
O   2.6358027950  0.1836641177  0.1793830238
C   1.4273738858 -0.0618089518  1.0199543070
O   4.7673558692  2.2293205593 -0.5939673831
H  -1.7819632748 -0.8885685578  0.7781542285
H  -0.7675513648 -0.8908849018 -0.6200294835
H  -1.3495362728  0.2717530843 -0.9912381458
H   0.5181959181  1.6772372211 -0.3299998449
H   0.9431204199  0.6808030357 -1.5078783925
H   1.7420293147 -0.6558288554  1.1777157882
H   4.3433209401  1.2922206224 -1.0340500390
H   2.1256045813  0.0373035775  1.7184081860
H   4.9767557730  3.0774793609 -0.9442556438
17
Image 600  Energy = -420.8784560101
C  -1.1415374583 -0.0197136388  0.6813611384
O  -1.4117602637  0.9740146978  1.2933070425
C  -0.7282648848 -0.0138839485 -0.4485159590
C   0.5968150777  0.7096198025 -0.5822094946
C   1.6568034028  0.2670642090  0.2057608298
O   2.6365546056  0.1865344297  0.1797441529
C   1.4245248505 -0.0626872866  1.0214575096
O   4.7678099653  2.2294824454 -0.5950333597
H  -1.7800404897 -0.8900594903  0.7794643796
H  -0.7675181111 -0.8906088735 -0.6225007165
H  -1.3503768698  0.2738236978 -0.9913848336
H   0.5180656952  1.6781658689 -0.3320297482
H   0.9436841443  0.6800946702 -1.5088771094
H   1.7399656793 -0.6589094419  1.1782106261
H   4.3455678425  1.2922179336 -1.0343118935
H   2.1226577665  0.0373705807  1.7213280558
H   4.9770490479  3.0774743438 -0.9457706195
17
Image 601  Energy = -420.8821528760
C  -1.1401078669 -0.0205827631  0.6822929646
O  -1.4107028606  0.9727063571  1.2954705055
C  -0.7283826693 -0.0133447092 -0.4492552346
C   0.5968846677  0.7100168983 -0.5830741219
C   1.6569280967  0.2680976877  0.2061696776
O   2.6373080359  0.1894043919  0.1801053020
C   1.4216740835 -0.0635654481  1.0229605843
O   4.7682638993  2.2296441411 -0.5960992938
H  -1.7781177646 -0.8915503619  0.7807744741
H  -0.7674847422 -0.8903331153 -0.6249718006
H  -1.3512176527  0.2758942698 -0.9915318288
H   0.5179353940  1.6790946456 -0.3340595286
H   0.9442478389  0.6793863490 -1.5098759423
H   1.7379026764 -0.6619906414  1.1787063249
H   4.3478147435  1.2922153767 -1.0345736995
H   2.1197118346  0.0374375990  1.7242471573
H   4.9773422857  3.0774693224 -0.9472855397
17
Image 602  Energy = -420.8858498755
C  -1.1386786698 -0.0214518162  0.6832254043
O  -1.4096454602  0.9713980552  1.2976340269
C  -0.7284999749 -0.0128052935 -0.4499948607
C   0.5969544863  0.7104137836 -0.5839386140
C   1.6570519150  0.2691316493  0.2065790121
O   2.6380623445  0.1922740641  0.1804668959
C   1.4188219928 -0.0644433516  1.0244629484
O   4.7687177028  2.2298056615 -0.5971652392
H  -1.7761949882 -0.8930412475  0.7820845813
H  -0.7674512478 -0.8900576246 -0.6274428753
H  -1.3520586782  0.2779649144 -0.9916791509
H   0.5178049888  1.6800236158 -0.3360893133
H   0.9448115206  0.6786780415 -1.5108749604
H   1.7358402328 -0.6650722621  1.1792027786
H   4.3500617552  1.2922129462 -1.0348354681
H   2.1167665802  0.0375045687  1.7271653238
H   4.9776355002  3.0774642949 -0.9488004887
17
Image 603  Energy = -420.8895963897
C  -1.1372497936 -0.0223208307  0.6841585069
O  -1.4085880062  0.9700897283  1.2997976942
C  -0.7286167991 -0.0122656668 -0.4507348470
C   0.5970245328  0.7108104966 -0.5848030585
C   1.6571751260  0.2701657580  0.2069895759
O   2.6388168404  0.1951435170  0.1808292350
C   1.4159690125 -0.0653208816  1.0259641526
O   4.7691714043  2.2299670195 -0.5982312446
H  -1.7742720646 -0.8945322085  0.7833947560
H  -0.7674176160 -0.8897823978 -0.6299140567
H  -1.3528999966  0.2800357291 -0.9918268193
H   0.5176744589  1.6809528236 -0.3381192127
H   0.9453752000  0.6779697253 -1.5118742191
H   1.7337782618 -0.6681541529  1.1796998465
H   4.3523089691  1.2922106377 -1.0350972045
H   2.1138217663  0.0375714432  1.7300824339
H   4.9779287038  3.0774592599 -0.9503155380
17
Image 604  Energy = -420.8934307116
C  -1.1358211969 -0.0231898182  0.6850923069
O  -1.4075304543  0.9687813287  1.3019615581
C  -0.7287331542 -0.0117258197 -0.4514752033
C   0.5970947964  0.7112070709 -0.5856675221
C   1.6572979877  0.2711997533  0.2074018770
O   2.6395710100  0.1980128058  0.1811924681
C   1.4131155048 -0.0661979291  1.0274639657
O   4.7696250229  2.2301282207 -0.5992973438
H  -1.7723489308 -0.8960232817  0.7847050257
H  -0.7673838343 -0.8895074262 -0.6323854135
H  -1.3537416432  0.2821067794 -0.9919748476
H   0.5175437924  1.6818822831 -0.3401493001
H   0.9459388776  0.6772613889 -1.5128737481
H   1.7317166919 -0.6712362271  1.1801973813
H   4.3545564406  1.2922084500 -1.0353589068
H   2.1108771845  0.0376382033  1.7329984372
H   4.9782219048  3.0774542177 -0.9518307343
17
Image 605  Energy = -420.8973717316
C  -1.1343928753 -0.0240587777  0.6860268225
O  -1.4064727772  0.9674728395  1.3041256226
C  -0.7288490610 -0.0111857738 -0.4522159428
C   0.5971652742  0.7116035254 -0.5865320311
C   1.6574206696  0.2722335443  0.2078160317
O   2.6403246051  0.2008819446  0.1815565957
C   1.4102616687 -0.0670744176  1.0289623989
O   4.7700785625  2.2302892601 -0.6003635470
H  -1.7704255699 -0.8975144728  0.7860153823
H  -0.7673498933 -0.8892326927 -0.6348569499
H  -1.3545836340  0.2841780882 -0.9921232387
H   0.5174129900  1.6828119731 -0.3421795952
H   0.9465025417  0.6765530325 -1.5138735421
H   1.7296554968 -0.6743184909  1.1806952736
H   4.3568041785  1.2922063851 -1.0356205674
H   2.1079327171  0.0377048617  1.7359133787
H   4.9785151067  3.0774491708 -0.9533460913
17
Image 606  Energy = -420.9014179383
C  -1.1329648441 -0.0249277092  0.6869620575
O  -1.4054149605  0.9661642695  1.3062898651
C  -0.7289645413 -0.0106455744 -0.4529570840
C   0.5972359737  0.7119998627 -0.5873965757
C   1.6575432679  0.2732671921  0.2082318456
O   2.6410775078  0.2037509213  0.1819215299
C   1.4074076419 -0.0679502826  1.0304595236
O   4.7705320160  2.2304501246 -0.6014298471
H  -1.7685019978 -0.8990057684  0.7873257938
H  -0.7673157897 -0.8889581720 -0.6373286241
H  -1.3554259713  0.2862496505 -0.9922719847
H   0.5172820647  1.6837418505 -0.3442100768
H   0.9470661777  0.6758446608 -1.5148735707
H   1.7275946603 -0.6774010493  1.1811934919
H   4.3590521614  1.2922044469 -1.0358821767
H   2.1049883236  0.0377714517  1.7388274342
H   4.9788083098  3.0774441249 -0.9548616010
17
Image 607  Energy = -420.9055647119
C  -1.1315370996 -0.0257966279  0.6878980132
O  -1.4043569857  0.9648556123  1.3084542954
C  -0.7290796068 -0.0101052609 -0.4536986457
C   0.5973068728  0.7123960983 -0.5882611780
C   1.6576659452  0.2743006964  0.2086493072
O   2.6418293267  0.2066197616  0.1822872271
C   1.4045538633 -0.0688254199  1.0319550519
O   4.7709853864  2.2306108062 -0.6024962526
H  -1.7665782093 -0.9004971717  0.7886362472
H  -0.7672815281 -0.8886838392 -0.6398004234
H  -1.3562686685  0.2883214863 -0.9924210745
H   0.5171510359  1.6846718890 -0.3462407429
H   0.9476297890  0.6751362677 -1.5158738155
H   1.7255340407 -0.6804840307  1.1816920709
H   4.3613003960  1.2922026408 -1.0361437314
H   2.1020439221  0.0378380034  1.7417409234
H   4.9791015197  3.0774390879 -0.9563772718
17
Image 608  Energy = -420.9098305706
C  -1.1301095998 -0.0266655629  0.6888346998
O  -1.4032988154  0.9635468088  1.3106189921
C  -0.7291942500 -0.0095648376 -0.4544406409
C   0.5973778797  0.7127922935 -0.5891259598
C   1.6577890261  0.2753338159  0.2090689784
O   2.6425791945  0.2094885663  0.1826537775
C   1.4017012565 -0.0696997140  1.0334481852
O   4.7714387013  2.2307713119 -0.6035628109
H  -1.7646541370 -0.9019887263  0.7899467827
H  -0.7672471167 -0.8884096813 -0.6422724215
H  -1.3571117673  0.2903936756 -0.9925705034
H   0.5170199183  1.6856021058 -0.3482716593
H   0.9481934074  0.6744278281 -1.5168742994
H   1.7234732850 -0.6835674596  1.1821910408
H   4.3635489589  1.2922009737 -1.0364052393
H   2.0990993073  0.0379045329  1.7446542338
H   4.9793947510  3.0774340691 -0.9578931552
17
Image 609  Energy = -420.9142561532
C  -1.1286822955 -0.0275345370  0.6897721314
O  -1.4022404081  0.9622377739  1.3127840502
C  -0.7293084501 -0.0090242802 -0.4551830718
C   0.5974488612  0.7131885421 -0.5899911003
C   1.6579128860  0.2763662126  0.2094916436
O   2.6433261758  0.2123574491  0.1830213235
C   1.3988508185 -0.0705731504  1.0349381049
O   4.7718919970  2.2309316573 -0.6046295823
H  -1.7627296931 -0.9034804882  0.7912574669
H  -0.7672125614 -0.8881357009 -0.6447447287
H  -1.3579553141  0.2924663141 -0.9927202733
H   0.5168887183  1.6865325393 -0.3503029199
H   0.9487570737  0.6737193109 -1.5178750627
H   1.7214119671 -0.6866512320  1.1826903766
H   4.3657979515  1.2921994518 -1.0366667134
H   2.0961542521  0.0379710615  1.7475676716
H   4.9796880211  3.0774290760 -0.9594093161
17
Image 610  Energy = -420.9188761781
C  -1.1272551667 -0.0284035511  0.6907103106
O  -1.4011817441  0.9609284540  1.3149495089
C  -0.7294221916 -0.0084835654 -0.4559259313
C   0.5975197085  0.7135849220 -0.5908567260
C   1.6580377649  0.2773977130  0.2099176987
O   2.6440697993  0.2152264605  0.1833899138
C   1.3960030805 -0.0714458303  1.0364244883
O   4.7723452937  2.2310918538 -0.6056965966
H  -1.7608048383 -0.9049724841  0.7925683421
H  -0.7671778631 -0.8878619078 -0.6472174012
H  -1.3587993254  0.2945394449 -0.9928703842
H   0.5167574397  1.6874632083 -0.3523345701
H   0.9493208122  0.6730106963 -1.5188761207
H   1.7193498123 -0.6897352315  1.1831900267
H   4.3680474230  1.2921980769 -1.0369281620
H   2.0932086556  0.0380376277  1.7504813878
H   4.9799813393  3.0774241126 -0.9609257842
17
Image 611  Energy = -420.9236959856
C  -1.1258282176 -0.0292725891  0.6916492201
O  -1.4001228307  0.9596188470  1.3171153425
C  -0.7295354756 -0.0079426865 -0.4566692080
C   0.5975903691  0.7139814655 -0.5917228599
C   1.6581637124  0.2784283494  0.2103470482
O   2.6448101155  0.2180955857  0.1837594640
C   1.3931580216 -0.0723178293  1.0379074426
O   4.7727985895  2.2312519064 -0.6067638437
H  -1.7588795957 -0.9064647050  0.7938794107
H  -0.7671430207 -0.8875883103 -0.6496904179
H  -1.3596437802  0.2966130463 -0.9930208296
H   0.5166260897  1.6883941030 -0.3543665865
H   0.9498846277  0.6723019778 -1.5198774558
H   1.7172867797 -0.6928194535  1.1836899755
H   4.3702973546  1.2921968439 -1.0371895873
H   2.0902625560  0.0381042689  1.7533954303
H   4.9802747046  3.0774191795 -0.9624425447
17
Image 612  Energy = -420.9284946751
C  -1.1244014712 -0.0301415445  0.6925889624
O  -1.3990636675  0.9583089164  1.3192814660
C  -0.7296482835 -0.0074016541 -0.4574129292
C   0.5976608294  0.7143781571 -0.5925894305
C   1.6582906132  0.2794582028  0.2107791712
O   2.6455472849  0.2209647056  0.1841296861
C   1.3903157839 -0.0731887807  1.0393874505
O   4.7732518586  2.2314118046 -0.6078312978
H  -1.7569540100 -0.9079571264  0.7951906511
H  -0.7671080247 -0.8873149408 -0.6521637351
H  -1.3604886580  0.2986870804 -0.9931716318
H   0.5164946886  1.6893251903 -0.3563989053
H   0.9504485164  0.6715931574 -1.5208790330
H   1.7152231717 -0.6959040341  1.1841901353
H   4.3725477078  1.2921957775 -1.0374509833
H   2.0873155607  0.0381708420  1.7563099805
H   4.9805680998  3.0774142463 -0.9639595565
17
Image 613  Energy = -420.9336634510
C  -1.1229748667 -0.0310105112  0.6935293599
O  -1.3980042864  0.9569987560  1.3214478952
C  -0.7297606654 -0.0068604585 -0.4581570395
C   0.5977310950  0.7147749838 -0.5934563937
C   1.6584184665  0.2804872288  0.2112143913
O   2.6462815042  0.2238339179  0.1845005837
C   1.3874756735 -0.0740585880  1.0408639060
O   4.7737051089  2.2315715663 -0.6088989387
H  -1.7550281143 -0.9094497456  0.7965020599
H  -0.7670728867 -0.8870417678 -0.6546373016
H  -1.3613339065  0.3007615049 -0.9933227407
H   0.5163632380  1.6902564794 -0.3584314947
H   0.9510124823  0.6708842247 -1.5218808434
H   1.7131589861 -0.6989892265  1.1846907565
H   4.3747984412  1.2921948314 -1.0377123568
H   2.0843681978  0.0382374660  1.7592249642
H   4.9808615327  3.0774093381 -0.9654768071
17
Image 614  Energy = -420.9389951818
C  -1.1215483217 -0.0318795182  0.6944703724
O  -1.3969446793  0.9556883756  1.3236146564
C  -0.7298726236 -0.0063190859 -0.4589015196
C   0.5978011589  0.7151719348 -0.5943237215
C   1.6585473002  0.2815151741  0.2116531958
O   2.6470125618  0.2267032831  0.1848720874
C   1.3846376526 -0.0749266744  1.0423361374
O   4.7741583443  2.2317311993 -0.6099667714
H  -1.7531018974 -0.9109425805  0.7978136528
H  -0.7670376103 -0.8867687875 -0.6571111249
H  -1.3621795123  0.3028363287 -0.9934741443
H   0.5162317433  1.6911879890 -0.3604643579
H   0.9515765376  0.6701751653 -1.5228829006
H   1.7110943726 -0.7020753093  1.1851919838
H   4.3770495678  1.2921939973 -1.0379737134
H   2.0814204012  0.0383040567  1.7621404713
H   4.9811550043  3.0774044515 -0.9669943033
17
Image 615  Energy = -420.9445044447
C  -1.1201217185 -0.0327486194  0.6954119626
O  -1.3958848204  0.9543777691  1.3257818154
C  -0.7299841415 -0.0057775125 -0.4596463456
C   0.5978709938  0.7155690197 -0.5951914397
C   1.6586772259  0.2825416320  0.2120964106
O   2.6477399834  0.2295728986  0.1852441897
C   1.3818018914 -0.0757923814  1.0438031928
O   4.7746115772  2.2318907127 -0.6110348214
H  -1.7511753148 -0.9124356666  0.7991254657
H  -0.7670022014 -0.8864959959 -0.6595852515
H  -1.3630254817  0.3049115935 -0.9936258339
H   0.5161002042  1.6921197566 -0.3624975369
H   0.9521407011  0.6694659607 -1.5238852417
H   1.7090294121 -0.7051625243  1.1856939677
H   4.3793011379  1.2921932715 -1.0382350621
H   2.0784720310  0.0383705016  1.7650566031
H   4.9814485202  3.0773995838 -0.9685120743
17
Image 616  Energy = -420.9502121847
C  -1.1186949363 -0.0336178787  0.6963540936
O  -1.3948246819  0.9530669301  1.3279494436
C  -0.7300951889 -0.0052357156 -0.4603914909
C   0.5979405560  0.7159662616 -0.5960596061
C   1.6588083723  0.2835662171  0.2125448125
O   2.6484632679  0.2324428551  0.1856169057
C   1.3789686400 -0.0766551682  1.0452642234
O   4.7750648212  2.2320501138 -0.6121031169
H  -1.7492483193 -0.9139290363  0.8004375373
H  -0.7669666686 -0.8862233887 -0.6620597351
H  -1.3638718299  0.3069873450 -0.9937778036
H   0.5159686178  1.6930518202 -0.3645310818
H   0.9527049901  0.6687565969 -1.5248879066
H   1.7069641241 -0.7082510247  1.1861968408
H   4.3815532085  1.2921926537 -1.0384964123
H   2.0755229404  0.0384366853  1.7679734487
H   4.9817420863  3.0773947332 -0.9700301515
17
Image 617  Energy = -420.9561345847
C  -1.1172678877 -0.0344873480  0.6972967243
O  -1.3937642535  0.9517558697  1.3301175801
C  -0.7302057333 -0.0046936852 -0.4611369280
C   0.5980098006  0.7163636799 -0.5969282723
C   1.6589407959  0.2845887534  0.2129987111
O   2.6491821547  0.2353131930  0.1859902231
C   1.3761380676 -0.0775147857  1.0467188662
O   4.7755180828  2.2322094066 -0.6131716698
H  -1.7473208920 -0.9154226974  0.8017498884
H  -0.7669310239 -0.8859509619 -0.6645345993
H  -1.3647185653  0.3090635996 -0.9939300490
H   0.5158369847  1.6939841974 -0.3665650146
H   0.9532694128  0.6680470724 -1.5258909152
H   1.7048984985 -0.7113408545  1.1867007021
H   4.3838058064  1.2921921445 -1.0387577704
H   2.0725730468  0.0385025160  1.7708910695
H   4.9820357050  3.0773899000 -0.9715485457
17
Image 618  Energy = -420.9622720236
C  -1.1158405416 -0.0353570498  0.6982398069
O  -1.3927035520  0.9504446223  1.3322862129
C  -0.7303157500 -0.0041514306 -0.4618826288
C   0.5980786960  0.7167612779 -0.5977974553
C   1.6590744304  0.2856093563  0.2134577684
O   2.6498967602  0.2381838865  0.1863640744
C   1.3733101690 -0.0783713322  1.0481674004
O   4.7759713580  2.2323685923 -0.6142404669
H  -1.7453930574 -0.9169166251  0.8030625120
H  -0.7668952818 -0.8856787116 -0.6670098198
H  -1.3655656795  0.3111403291 -0.9940825656
H   0.5157053117  1.6949168764 -0.3685993104
H   0.9538339640  0.6673374010 -1.5268942554
H   1.7028325250 -0.7144319616  1.1872056083
H   4.3860589101  1.2921917430 -1.0390191383
H   2.0696223652  0.0385679409  1.7738094939
H   4.9823293727  3.0773850849 -0.9730672365
17
Image 619  Energy = -420.9686043254
C  -1.1144129234 -0.0362269740  0.6991832895
O  -1.3916426183  0.9491332387  1.3344552845
C  -0.7304252245 -0.0036089778 -0.4626285649
C   0.5981472321  0.7171590409 -0.5986671344
C   1.6592090911  0.2866283829  0.2139211162
O   2.6506075417  0.2410548574  0.1867383420
C   1.3704847648 -0.0792251843  1.0496106331
O   4.7764246349  2.2325276711 -0.6153094730
H  -1.7434648754 -0.9184107679  0.8043753764
H  -0.7668594579 -0.8854066354 -0.6694853319
H  -1.3664131470  0.3132174681 -0.9942353483
H   0.5155736111  1.6958498208 -0.3706339037
H   0.9543986277  0.6666276078 -1.5278978878
H   1.7007662065 -0.7175242324  1.1877115732
H   4.3883124563  1.2921914451 -1.0392805140
H   2.0666709996  0.0386329492  1.7767287212
H   4.9826230808  3.0773802896 -0.9745861776
17
Image 620  Energy = -420.9751004473
C  -1.1129850990 -0.0370970843  0.7001271230
O  -1.3905815047  0.9478217731  1.3366247151
C  -0.7305341506 -0.0030663605 -0.4633747099
C   0.5982154201  0.7175569429 -0.5995372637
C   1.6593445195  0.2876463018  0.2143876493
O   2.6513151475  0.2439260048  0.1871128869
C   1.3676615679 -0.0800768539  1.0510496231
O   4.7768778981  2.2326866441 -0.6163786427
H  -1.7415364215 -0.9199050639  0.8056884363
H  -0.7668235670 -0.8851347346 -0.6719610532
H  -1.3672609324  0.3152949346 -0.9943883921
H   0.5154418967  1.6967829829 -0.3726687095
H   0.9549633821  0.6659177220 -1.5289017604
H   1.6986995584 -0.7206175329  1.1882185750
H   4.3905663600  1.2921912438 -1.0395418935
H   2.0637191066  0.0386975645  1.7796487272
H   4.9829168184  3.0773755156 -0.9761053105
17
Image 621  Energy = -420.9817256206
C  -1.1115571531 -0.0379673313  0.7010712713
O  -1.3895202632  0.9465102724  1.3387944251
C  -0.7306425242 -0.0025236112 -0.4641210433
C   0.5982832876  0.7179549555 -0.6004077894
C   1.6594804375  0.2886635613  0.2148563163
O   2.6520202521  0.2467972322  0.1874875811
C   1.3648402604 -0.0809268478  1.0524854081
O   4.7773311339  2.2328455143 -0.6174479316
H  -1.7396077670 -0.9213994551  0.8070016457
H  -0.7667876214 -0.8848630164 -0.6744369064
H  -1.3681089990  0.3173726515 -0.9945416927
H   0.5153101789  1.6977163173 -0.3747036459
H   0.9555282054  0.6652077711 -1.5299058229
H   1.6966326052 -0.7237117390  1.1887265671
H   4.3928205370  1.2921911300 -1.0398032730
H   2.0607668550  0.0387618309  1.7825694703
H   4.9832105748  3.0773707641 -0.9776245794
17
Image 622  Energy = -420.9884501430
C  -1.1101291701 -0.0388376647  0.7020157191
O  -1.3884589368  0.9451987707  1.3409643515
C  -0.7307503382 -0.0019807532 -0.4648675547
C   0.5983508693  0.7183530556 -0.6012786640
C   1.6596165880  0.2896805020  0.2153263046
O   2.6527234428  0.2496684628  0.1878623289
C   1.3620205502 -0.0817755719  1.0539188299
O   4.7777843328  2.2330042864 -0.6185173042
H  -1.7376789669 -0.9228938969  0.8083149659
H  -0.7667516297 -0.8845914960 -0.6769128343
H  -1.3689573163  0.3194505613 -0.9946952484
H   0.5151784626  1.6986497902 -0.3767386487
H   0.9560930792  0.6644977768 -1.5309100373
H   1.6945653782 -0.7268067522  1.1892354875
H   4.3950749188  1.2921910943 -1.0400646492
H   2.0578143948  0.0388257985  1.7854908937
H   4.9835043416  3.0773660360 -0.9791439397
17
Image 623  Energy = -420.9952507304
C  -1.1087012229 -0.0397080415  0.7029604766
O  -1.3873975564  0.9438872900  1.3431344526
C  -0.7308575791 -0.0014377970 -0.4656142480
C   0.5984181976  0.7187512293 -0.6021498538
C   1.6597527537  0.2906973277  0.2157970954
O   2.6534251738  0.2525396433  0.1882370728
C   1.3592021962 -0.0826232956  1.0553504811
O   4.7782374900  2.2331629659 -0.6195867365
H  -1.7357500578 -0.9243883605  0.8096283693
H  -0.7667155963 -0.8843201986 -0.6793888037
H  -1.3698058638  0.3215286301 -0.9948490602
H   0.5150467464  1.6995833821 -0.3787736753
H   0.9566579916  0.6637877534 -1.5319143815
H   1.6924979173 -0.7299025003  1.1897452653
H   4.3973294572  1.2921911277 -1.0403260204
H   2.0548618399  0.0388895118  1.7884129282
H   4.9837981128  3.0773613320 -0.9806633613
17
Image 624  Energy = -421.0021141085
C  -1.1072733681 -0.0405784302  0.7039055775
O  -1.3863361424  0.9425758438  1.3453047053
C  -0.7309642272 -0.0008947394 -0.4663611400
C   0.5984852960  0.7191494713 -0.6030213397
C   1.6598887537  0.2917141244  0.2162684160
O   2.6541257851  0.2554107395  0.1886117863
C   1.3563850086 -0.0834701690  1.0567807462
O   4.7786906039  2.2333215580 -0.6206562137
H  -1.7338210613 -0.9258828309  0.8109418373
H  -0.7666795220 -0.8840491587 -0.6818648013
H  -1.3706546310  0.3236068452 -0.9950031330
H   0.5149150254  1.7005170849 -0.3808087004
H   0.9572229368  0.6630777087 -1.5329188472
H   1.6904302695 -0.7329989267  1.1902558248
H   4.3995841227  1.2921912233 -1.0405873856
H   2.0519092654  0.0389530033  1.7913354941
H   4.9840918849  3.0773566524 -0.9821828261
17
Image 625  Energy = -421.0090330842
C  -1.1058456481 -0.0414488108  0.7048510707
O  -1.3852747078  0.9412644430  1.3474750969
C  -0.7310702609 -0.0003515670 -0.4671082569
C   0.5985521763  0.7195477814 -0.6038931121
C   1.6600244304  0.2927309088  0.2167401363
O   2.6548255509  0.2582817291  0.1889864563
C   1.3535688351 -0.0843162729  1.0582098903
O   4.7791436746  2.2334800667 -0.6217257270
H  -1.7318919925 -0.9273773008  0.8122553564
H  -0.7666434047 -0.8837784176 -0.6843408245
H  -1.3715036153  0.3256852067 -0.9951574736
H   0.5147832946  1.7014508964 -0.3828437072
H   0.9577879150  0.6623676460 -1.5339234341
H   1.6883624840 -0.7360959747  1.1907670876
H   4.4018388966  1.2921913758 -1.0408487442
H   2.0489567157  0.0390162923  1.7942585088
H   4.9843856559  3.0773519975 -0.9837023234
17
Image 626  Energy = -421.0160032853
C  -1.1044180946 -0.0423191727  0.7057970078
O  -1.3842132619  0.9399530997  1.3496456176
C  -0.7311756625  0.0001917390 -0.4678556262
C   0.5986188411  0.7199461590 -0.6047651623
C   1.6601596370  0.2937476788  0.2172121625
O   2.6555247291  0.2611525959  0.1893610665
C   1.3507535437 -0.0851616728  1.0596381420
O   4.7795967022  2.2336384940 -0.6227952690
H  -1.7299628665 -0.9288717654  0.8135689141
H  -0.7666072406 -0.8835080188 -0.6868168721
H  -1.3723528182  0.3277637187 -0.9953120900
H   0.5146515518  1.7023848142 -0.3848786796
H   0.9583529301  0.6616575661 -1.5349281436
H   1.6862946034 -0.7391935726  1.1912789763
H   4.4040937645  1.2921915824 -1.0411100951
H   2.0460042170  0.0390793867  1.7971818963
H   4.9846794243  3.0773473675 -0.9852218448
17
Image 627  Energy = -421.0230188524
C  -1.1029907325 -0.0431895125  0.7067434298
O  -1.3831518112  0.9386418287  1.3518162564
C  -0.7312804237  0.0007351975 -0.4686032684
C   0.5986852880  0.7203445997 -0.6056374758
C   1.6602942375  0.2947644475  0.2176843722
O   2.6562235807  0.2640233274  0.1897355897
C   1.3479390136 -0.0860064591  1.0610657404
O   4.7800496857  2.2337968398 -0.6238648323
H  -1.7280337015 -0.9303662197  0.8148824964
H  -0.7665710258 -0.8832380018 -0.6892929395
H  -1.3732022418  0.3298423834 -0.9954669888
H   0.5145197993  1.7033188318 -0.3869135988
H   0.9589179888  0.6609474689 -1.5359329748
H   1.6842266538 -0.7422916236  1.1917914160
H   4.4063487121  1.2921918427 -1.0413714362
H   2.0430517883  0.0391422858  1.8001055965
H   4.9849731887  3.0773427634 -0.9867413823
17
Image 628  Energy = -421.0300761560
C  -1.1015635811 -0.0440598320  0.7076903587
O  -1.3820903590  0.9373306456  1.3539870019
C  -0.7313845477  0.0012788229 -0.4693511925
C   0.5987515140  0.7207430934 -0.6065100284
C   1.6604281134  0.2957812532  0.2181565984
O   2.6569223637  0.2668939134  0.1901099925
C   1.3451251340 -0.0868507618  1.0624929399
O   4.7805026231  2.2339551018 -0.6249344096
H  -1.7261045179 -0.9318606582  0.8161960888
H  -0.7665347566 -0.8829683966 -0.6917690187
H  -1.3740518869  0.3319211992 -0.9956221739
H   0.5143880430  1.7042529391 -0.3889484444
H   0.9594830985  0.6602373533 -1.5369379236
H   1.6821586378 -0.7453900012  1.1923043365
H   4.4086037259  1.2921921582 -1.0416327651
H   2.0400994481  0.0392049832  1.8030295686
H   4.9852669477  3.0773381863 -0.9882609284
17
Image 629  Energy = -421.0371717811
C  -1.1001366544 -0.0449301375  0.7086377938
O  -1.3810289047  0.9360195642  1.3561578461
C  -0.7314880487  0.0018226233 -0.4700993934
C   0.5988175178  0.7211416257 -0.6073827873
C   1.6605611728  0.2967981546  0.2186286460
O   2.6576213111  0.2697643449  0.1904842476
C   1.3423118078 -0.0876947476  1.0639199916
O   4.7809555126  2.2341132763 -0.6260039950
H  -1.7241753348 -0.9333550767  0.8175096781
H  -0.7664984311 -0.8826992199 -0.6942451008
H  -1.3749017519  0.3340001619 -0.9957776455
H   0.5142562907  1.7051871240 -0.3909831985
H   0.9600482672  0.6595272172 -1.5379429851
H   1.6800905338 -0.7484885509  1.1928176702
H   4.4108587960  1.2921925325 -1.0418940789
H   2.0371472151  0.0392674699  1.8059537892
H   4.9855607005  3.0773336379 -0.9897804779
17
Image 630  Energy = -421.0443019953
C  -1.0987099631 -0.0458004387  0.7095857142
O  -1.3799674429  0.9347085952  1.3583287867
C  -0.7315909497  0.0023665997 -0.4708478546
C   0.5988833028  0.7215401794 -0.6082557112
C   1.6606933516  0.2978152231  0.2191003099
O   2.6583206180  0.2726346113  0.1908583428
C   1.3394989531 -0.0885386090  1.0653471275
O   4.7814083526  2.2342713586 -0.6270735849
H  -1.7222461675 -0.9348494739  0.8188232542
H  -0.7664620486 -0.8824304744 -0.6967211792
H  -1.3757518334  0.3360792660 -0.9959334004
H   0.5141245499  1.7061213760 -0.3930178480
H   0.9606135025  0.6588170571 -1.5389481555
H   1.6780223008 -0.7515870986  1.1933313512
H   4.4131139172  1.2921929701 -1.0421553748
H   2.0341951097  0.0393297377  1.8088782514
H   4.9858544471  3.0773291202 -0.9913000288
17
Image 631  Energy = -421.0514675762
C  -1.0972835184 -0.0466707470  0.7105340832
O  -1.3789059657  0.9333977471  1.3604998260
C  -0.7316932789  0.0029107460 -0.4715965513
C   0.5989488793  0.7219387343 -0.6091287499
C   1.6608246001  0.2988325390  0.2195713771
O   2.6590204550  0.2755046972  0.1912322764
C   1.3366864970 -0.0893825536  1.0667745564
O   4.7818611418  2.2344293442 -0.6281431774
H  -1.7203170283 -0.9363438501  0.8201368089
H  -0.7664256105 -0.8821621519 -0.6991972475
H  -1.3766021261  0.3381585045 -0.9960894331
H   0.5139928264  1.7070556873 -0.3950523842
H   0.9611788104  0.6581068685 -1.5399534330
H   1.6759538866 -0.7546854608  1.1938453113
H   4.4153690873  1.2921934764 -1.0424166506
H   2.0312431562  0.0393917838  1.8118029695
H   4.9861481878  3.0773246351 -0.9928195815
17
Image 632  Energy = -421.0586676367
C  -1.0958573368 -0.0475410729  0.7114828559
O  -1.3778444646  0.9320870284  1.3626709678
C  -0.7317950671  0.0034550503 -0.4723454558
C   0.5990142682  0.7223372663 -0.6100018410
C   1.6609548650  0.2998501905  0.2200416204
O   2.6597209932  0.2783745810  0.1916060450
C   1.3338743674 -0.0902267956  1.0682024720
O   4.7823138786  2.2345872288 -0.6292127698
H  -1.7183879290 -0.9378382052  0.8214503336
H  -0.7663891196 -0.8818942375 -0.7016732974
H  -1.3774526233  0.3402378672 -0.9962457373
H   0.5138611241  1.7079900529 -0.3970867990
H   0.9617441947  0.6573966472 -1.5409588171
H   1.6738852366 -0.7577834579  1.1943594767
H   4.4176243034  1.2921940563 -1.0426779040
H   2.0282913864  0.0394536153  1.8147279862
H   4.9864419229  3.0773201850 -0.9943391357
17
Image 633  Energy = -421.0659015240
C  -1.0944314429 -0.0484114238  0.7124319862
O  -1.3767829337  0.9307764497  1.3648422136
C  -0.7318963456  0.0039994963 -0.4730945412
C   0.5990795017  0.7227357465 -0.6108749094
C   1.6610840749  0.3008682706  0.2205107988
O   2.6604224274  0.2812442366  0.1919796296
C   1.3310624850 -0.0910715451  1.0696310570
O   4.7827665607  2.2347450086 -0.6302823577
H  -1.7164588831 -0.9393325372  0.8227638179
H  -0.7663525793 -0.8816267151 -0.7041493159
H  -1.3783033178  0.3423173401 -0.9964023079
H   0.5137294453  1.7089244699 -0.3991210822
H   0.9623096562  0.6566863909 -1.5419643070
H   1.6718163000 -0.7608809266  1.1948737690
H   4.4198795577  1.2921947140 -1.0429391324
H   2.0253398414  0.0395152527  1.8176533707
H   4.9867356521  3.0773157718 -0.9958586884
17
Image 634  Energy = -421.0731658473
C  -1.0930058693 -0.0492818024  0.7133814331
O  -1.3757213706  0.9294660240  1.3670135611
C  -0.7319971440  0.0045440659 -0.4738437851
C   0.5991446229  0.7231341425 -0.6117478715
C   1.6612121352  0.3018868710  0.2209786730
O   2.6611249826  0.2841136381  0.1923529917
C   1.3282507648 -0.0919170011  1.0710604835
O   4.7832191850  2.2349026808 -0.6313519341
H  -1.7145299058 -0.9408268410  0.8240772490
H  -0.7663159932 -0.8813595709 -0.7066252856
H  -1.3791542022  0.3443969060 -0.9965591415
H   0.5135977911  1.7098589365 -0.4011552204
H   0.9628751932  0.6559760994 -1.5429699008
H   1.6697470303 -0.7639777288  1.1953881084
H   4.4221348369  1.2921954526 -1.0432003332
H   2.0223885684  0.0395767297  1.8205792057
H   4.9870293745  3.0773113973 -0.9973782330
17
Image 635  Energy = -421.0804551437
C  -1.0915806521 -0.0501522068  0.7143311661
O  -1.3746597773  0.9281557655  1.3691850042
C  -0.7320974888  0.0050887413 -0.4745931723
C   0.5992096812  0.7235324207 -0.6126206423
C   1.6613389349  0.3029060729  0.2214450295
O   2.6618289042  0.2869827666  0.1927260743
C   1.3254391244 -0.0927633448  1.0724909085
O   4.7836717475  2.2350602430 -0.6324214901
H  -1.7126010137 -0.9423211102  0.8253906132
H  -0.7662793641 -0.8810927948 -0.7091011864
H  -1.3800052701  0.3464765461 -0.9967162376
H   0.5134661620  1.7107934519 -0.4031891976
H   0.9634408025  0.6552657748 -1.5439755948
H   1.6676773827 -0.7670737532  1.1959024213
H   4.4243901230  1.2921962745 -1.0434615028
H   2.0194376154  0.0396380899  1.8235055671
H   4.9873230883  3.0773070624 -0.9988977600
17
Image 636  Energy = -421.0877626952
C  -1.0901558260 -0.0510226317  0.7152811667
O  -1.3735981603  0.9268456891  1.3713565343
C  -0.7321974027  0.0056335069 -0.4753426951
C   0.5992747277  0.7239305501 -0.6134931433
C   1.6614643552  0.3039259380  0.2219097020
O   2.6625344421  0.2898516160  0.1930988059
C   1.3226274965 -0.0936107385  1.0739224686
O   4.7841242437  2.2352176923 -0.6334910159
H  -1.7106722227 -0.9438153382  0.8267038975
H  -0.7662426940 -0.8808263810 -0.7115769985
H  -1.3808565158  0.3485562420 -0.9968735980
H   0.5133345581  1.7117280158 -0.4052229974
H   0.9640064799  0.6545554208 -1.5449813847
H   1.6656073081 -0.7701689117  1.1964166453
H   4.4266453961  1.2921971814 -1.0437226374
H   2.0164870230  0.0396993811  1.8264325092
H   4.9876167913  3.0773027675 -1.0004172586
17
Image 637  Energy = -421.0950823181
C  -1.0887314192 -0.0518930694  0.7162314286
O  -1.3725365295  0.9255358087  1.3735281414
C  -0.7322969038  0.0061783503 -0.4760923528
C   0.5993398097  0.7243285042 -0.6143653090
C   1.6615882784  0.3049465017  0.2223725844
O   2.6632418345  0.2927201975  0.1934711049
C   1.3198158418 -0.0944593282  1.0753552765
O   4.7845766687  2.2353750256 -0.6345605019
H  -1.7087435473 -0.9453095193  0.8280170910
H  -0.7662059836 -0.8805603267 -0.7140527046
H  -1.3817079349  0.3506359774 -0.9970312262
H   0.5132029792  1.7126626285 -0.4072566046
H   0.9645722219  0.6538450418 -1.5459872662
H   1.6635367473 -0.7732631294  1.1969307303
H   4.4289006367  1.2921981748 -1.0439837329
H   2.0135368191  0.0397606502  1.8293600601
H   4.9879104809  3.0772985121 -1.0019367185
17
Image 638  Energy = -421.1024069790
C  -1.0873074498 -0.0527635121  0.7171819560
O  -1.3714748973  0.9242261365  1.3756998162
C  -0.7323960055  0.0067232628 -0.4768421502
C   0.5994049677  0.7247262632 -0.6152370909
C   1.6617105949  0.3059677694  0.2228336363
O   2.6639512931  0.2955885394  0.1938428853
C   1.3170041577 -0.0953092456  1.0767894158
O   4.7850290177  2.2355322388 -0.6356299398
H  -1.7068149997 -0.9468036505  0.8293301864
H  -0.7661692331 -0.8802946302 -0.7165282919
H  -1.3825595236  0.3527157390 -0.9971891267
H   0.5130714250  1.7135972911 -0.4092900071
H   0.9651380260  0.6531346423 -1.5469932358
H   1.6614656281 -0.7763563347  1.1974446372
H   4.4311558283  1.2921992569 -1.0442447848
H   2.0105870160  0.0398219385  1.8322882253
H   4.9882041546  3.0772942952 -1.0034561308
17
Image 639  Energy = -421.1097317494
C  -1.0858839233 -0.0536339539  0.7181327614
O  -1.3704132776  0.9229166819  1.3778715517
C  -0.7324947174  0.0072682393 -0.4775920962
C   0.5994702313  0.7251238144 -0.6161084584
C   1.6618312086  0.3069897172  0.2232928809
O   2.6646629901  0.2984566842  0.1942140665
C   1.3141924821 -0.0961606118  1.0782249357
O   4.7854812863  2.2356893267 -0.6366993237
H  -1.7048865884 -0.9482977318  0.8306431804
H  -0.7661324422 -0.8800292901 -0.7190037540
H  -1.3834112796  0.3547955188 -0.9973473038
H   0.5129398955  1.7145320060 -0.4113231974
H   0.9657038917  0.6524242259 -1.5479992923
H   1.6593938638 -0.7794484517  1.1979583349
H   4.4334109600  1.2922004304 -1.0445057890
H   2.0076376092  0.0398832793  1.8352169935
H   4.9884978101  3.0772901149 -1.0049754899
17
Image 640  Energy = -421.1170550698
C  -1.0844608331 -0.0545043916  0.7190838635
O  -1.3693516838  0.9216074508  1.3800433449
C  -0.7325930445  0.0078132787 -0.4783422021
C   0.5995356191  0.7255211519 -0.6169793983
C   1.6619500389  0.3080122963  0.2237503969
O   2.6653770517  0.3013246836  0.1945845817
C   1.3113808909 -0.0970135382  1.0796618489
O   4.7859334710  2.2358462835 -0.6377686507
H  -1.7029583176 -0.9497917674  0.8319560743
H  -0.7660956102 -0.8797643040 -0.7214790917
H  -1.3842632021  0.3568753142 -0.9975057614
H   0.5128083901  1.7154667764 -0.4133561739
H   0.9662698200  0.6517137946 -1.5490054364
H   1.6573213566 -0.7825393950  1.1984717976
H   4.4356660276  1.2922016988 -1.0447667417
H   2.0046885796  0.0399446975  1.8381463434
H   4.9887914457  3.0772859694 -1.0064947945
17
Image 641  Energy = -421.1243754112
C  -1.0830381607 -0.0553748255  0.7200352847
O  -1.3682901280  0.9202984453  1.3822151979
C  -0.7326909884  0.0083583828 -0.4790924810
C   0.5996011383  0.7259182755 -0.6178499120
C   1.6620670221  0.3090354402  0.2242063055
O   2.6660935542  0.3041925924  0.1949543863
C   1.3085694925 -0.0978681274  1.0811001323
O   4.7863855692  2.2360031027 -0.6388379215
H  -1.7010301868 -0.9512857655  0.8332688744
H  -0.7660587367 -0.8794996682 -0.7239543132
H  -1.3851152918  0.3589551290 -0.9976645026
H   0.5126769086  1.7164016069 -0.4153889413
H   0.9668358141  0.6510033486 -1.5500116717
H   1.6552480016 -0.7856290691  1.1989850027
H   4.4379210346  1.2922030662 -1.0450276400
H   2.0017398963  0.0400062095  1.8410762479
H   4.9890850607  3.0772818563 -1.0080140477
17
Image 642  Energy = -421.1316969901
C  -1.0816158797 -0.0562452590  0.7209870493
O  -1.3672286203  0.9189896636  1.3843871176
C  -0.7327885478  0.0089035559 -0.4798429464
C   0.5996667866  0.7263151894 -0.6187200128
C   1.6621821097  0.3100590736  0.2246607545
O   2.6668125292  0.3070604629  0.1953234607
C   1.3057584176 -0.0987244753  1.0825397340
O   4.7868375796  2.2361597781 -0.6399071398
H  -1.6991021908 -0.9527797378  0.8345815904
H  -0.7660218207 -0.8792353780 -0.7264294334
H  -1.3859675510  0.3610349724 -0.9978235295
H   0.5125454509  1.7173365027 -0.4174215096
H   0.9674018783  0.6502928862 -1.5510180033
H   1.6531736920 -0.7887173708  1.1994979297
H   4.4401759912  1.2922045372 -1.0452884820
H   1.9987915203  0.0400678253  1.8440066779
H   4.9893786549  3.0772777735 -1.0095332569
17
Image 643  Energy = -421.1390257515
C  -1.0801939585 -0.0571156976  0.7219391822
O  -1.3661671684  0.9176811003  1.3865591151
C  -0.7328857188  0.0094488045 -0.4805936114
C   0.5997325542  0.7267119002 -0.6195897215
C   1.6622952666  0.3110831211  0.2251139005
O   2.6675339711  0.3099283414  0.1956918097
C   1.3029478081 -0.0995826711  1.0839805834
O   4.7872895019  2.2363163033 -0.6409763117
H  -1.6971743211 -0.9542736985  0.8358942352
H  -0.7659848614 -0.8789714279 -0.7289044720
H  -1.3868199834  0.3631148584 -0.9979828432
H   0.5124140166  1.7182714694 -0.4194538927
H   0.9679680178  0.6495824041 -1.5520244380
H   1.6510983248 -0.7918041929  1.2000105599
H   4.4424309129  1.2922061161 -1.0455492666
H   1.9958434087  0.0401295501  1.8469376041
H   4.9896722289  3.0772737187 -1.0110524325
17
Image 644  Energy = -421.1463687025
C  -1.0787723640 -0.0579861476  0.7228917071
O  -1.3651057779  0.9163727481  1.3887312031
C  -0.7329824961  0.0099941360 -0.4813444880
C   0.5997984267  0.7271084161 -0.6204590633
C   1.6624064693  0.3121075161  0.2255658914
O   2.6682578489  0.3127962651  0.1960594579
C   1.3001378052 -0.1004427989  1.0854226051
O   4.7877413364  2.2364726730 -0.6420454444
H  -1.6952465669 -0.9557676628  0.8372068228
H  -0.7659478576 -0.8787078125 -0.7313794514
H  -1.3876725933  0.3651948035 -0.9981424440
H   0.5122826059  1.7192065117 -0.4214861069
H   0.9685342378  0.6488718986 -1.5530309825
H   1.6490218056 -0.7948894302  1.2005228765
H   4.4446858178  1.2922078073 -1.0458099935
H   1.9928955184  0.0401913860  1.8498689973
H   4.9899657838  3.0772696902 -1.0125715870
17
Image 645  Energy = -421.1537331986
C  -1.0773510660 -0.0588566146  0.7238446458
O  -1.3640444523  0.9150645979  1.3909033944
C  -0.7330788732  0.0105395586 -0.4820955863
C   0.5998643874  0.7275047452 -0.6213280646
C   1.6625157036  0.3131322073  0.2260168516
O   2.6689841183  0.3156642608  0.1964264440
C   1.2973285381 -0.1013049381  1.0868657316
O   4.7881930840  2.2366288823 -0.6431145453
H  -1.6933189174 -0.9572616456  0.8385193670
H  -0.7659108076 -0.8784445274 -0.7338543941
H  -1.3885253856  0.3672748248 -0.9983023319
H   0.5121512190  1.7201416333 -0.4235181682
H   0.9691005429  0.6481613657 -1.5540376429
H   1.6469440539 -0.7979729855  1.2010348654
H   4.4469407243  1.2922096145 -1.0460706630
H   1.9899478096  0.0402533343  1.8528008292
H   4.9902593208  3.0772656861 -1.0140907326
17
Image 646  Energy = -421.1611273115
C  -1.0759300393 -0.0597271027  0.7247980177
O  -1.3629831940  0.9137566407  1.3930756993
C  -0.7331748431  0.0110850804 -0.4828469140
C   0.5999304197  0.7279008948 -0.6221967508
C   1.6626229624  0.3141571633  0.2264668703
O   2.6697127335  0.3185323448  0.1967928129
C   1.2945201146 -0.1021691627  1.0883099156
O   4.7886447453  2.2367849271 -0.6441836208
H  -1.6913913626 -0.9587556593  0.8398318803
H  -0.7658737095 -0.8781815697 -0.7363293205
H  -1.3893783648  0.3693549382 -0.9984625063
H   0.5120198562  1.7210768358 -0.4255500904
H   0.9696669365  0.6474508024 -1.5550444237
H   1.6448650066 -0.8010547751  1.2015465160
H   4.4491956486  1.2922115405 -1.0463312760
H   1.9870002487  0.0403153962  1.8557330711
H   4.9905528410  3.0772617052 -1.0156098804
17
Image 647  Energy = -421.1685578775
C  -1.0745092665 -0.0605976136  0.7257518387
O  -1.3619220046  0.9124488680  1.3952481238
C  -0.7332703984  0.0116307095 -0.4835984761
C   0.5999965083  0.7282968706 -0.6230651444
C   1.6627282450  0.3151823753  0.2269159936
O   2.6704436560  0.3214005233  0.1971586097
C   1.2917126135 -0.1030355393  1.0897551386
O   4.7890963206  2.2369408041 -0.6452526751
H  -1.6894638957 -0.9602497134  0.8411443720
H  -0.7658365611 -0.8779189388 -0.7388042471
H  -1.3902315349  0.3714351560 -0.9986229666
H   0.5118885180  1.7220121188 -0.4275818836
H   0.9702334204  0.6467402067 -1.5560513274
H   1.6427846217 -0.8041347354  1.2020578216
H   4.4514506025  1.2922135878 -1.0465918329
H   1.9840528100  0.0403775738  1.8586656942
H   4.9908463454  3.0772577464 -1.0171290386
17
Image 648  Energy = -421.1760286335
C  -1.0730887391 -0.0614681457  0.7267061212
O  -1.3608608856  0.9111412730  1.3974206684
C  -0.7333655319  0.0121764538 -0.4843502748
C   0.6000626407  0.7286926765 -0.6239332642
C   1.6628315556  0.3162078575  0.2273642221
O   2.6711768613  0.3242687930  0.1975238747
C   1.2889060798 -0.1039041242  1.0912014161
O   4.7895478096  2.2370965104 -0.6463217101
H  -1.6875365135 -0.9617438130  0.8424568481
H  -0.7657993602 -0.8776566366 -0.7412791843
H  -1.3910848993  0.3735154866 -0.9987837120
H   0.5117572048  1.7229474797 -0.4296135531
H   0.9707999942  0.6460295789 -1.5570583541
H   1.6407028809 -0.8072128271  1.2025687805
H   4.4537055921  1.2922157577 -1.0468523344
H   1.9811054762  0.0404398705  1.8615986684
H   4.9911398342  3.0772538089 -1.0186482119
17
Image 649  Energy = -421.1835419409
C  -1.0716684578 -0.0623386947  0.7276608743
O  -1.3597998386  0.9098338510  1.3995933272
C  -0.7334602361  0.0127223207 -0.4851023089
C   0.6001288075  0.7290883146 -0.6248011246
C   1.6629329045  0.3172336461  0.2278115107
O   2.6719123405  0.3271371426  0.1978886401
C   1.2861005241 -0.1047749606  1.0926487981
O   4.7899992112  2.2372520439 -0.6473907246
H  -1.6856092173 -0.9632379587  0.8437693106
H  -0.7657621043 -0.8773946675 -0.7437541368
H  -1.3919384602  0.3755959330 -0.9989447421
H   0.5116259170  1.7238829131 -0.4316450989
H   0.9713666557  0.6453189209 -1.5580655016
H   1.6386197904 -0.8102890385  1.2030793963
H   4.4559606173  1.2922180514 -1.0471127805
H   1.9781582389  0.0405022904  1.8645319620
H   4.9914333072  3.0772498922 -1.0201674008
17
Image 650  Energy = -421.1910971446
C  -1.0702484326 -0.0632092533  0.7286161029
O  -1.3587388657  0.9085265992  1.4017660880
C  -0.7335545036  0.0132683179 -0.4858545743
C   0.6001950019  0.7294837855 -0.6256687363
C   1.6630323076  0.3182597958  0.2282577749
O   2.6726501000  0.3300055541  0.1982529286
C   1.2832959231 -0.1056480745  1.0940973670
O   4.7904505235  2.2374074025 -0.6484597147
H  -1.6836820125 -0.9647321467  0.8450817578
H  -0.7657247912 -0.8771330389 -0.7462291027
H  -1.3927922195  0.3776764933 -0.9991060560
H   0.5114946550  1.7248184121 -0.4336765155
H   0.9719334006  0.6446082368 -1.5590727655
H   1.6365353813 -0.8133633870  1.2035896780
H   4.4582156717  1.2922204691 -1.0473731711
H   1.9752110968  0.0405648378  1.8674655414
H   4.9917267635  3.0772459960 -1.0216866020
17
Image 651  Energy = -421.1986907443
C  -1.0688286814 -0.0640798122  0.7295718091
O  -1.3576779697  0.9072195170  1.4039389332
C  -0.7336483266  0.0138144531 -0.4866070642
C   0.6002612199  0.7298790884 -0.6265361068
C   1.6631297869  0.3192863748  0.2287028991
O   2.6733901585  0.3328740042  0.1986167537
C   1.2804922244 -0.1065234721  1.0955472308
O   4.7909017440  2.2375625849 -0.6495286744
H  -1.6817549086 -0.9662263692  0.8463941845
H  -0.7656874188 -0.8768717606 -0.7487040750
H  -1.3936461782  0.3797571613 -0.9992676534
H   0.5113634187  1.7257539682 -0.4357077932
H   0.9725002231  0.6438975323 -1.5600801401
H   1.6344497082 -0.8164359183  1.2040996395
H   4.4604707436  1.2922230110 -1.0476335053
H   1.9722640543  0.0406275165  1.8703993711
H   4.9920202017  3.0772421205 -1.0232058083
17
Image 652  Energy = -421.2063190054
C  -1.0674092283 -0.0649503609  0.7305279917
O  -1.3566171535  0.9059126053  1.4061118414
C  -0.7337416971  0.0143607340 -0.4873597692
C   0.6003274586  0.7302742218 -0.6274032413
C   1.6632253709  0.3203134592  0.2291467485
O   2.6741325412  0.3357424660  0.1989801220
C   1.2776893526 -0.1074011372  1.0969985134
O   4.7913528700  2.2377175896 -0.6505975957
H  -1.6798279177 -0.9677206153  0.8477065833
H  -0.7656499853 -0.8766108444 -0.7511790423
H  -1.3945003376  0.3818379276 -0.9994295339
H   0.5112322082  1.7266895721 -0.4377389192
H   0.9730671160  0.6431868143 -1.5610876186
H   1.6323628459 -0.8195067040  1.2046092991
H   4.4627258171  1.2922256769 -1.0478937820
H   1.9693171190  0.0406903286  1.8733334134
H   4.9923136200  3.0772382660 -1.0247250103
17
Image 653  Energy = -421.2139735648
C  -1.0659901021 -0.0658208882  0.7314846473
O  -1.3555564203  0.9046058659  1.4082847888
C  -0.7338346068  0.0149071683 -0.4881126784
C   0.6003937160  0.7306691846 -0.6282701439
C   1.6633190944  0.3213411262  0.2295891833
O   2.6748772740  0.3386109104  0.1993430354
C   1.2748872171 -0.1082810292  1.0984513425
O   4.7918038988  2.2378724159 -0.6516664700
H  -1.6779010536 -0.9692148723  0.8490189453
H  -0.7656124892 -0.8763503040 -0.7536539912
H  -1.3953546990  0.3839187814 -0.9995916973
H   0.5111010231  1.7276252144 -0.4397698785
H   0.9736340717  0.6424760903 -1.5620951943
H   1.6302748859 -0.8225758369  1.2051186786
H   4.4649808741  1.2922284661 -1.0481539996
H   1.9663702995  0.0407532740  1.8762676295
H   4.9926070163  3.0772344328 -1.0262441970
17
Image 654  Energy = -421.2216479805
C  -1.0645713338 -0.0666913839  0.7324417703
O  -1.3544957724  0.9032993005  1.4104577522
C  -0.7339270469  0.0154537638 -0.4888657797
C   0.6004599891  0.7310639760 -0.6291368191
C   1.6634109976  0.3223694470  0.2300300729
O   2.6756243769  0.3414793079  0.1997054940
C   1.2720857204 -0.1091630834  1.0999058374
O   4.7922548282  2.2380270635 -0.6527352889
H  -1.6759743303 -0.9707091273  0.8503312616
H  -0.7655749292 -0.8760901543 -0.7561289080
H  -1.3962092643  0.3859997123 -0.9997541436
H   0.5109698633  1.7285608866 -0.4418006565
H   0.9742010824  0.6417653679 -1.5631028613
H   1.6281859307 -0.8256434255  1.2056278021
H   4.4672358961  1.2922313779 -1.0484141566
H   1.9634236036  0.0408163493  1.8792019804
H   4.9929003886  3.0772306215 -1.0277633569
17
Image 655  Energy = -421.2293353570
C  -1.0631529552 -0.0675618387  0.7333993536
O  -1.3534352106  0.9019929102  1.4126307105
C  -0.7340190083  0.0160005272 -0.4896190605
C   0.6005262735  0.7314585966 -0.6300032722
C   1.6635011254  0.3233984811  0.2304693077
O   2.6763738597  0.3443476296  0.2000674996
C   1.2692847657 -0.1100472122  1.1013620973
O   4.7927056567  2.2381815326 -0.6538040446
H  -1.6740477608 -0.9722033676  0.8516435245
H  -0.7655373044 -0.8758304106 -0.7586037804
H  -1.3970640365  0.3880807113 -0.9999168730
H   0.5108387283  1.7294965813 -0.4438312397
H   0.9747681407  0.6410546542 -1.5641106145
H   1.6260960888 -0.8287095876  1.2061366949
H   4.4694908657  1.2922344113 -1.0486742513
H   1.9604770362  0.0408795483  1.8821364282
H   4.9931937350  3.0772268328 -1.0292824797
17
Image 656  Energy = -421.2370295566
C  -1.0617349965 -0.0684322454  0.7343573884
O  -1.3523747338  0.9006866947  1.4148036465
C  -0.7341104825  0.0165474642 -0.4903725084
C   0.6005925622  0.7318530488 -0.6308695105
C   1.6635895265  0.3244282724  0.2309068092
O   2.6771257172  0.3472158488  0.2004290572
C   1.2664842637 -0.1109333080  1.1028201926
O   4.7931563841  2.2383358242 -0.6548727312
H  -1.6721213560 -0.9736975829  0.8529557280
H  -0.7654996138 -0.8755710874 -0.7610785993
H  -1.3979190191  0.3901617726 -1.0000798853
H   0.5107076180  1.7304322931 -0.4458616172
H   0.9753352401  0.6403439550 -1.5651184509
H   1.6240054685 -0.8317744439  1.2066453826
H   4.4717457682  1.2922375650 -1.0489342823
H   1.9575305991  0.0409428615  1.8850709379
H   4.9934870539  3.0772230672 -1.0308015569
17
Image 657  Energy = -421.2447253596
C  -1.0603174853 -0.0693025987  0.7353158631
O  -1.3513143380  0.8993806515  1.4169765486
C  -0.7342014621  0.0170945785 -0.4911261106
C   0.6006588453  0.7322473367 -0.6317355438
C   1.6636762523  0.3254588453  0.2313425362
O   2.6778799278  0.3500839415  0.2007901769
C   1.2636841372 -0.1118212482  1.1042801595
O   4.7936070114  2.2384899403 -0.6559413447
H  -1.6701951239 -0.9751917653  0.8542678687
H  -0.7654618567 -0.8753121975 -0.7635533594
H  -1.3987742164  0.3922428934 -1.0002431800
H   0.5105765324  1.7313680184 -0.4478917820
H   0.9759023754  0.6396332752 -1.5661263693
H   1.6219141734 -0.8348381111  1.2071538890
H   4.4740005929  1.2922408374 -1.0491942486
H   1.9545842900  0.0410062770  1.8880054791
H   4.9937803443  3.0772193253 -1.0323205825
17
Image 658  Energy = -421.2524204749
C  -1.0589004450 -0.0701728951  0.7362747632
O  -1.3502540166  0.8980747756  1.4191494112
C  -0.7342919420  0.0176418710 -0.4918798546
C   0.6007251097  0.7326414667 -0.6326013840
C   1.6637613560  0.3264902045  0.2317764867
O   2.6786364533  0.3529518875  0.2011508747
C   1.2608843240 -0.1127109012  1.1057419980
O   4.7940575410  2.2386438834 -0.6570098835
H  -1.6682690689 -0.9766859104  0.8555799464
H  -0.7654240330 -0.8750537500 -0.7660280596
H  -1.3996296322  0.3943240744 -1.0004067557
H   0.5104454716  1.7323037559 -0.4499217313
H   0.9764695426  0.6389226179 -1.5671343702
H   1.6198222976 -0.8379006963  1.2076622355
H   4.4762553334  1.2922442271 -1.0494541496
H   1.9516381031  0.0410697813  1.8909400269
H   4.9940736056  3.0772156076 -1.0338395536
17
Image 659  Energy = -421.2601129813
C  -1.0574838937 -0.0710431326  0.7372340702
O  -1.3491937600  0.8967690593  1.4213222344
C  -0.7343819208  0.0181893394 -0.4926337275
C   0.6007913392  0.7330354469 -0.6334670454
C   1.6638448936  0.3275223359  0.2322086951
O   2.6793952384  0.3558196696  0.2015111719
C   1.2580847771 -0.1136021327  1.1072056760
O   4.7945079768  2.2387976570 -0.6580783485
H  -1.6663431919 -0.9781800173  0.8568919633
H  -0.7653861426 -0.8747957495 -0.7685027034
H  -1.4004852696  0.3964053192 -1.0005706095
H   0.5103144358  1.7332395061 -0.4519514672
H   0.9770367390  0.6382119849 -1.5681424558
H   1.6177299237 -0.8409622928  1.2081704393
H   4.4785099878  1.2922477322 -1.0497139849
H   1.9486920292  0.0411333601  1.8938745630
H   4.9943668380  3.0772119142 -1.0353584706
17
Image 660  Energy = -421.2678051570
C  -1.0560678441 -0.0719133100  0.7381937608
O  -1.3481335565  0.8954634924  1.4234950238
C  -0.7344714009  0.0187369782 -0.4933877159
C   0.6008575159  0.7334292871 -0.6343325439
C   1.6639269231  0.3285552090  0.2326392262
O   2.6801562151  0.3586872744  0.2018710945
C   1.2552854636 -0.1144948119  1.1086711351
O   4.7949583237  2.2389512649 -0.6591467426
H  -1.6644174904 -0.9796740882  0.8582039243
H  -0.7653481859 -0.8745381954 -0.7709772971
H  -1.4013411303  0.3984866330 -1.0007347369
H   0.5101834256  1.7341752714 -0.4539809958
H   0.9776039628  0.6375013768 -1.5691506295
H   1.6156371210 -0.8440229776  1.2086785122
H   4.4807645581  1.2922513511 -1.0499737545
H   1.9457460572  0.0411969995  1.8968090761
H   4.9946600420  3.0772082451 -1.0368773365
17
Image 661  Energy = -421.2754990434
C  -1.0546523032 -0.0727834265  0.7391538092
O  -1.3470733930  0.8941580627  1.4256677889
C  -0.7345603884  0.0192847793 -0.4941418059
C   0.6009236205  0.7338229976 -0.6351978961
C   1.6640075056  0.3295887811  0.2330681657
O   2.6809193041  0.3615546910  0.2022306712
C   1.2524863605 -0.1153888159  1.1101382999
O   4.7954085874  2.2391047116 -0.6602150705
H  -1.6624919595 -0.9811681277  0.8595158358
H  -0.7653101637 -0.8742810829 -0.7734518497
H  -1.4021972149  0.4005680228 -1.0008991323
H   0.5100524412  1.7351110554 -0.4560103271
H   0.9781712132  0.6367907935 -1.5701588952
H   1.6135439473 -0.8470828111  1.2091864603
H   4.4830190495  1.2922550825 -1.0502334586
H   1.9428001750  0.0412606868  1.8997435612
H   4.9949532186  3.0772045998 -1.0383961565
17
Image 662  Energy = -421.2831981518
C  -1.0532372739 -0.0736534817  0.7401141893
O  -1.3460132559  0.8928527577  1.4278405408
C  -0.7346488921  0.0198327336 -0.4948959848
C   0.6009896338  0.7342165892 -0.6360631191
C   1.6640867058  0.3306230015  0.2334956100
O   2.6816844195  0.3644219103  0.2025899314
C   1.2496874503 -0.1162840327  1.1116070873
O   4.7958587739  2.2392580015 -0.6612833377
H  -1.6605665928 -0.9826621424  0.8608277050
H  -0.7652720764 -0.8740244047 -0.7759263712
H  -1.4030535233  0.4026494960 -1.0010637899
H   0.5099214825  1.7360468627 -0.4580394734
H   0.9787384895  0.6360802347 -1.5711672568
H   1.6114504508 -0.8501418396  1.2096942844
H   4.4852734683  1.2922589249 -1.0504930973
H   1.9398543713  0.0413244109  1.9026780190
H   4.9952463688  3.0772009777 -1.0399149367
17
Image 663  Energy = -421.2909070689
C  -1.0518227568 -0.0745234748  0.7410748783
O  -1.3449531326  0.8915475656  1.4300132907
C  -0.7347369203  0.0203808324 -0.4956502419
C   0.6010555380  0.7346100721 -0.6369282288
C   1.6641645916  0.3316578178  0.2339216537
O   2.6824514737  0.3672889241  0.2029489020
C   1.2468887149 -0.1171803618  1.1130774178
O   4.7963088892  2.2394111388 -0.6623515497
H  -1.6586413840 -0.9841561389  0.8621395388
H  -0.7652339240 -0.8737681547 -0.7784008716
H  -1.4039100564  0.4047310607 -1.0012287046
H   0.5097905495  1.7369826984 -0.4600684475
H   0.9793057913  0.6353697006 -1.5721757175
H   1.6093566743 -0.8532000992  1.2102019801
H   4.4875278205  1.2922628775 -1.0507526706
H   1.9369086374  0.0413881635  1.9056124540
H   4.9955394936  3.0771973777 -1.0414336830
17
Image 664  Energy = -421.2986298406
C  -1.0504087528 -0.0753934049  0.7420358606
O  -1.3438930118  0.8902424767  1.4321860476
C  -0.7348244792  0.0209290687 -0.4964045701
C   0.6011213175  0.7350034558 -0.6377932406
C   1.6642412336  0.3326931799  0.2343463797
O   2.6832203830  0.3701557238  0.2033076049
C   1.2440901294 -0.1180777135  1.1145492238
O   4.7967589386  2.2395641277 -0.6634197109
H  -1.6567163283 -0.9856501232  0.8634513431
H  -0.7651957054 -0.8735123298 -0.7808753591
H  -1.4047668162  0.4068127249 -1.0013938735
H   0.5096596414  1.7379185671 -0.4620972612
H   0.9798731179  0.6346591921 -1.5731842792
H   1.6072626593 -0.8562576219  1.2107095402
H   4.4897821100  1.2922669393 -1.0510121781
H   1.9339629694  0.0414519383  1.9085468730
H   4.9958325936  3.0771937988 -1.0429523998
17
Image 665  Energy = -421.3063682343
C  -1.0489952652 -0.0762632699  0.7429971288
O  -1.3428328846  0.8889374842  1.4343588163
C  -0.7349115709  0.0214774384 -0.4971589667
C   0.6011869599  0.7353967485 -0.6386581685
C   1.6643167034  0.3337290447  0.2347698513
O   2.6839910727  0.3730223001  0.2036660542
C   1.2412916560 -0.1189760056  1.1160224566
O   4.7972089263  2.2397169715 -0.6644878241
H  -1.6547914228 -0.9871440993  0.8647631218
H  -0.7651574188 -0.8732569312 -0.7833498393
H  -1.4056238067  0.4088944950 -1.0015592958
H   0.5095287570  1.7388544729 -0.4641259230
H   0.9804404676  0.6339487118 -1.5741929418
H   1.6051684513 -0.8593144424  1.2112169556
H   4.4920363368  1.2922711093 -1.0512716187
H   1.9310173691  0.0415157320  1.9114812826
H   4.9961256689  3.0771902399 -1.0444710890
17
Image 666  Energy = -421.3141235535
C  -1.0475823012 -0.0771330658  0.7439586825
O  -1.3417727443  0.8876325847  1.4365315970
C  -0.7349981936  0.0220259395 -0.4979134333
C   0.6012524562  0.7357899569 -0.6395230250
C   1.6643910722  0.3347653791  0.2351921071
O   2.6847634818  0.3758886424  0.2040242540
C   1.2384932389 -0.1198751606  1.1174970911
O   4.7976588552  2.2398696733 -0.6655558897
H  -1.6528666677 -0.9886380687  0.8660748770
H  -0.7651190616 -0.8730019632 -0.7858243133
H  -1.4064810315  0.4109763741 -1.0017249723
H   0.5093978945  1.7397904185 -0.4661544377
H   0.9810078381  0.6332382634 -1.5752017030
H   1.6030741024 -0.8623706039  1.2117242174
H   4.4942904960  1.2922753868 -1.0515309909
H   1.9280718457  0.0415795438  1.9144156883
H   4.9964187188  3.0771866996 -1.0459897487
17
Image 667  Energy = -421.3218938641
C  -1.0461698719 -0.0780027866  0.7449205241
O  -1.3407125868  0.8863277778  1.4387043842
C  -0.7350843429  0.0225745703 -0.4986679741
C   0.6013178017  0.7361830864 -0.6403878215
C   1.6644644089  0.3358021616  0.2356131605
O   2.6855375654  0.3787547394  0.2043821979
C   1.2356948015 -0.1207751005  1.1189731258
O   4.7981087268  2.2400222353 -0.6666239055
H  -1.6509420653 -0.9901320294  0.8673866083
H  -0.7650806312 -0.8727474299 -0.7882987765
H  -1.4073384929  0.4130583599 -1.0018909039
H   0.5092670515  1.7407264049 -0.4681828052
H   0.9815752256  0.6325278520 -1.5762105579
H   1.6009796747 -0.8654261649  1.2122313182
H   4.4965445778  1.2922797707 -1.0517902928
H   1.9251264148  0.0416433756  1.9173500924
H   4.9967117421  3.0771831770 -1.0475083739
17
Image 668  Energy = -421.3296752625
C  -1.0447579911 -0.0788724235  0.7458826539
O  -1.3396524097  0.8850230658  1.4408771677
C  -0.7351700150  0.0231233288 -0.4994225931
C   0.6013829954  0.7365761412 -0.6412525670
C   1.6645367790  0.3368393825  0.2360330012
O   2.6863132961  0.3816205793  0.2047398685
C   1.2328962452 -0.1216757442  1.1204505818
O   4.7985585414  2.2401746593 -0.6676918670
H  -1.6490176205 -0.9916259761  0.8686983127
H  -0.7650421255 -0.8724933325 -0.7907732179
H  -1.4081961888  0.4151404430 -1.0020570899
H   0.5091362250  1.7416624312 -0.4702110207
H   0.9821426249  0.6318174841 -1.5772194993
H   1.5988852404 -0.8684812023  1.2127382531
H   4.4987985678  1.2922842602 -1.0520495217
H   1.9221810988  0.0417072318  1.9202844939
H   4.9970047367  3.0771796712 -1.0490269558
17
Image 669  Energy = -421.3374621634
C  -1.0433466723 -0.0797419666  0.7468450653
O  -1.3385922133  0.8837184538  1.4430499327
C  -0.7352552092  0.0236722107 -0.5001772921
C   0.6014480402  0.7369691234 -0.6421172683
C   1.6646082431  0.3378770426  0.2364516011
O   2.6870906615  0.3844861505  0.2050972395
C   1.2300974535 -0.1225770037  1.1219294973
O   4.7990082978  2.2403269463 -0.6687597677
H  -1.6470933399 -0.9931199006  0.8700099852
H  -0.7650035433 -0.8722396670 -0.7932476203
H  -1.4090541124  0.4172226070 -1.0022235275
H   0.5090054113  1.7425984948 -0.4722390758
H   0.9827100296  0.6311071665 -1.5782285183
H   1.5967908811 -0.8715358127  1.2132450199
H   4.5010524478  1.2922888543 -1.0523086750
H   1.9192359245  0.0417711191  1.9232188877
H   4.9972977001  3.0771761814 -1.0505454834
17
Image 670  Energy = -421.3452473097
C  -1.0419359257 -0.0806114061  0.7478077421
O  -1.3375320003  0.8824139500  1.4452226619
C  -0.7353399306  0.0242212095 -0.5009320670
C   0.6015129425  0.7373620337 -0.6429819291
C   1.6646788562  0.3389151512  0.2368689201
O   2.6878696614  0.3873514420  0.2054542785
C   1.2272982980 -0.1234787837  1.1234099212
O   4.7994579941  2.2404790966 -0.6698275995
H  -1.6451692319 -0.9946137922  0.8713216182
H  -0.7649648837 -0.8719864250 -0.7957219615
H  -1.4099122525  0.4193048304 -1.0023902111
H   0.5088746063  1.7435345924 -0.4742669589
H   0.9832774327  0.6303969065 -1.5792376052
H   1.5946966849 -0.8745901113  1.2137516194
H   4.5033061976  1.2922935527 -1.0525677498
H   1.9162909216  0.0418350463  1.9261532648
H   4.9975906295  3.0771727070 -1.0520639437
17
Image 671  Energy = -421.3530225749
C  -1.0405257560 -0.0814807342  0.7487706595
O  -1.3364717761  0.8811095653  1.4473953359
C  -0.7354241899  0.0247703176 -0.5016869082
C   0.6015777114  0.7377548708 -0.6438465502
C   1.6647486682  0.3399537234  0.2372849125
O   2.6886503021  0.3902164442  0.2058109506
C   1.2244986474 -0.1243809844  1.1248919083
O   4.7999076278  2.2406311099 -0.6708953539
H  -1.6432453062 -0.9961076391  0.8726332024
H  -0.7649261467 -0.8717335952 -0.7981962161
H  -1.4107705959  0.4213870894 -1.0025571336
H   0.5087438057  1.7444707200 -0.4762946575
H   0.9838448267  0.6296867111 -1.5802467503
H   1.5926027426 -0.8776442249  1.2142580546
H   4.5055597965  1.2922983553 -1.0528267433
H   1.9133461203  0.0418990233  1.9290876126
H   4.9978835221  3.0771692475 -1.0535823232
17
Image 672  Energy = -421.3607796049
C  -1.0391161648 -0.0823499450  0.7497337900
O  -1.3354115475  0.8798053127  1.4495679351
C  -0.7355079997  0.0253195279 -0.5024418024
C   0.6016423573  0.7381476323 -0.6447111310
C   1.6648177230  0.3409927782  0.2376995309
O   2.6894325944  0.3930811484  0.2061672207
C   1.2216983746 -0.1252835088  1.1263755162
O   4.8003571959  2.2407829851 -0.6719630220
H  -1.6413215734 -0.9976014287  0.8739447275
H  -0.7648873319 -0.8714811671 -0.8006703582
H  -1.4116291294  0.4234693603 -1.0027242881
H   0.5086130054  1.7454068740 -0.4783221579
H   0.9844122047  0.6289765874 -1.5812559444
H   1.5905091425 -0.8806982827  1.2147643299
H   4.5078132241  1.2923032625 -1.0530856531
H   1.9104015501  0.0419630608  1.9320219157
H   4.9981763748  3.0771658025 -1.0551006084
17
Image 673  Energy = -421.3685097539
C  -1.0377071549 -0.0832190332  0.7506971130
O  -1.3343513228  0.8785012055  1.4517404389
C  -0.7355913688  0.0258688356 -0.5031967389
C   0.6017068904  0.7385403161 -0.6455756728
C   1.6648860602  0.3420323368  0.2381127272
O   2.6902165508  0.3959455467  0.2065230546
C   1.2188973631 -0.1261862736  1.1278608062
O   4.8008066952  2.2409347208 -0.6730305950
H  -1.6393980431 -0.9990951482  0.8752561835
H  -0.7648484386 -0.8712291330 -0.8031443636
H  -1.4124878428  0.4255516216 -1.0028916701
H   0.5084822007  1.7463430512 -0.4803494465
H   0.9849795600  0.6282665419 -1.5822651795
H   1.5884159661 -0.8837524044  1.2152704497
H   4.5100664604  1.2923082752 -1.0533444766
H   1.9074572390  0.0420271689  1.9349561562
H   4.9984691850  3.0771623719 -1.0566187860
17
Image 674  Energy = -421.3762048603
C  -1.0362987348 -0.0840879927  0.7516606234
O  -1.3332911097  0.8771972557  1.4539128267
C  -0.7356742957  0.0264182399 -0.5039517157
C   0.6017713194  0.7389329211 -0.6464401810
C   1.6649537139  0.3430724214  0.2385244531
O   2.6910021873  0.3988096322  0.2068784198
C   1.2160955087 -0.1270892186  1.1293478446
O   4.8012561225  2.2410863153 -0.6740980640
H  -1.6374747232 -1.0005887846  0.8765675617
H  -0.7648094657 -0.8709774904 -0.8056182114
H  -1.4133467307  0.4276338545 -1.0030592784
H   0.5083513872  1.7472792482 -0.4823765087
H   0.9855468863  0.6275565810 -1.5832744478
H   1.5863232841 -0.8868066895  1.2157764180
H   4.5123194860  1.2923133942 -1.0536032113
H   1.9045132145  0.0420913567  1.9378903143
H   4.9987619499  3.0771589555 -1.0581368431
17
Image 675  Energy = -421.3838567387
C  -1.0348909197 -0.0849568165  0.7526243347
O  -1.3322309159  0.8758934737  1.4560850773
C  -0.7357567669  0.0269677443 -0.5047067404
C   0.6018356505  0.7393254481 -0.6473046661
C   1.6650207147  0.3441130540  0.2389346613
O   2.6917895203  0.4016733979  0.2072332855
C   1.2132927200 -0.1279923061  1.1308367002
O   4.8017054743  2.2412377667 -0.6751654202
H  -1.6355516195 -1.0020823247  0.8778788557
H  -0.7647704116 -0.8707262426 -0.8080918844
H  -1.4142057931  0.4297160438 -1.0032271163
H   0.5082205606  1.7482154613 -0.4844033298
H   0.9861141782  0.6268467107 -1.5842837427
H   1.5842311570 -0.8898612171  1.2162822378
H   4.5145722815  1.2923186204 -1.0538618550
H   1.9015695029  0.0421556324  1.9408243694
H   4.9990546668  3.0771555535 -1.0596547668
17
Image 676  Energy = -421.3914562285
C  -1.0334837271 -0.0858254983  0.7535882739
O  -1.3311707494  0.8745898688  1.4582571695
C  -0.7358387610  0.0275173561 -0.5054618270
C   0.6018998887  0.7397178980 -0.6481691401
C   1.6650870900  0.3451542559  0.2393433085
O   2.6925785656  0.4045368370  0.2075876231
C   1.2104889165 -0.1288955090  1.1323274371
O   4.8021547472  2.2413890730 -0.6762326549
H  -1.6336287368 -1.0035757546  0.8791900600
H  -0.7647312739 -0.8704753982 -0.8105653694
H  -1.4150650354  0.4317981777 -1.0033951909
H   0.5080897165  1.7491516870 -0.4864298943
H   0.9866814304  0.6261369371 -1.5852930575
H   1.5821396377 -0.8929160554  1.2167879118
H   4.5168248281  1.2923239546 -1.0541204052
H   1.8986261299  0.0422200039  1.9437583002
H   4.9993473332  3.0771521661 -1.0611725443
17
Image 677  Energy = -421.3989953391
C  -1.0320771708 -0.0866940345  0.7545524713
O  -1.3301106194  0.8732864520  1.4604290833
C  -0.7359202553  0.0280670836 -0.5062169895
C   0.6019640381  0.7401102707 -0.6490336125
C   1.6651528649  0.3461960464  0.2397503589
O   2.6933693346  0.4073999428  0.2079414079
C   1.2076840280 -0.1297987966  1.1338201072
O   4.8026039376  2.2415402323 -0.6772997596
H  -1.6317060802 -1.0050690605  0.8805011696
H  -0.7646920498 -0.8702249705 -0.8130386561
H  -1.4159244661  0.4338802485 -1.0035635113
H   0.5079588514  1.7500879215 -0.4884561872
H   0.9872486385  0.6254272655 -1.5863023865
H   1.5800487748 -0.8959712733  1.2172934432
H   4.5190771078  1.2923293977 -1.0543788601
H   1.8956831190  0.0422844805  1.9466920859
H   4.9996399468  3.0771487937 -1.0626901640
17
Image 678  Energy = -421.4064669144
C  -1.0306712556 -0.0875624257  0.7555169526
O  -1.3290505370  0.8719832359  1.4626008011
C  -0.7360012324  0.0286169355 -0.5069722364
C   0.6020281028  0.7405025638 -0.6498980878
C   1.6652180644  0.3472384424  0.2401557864
O   2.6941618294  0.4102627092  0.2082946207
C   1.2048779990 -0.1307021338  1.1353147457
O   4.8030530426  2.2416912424 -0.6783667269
H  -1.6297836551 -1.0065622297  0.8818121791
H  -0.7646527360 -0.8699749748 -0.8155117368
H  -1.4167840963  0.4359622524 -1.0037320870
H   0.5078279628  1.7510241618 -0.4904821948
H   0.9878157993  0.6247177005 -1.5873117247
H   1.5779586110 -0.8990269405  1.2177988342
H   4.5213291054  1.2923349508 -1.0546372179
H   1.8927404901  0.0423490730  1.9496257081
H   4.9999325055  3.0771454364 -1.0642076155
17
Image 679  Energy = -421.4138643633
C  -1.0292659763 -0.0884306761  0.7564817369
O  -1.3279905140  0.8706802327  1.4647723095
C  -0.7360816812  0.0291669205 -0.5077275702
C   0.6020920852  0.7408947742 -0.6507625676
C   1.6652827162  0.3482814586  0.2405595731
O   2.6949560379  0.4131251321  0.2086472513
C   1.2020707999 -0.1316055025  1.1368113756
O   4.8035020599  2.2418421012 -0.6794335512
H  -1.6278614660 -1.0080552523  0.8831230844
H  -0.7646133298 -0.8697254266 -0.8179846085
H  -1.4176439370  0.4380441905 -1.0039009262
H   0.5076970485  1.7519604063 -0.4925079073
H   0.9883829108  0.6240082453 -1.5883210693
H   1.5758691715 -0.9020831050  1.2183040855
H   4.5235808104  1.2923406159 -1.0548954775
H   1.8897982561  0.0424137910  1.9525591538
H   5.0002250078  3.0771420942 -1.0657248920
17
Image 680  Energy = -421.4211842206
C  -1.0278613205 -0.0892987913  0.7574468392
O  -1.3269305613  0.8693774506  1.4669436002
C  -0.7361615958  0.0297170480 -0.5084829904
C   0.6021559839  0.7412868995 -0.6516270545
C   1.6653468557  0.3493251082  0.2409617054
O   2.6957519296  0.4159872100  0.2089993012
C   1.1992624382 -0.1325089343  1.1383100163
O   4.8039509887  2.2419928068 -0.6805002305
H  -1.6259395142 -1.0095481233  0.8844338836
H  -0.7645738288 -0.8694763399 -0.8204572748
H  -1.4185039989  0.4401260688 -1.0040700354
H   0.5075661069  1.7528966561 -0.4945333214
H   0.9889499729  0.6232989011 -1.5893304212
H   1.5737804510 -0.9051397609  1.2188091940
H   4.5258322191  1.2923463958 -1.0551536383
H   1.8868564203  0.0424786380  1.9554924183
H   5.0005174533  3.0771387666 -1.0672419915
17
Image 681  Energy = -421.4284253034
C  -1.0264572718 -0.0901667768  0.7584122754
O  -1.3258706883  0.8680748925  1.4691146694
C  -0.7362409724  0.0302673286 -0.5092384971
C   0.6022197926  0.7416789398 -0.6524915554
C   1.6654105262  0.3503694037  0.2413621685
O   2.6965494601  0.4188489449  0.2093507825
C   1.1964529555 -0.1334125233  1.1398106911
O   4.8043998302  2.2421433575 -0.6815667658
H  -1.6240177965 -1.0110408420  0.8857445787
H  -0.7645342320 -0.8692277256 -0.8229297451
H  -1.4193642912  0.4422078970 -1.0042394183
H   0.5074351363  1.7538329151 -0.4965584402
H   0.9895169869  0.6225896669 -1.5903397844
H   1.5716924105 -0.9081968352  1.2193141534
H   4.5280833346  1.2923522938 -1.0554117004
H   1.8839149770  0.0425436096  1.9584255046
H   5.0008098424  3.0771354532 -1.0687589165
17
Image 682  Energy = -421.4355898132
C  -1.0250538125 -0.0910346365  0.7593780618
O  -1.3248109029  0.8667725570  1.4712855148
C  -0.7363198088  0.0308177730 -0.5099940927
C   0.6022835018  0.7420708970 -0.6533560791
C   1.6654737756  0.3514143581  0.2417609437
O   2.6973485816  0.4217103409  0.2097017118
C   1.1936424063 -0.1343164010  1.1413134283
O   4.8048485865  2.2422937520 -0.6826331599
H  -1.6220963075 -1.0125334103  0.8870551734
H  -0.7644945390 -0.8689795907 -0.8254020314
H  -1.4202248200  0.4442896844 -1.0044090762
H   0.5073041351  1.7547691880 -0.4985832699
H   0.9900839547  0.6218805411 -1.5913491643
H   1.5696049931 -0.9112542152  1.2198189561
H   4.5303341631  1.2923583139 -1.0556696642
H   1.8809739166  0.0426086953  1.9613584201
H   5.0011021762  3.0771321530 -1.0702756719
17
Image 683  Energy = -421.4426796249
C  -1.0236509246 -0.0919023743  0.7603442131
O  -1.3237512123  0.8654704430  1.4734561336
C  -0.7363981047  0.0313683893 -0.5107497823
C   0.6023471020  0.7424627719 -0.6542206322
C   1.6655366471  0.3524599847  0.2421580100
O   2.6981492592  0.4245714022  0.2100521013
C   1.1908308298 -0.1352206874  1.1428182554
O   4.8052972594  2.2424439893 -0.6836994144
H  -1.6201750427 -1.0140258284  0.8883656709
H  -0.7644547505 -0.8687319380 -0.8278741423
H  -1.4210855876  0.4463714358 -1.0045790083
H   0.5071731022  1.7557054783 -0.5006078148
H   0.9906508774  0.6211715222 -1.5923585650
H   1.5675181487 -0.9143117980  1.2203235965
H   4.5325847091  1.2923644593 -1.0559275300
H   1.8780332322  0.0426738846  1.9642911704
H   5.0013944552  3.0771288653 -1.0717922615
17
Image 684  Energy = -421.4496953673
C  -1.0222485902 -0.0927699939  0.7613107388
O  -1.3226916251  0.8641685531  1.4756265197
C  -0.7364758627  0.0319191818 -0.5115055724
C   0.6024105862  0.7428545636 -0.6550852157
C   1.6655991725  0.3535062972  0.2425533472
O   2.6989514799  0.4274321320  0.2104019538
C   1.1880182329 -0.1361254555  1.1443251940
O   4.8057458497  2.2425940685 -0.6847655286
H  -1.6182540014 -1.0155180932  0.8896760717
H  -0.7644148680 -0.8684847658 -0.8303460796
H  -1.4219465922  0.4484531493 -1.0047492119
H   0.5070420369  1.7566417868 -0.5026320741
H   0.9912177549  0.6204626098 -1.5933679872
H   1.5654318517 -0.9173695284  1.2208280718
H   4.5348349717  1.2923707323 -1.0561852979
H   1.8750929234  0.0427391724  1.9672237559
H   5.0016866798  3.0771255898 -1.0733086853
17
Image 685  Energy = -421.4566350863
C  -1.0208467916 -0.0936375001  0.7622776434
O  -1.3216321502  0.8628668941  1.4777966647
C  -0.7365530880  0.0324701504 -0.5122614695
C   0.6024739504  0.7432462692 -0.6559498254
C   1.6656613692  0.3545533085  0.2429469390
O   2.6997552526  0.4302925316  0.2107512630
C   1.1852045919 -0.1370307268  1.1458342584
O   4.8061943571  2.2427439890 -0.6858314992
H  -1.6163331870 -1.0170101973  0.8909863736
H  -0.7643748936 -0.8682380695 -0.8328178380
H  -1.4228078296  0.4505348174 -1.0049196841
H   0.5069109391  1.7575781116 -0.5046560418
H   0.9917845856  0.6197538047 -1.5943774289
H   1.5633461027 -0.9204274036  1.2213323822
H   4.5370849453  1.2923771344 -1.0564429677
H   1.8721529968  0.0428045599  1.9701561711
H   5.0019788492  3.0771223264 -1.0748249404
17
Image 686  Energy = -421.4634950759
C  -1.0194455114 -0.0945048986  0.7632449273
O  -1.3205727975  0.8615654756  1.4799665587
C  -0.7366297867  0.0330212912 -0.5130174800
C   0.6025371925  0.7436378849 -0.6568144547
C   1.6657232413  0.3556010302  0.2433387733
O   2.7005606039  0.4331526019  0.2111000171
C   1.1823898653 -0.1379364899  1.1473454574
O   4.8066427806  2.2428937501 -0.6868973212
H  -1.6144126051 -1.0185021315  0.8922965726
H  -0.7643348297 -0.8679918420 -0.8352894075
H  -1.4236692952  0.4526164296 -1.0050904223
H   0.5067798091  1.7585144499 -0.5066797090
H   0.9923513673  0.6190451083 -1.5953868861
H   1.5612609192 -0.9234854537  1.2218365297
H   4.5393346210  1.2923836664 -1.0567005394
H   1.8692134626  0.0428700522  1.9730884058
H   5.0022709627  3.0771190753 -1.0763410213
17
Image 687  Energy = -421.4702709749
C  -1.0180447330 -0.0953721963  0.7642125898
O  -1.3195135763  0.8602643080  1.4821361918
C  -0.7367059641  0.0335725982 -0.5137736094
C   0.6026003112  0.7440294075 -0.6576790967
C   1.6657847831  0.3566494715  0.2437288436
O   2.7013675704  0.4360123433  0.2114482025
C   1.1795740065 -0.1388427205  1.1488587970
O   4.8070911190  2.2430433513 -0.6879629895
H  -1.6124922629 -1.0199938859  0.8936066644
H  -0.7642946789 -0.8677460753 -0.8377607764
H  -1.4245309855  0.4546979759 -1.0052614253
H   0.5066486469  1.7594507986 -0.5087030659
H   0.9929180975  0.6183365224 -1.5963963548
H   1.5591763249 -0.9265437197  1.2223405168
H   4.5415839896  1.2923903291 -1.0569580129
H   1.8662743325  0.0429356551  1.9760204478
H   5.0025630191  3.0771158367 -1.0778569223
17
Image 688  Energy = -421.4769585031
C  -1.0166444407 -0.0962394006  0.7651806300
O  -1.3184544953  0.8589634014  1.4843055548
C  -0.7367816241  0.0341240637 -0.5145298620
C   0.6026633052  0.7444208345 -0.6585437457
C   1.6658459815  0.3576986382  0.2441171486
O   2.7021761937  0.4388717572  0.2117958068
C   1.1767569716 -0.1397493937  1.1503742798
O   4.8075393713  2.2431927921 -0.6890284987
H  -1.6105721669 -1.0214854512  0.8949166449
H  -0.7642544439 -0.8675007615 -0.8402319333
H  -1.4253928993  0.4567794481 -1.0054326937
H   0.5065174530  1.7603871556 -0.5107261034
H   0.9934847737  0.6176280484 -1.5974058314
H   1.5570923431 -0.9296022401  1.2228443462
H   4.5438330422  1.2923971233 -1.0572153884
H   1.8633356173  0.0430013735  1.9789522839
H   5.0028550176  3.0771126109 -1.0793726381
17
Image 689  Energy = -421.4835536850
C  -1.0152446191 -0.0971065198  0.7661490477
O  -1.3173955623  0.8576627649  1.4864746400
C  -0.7368567692  0.0346756799 -0.5152862410
C   0.6027261730  0.7448121643 -0.6594083971
C   1.6659068188  0.3587485316  0.2445036946
O   2.7029865146  0.4417308460  0.2121428196
C   1.1739387241 -0.1406564864  1.1518919028
O   4.8079875370  2.2433420719 -0.6900938445
H  -1.6086523234 -1.0229768195  0.8962265109
H  -0.7642141269 -0.8672558935 -0.8427028679
H  -1.4262550378  0.4588608409 -1.0056042294
H   0.5063862277  1.7613235198 -0.5127488138
H   0.9940513944  0.6169196871 -1.5984153128
H   1.5550089938 -0.9326610463  1.2233480204
H   4.5460817718  1.2924040498 -1.0574726663
H   1.8603973259  0.0430672109  1.9818839013
H   5.0031469575  3.0771093983 -1.0808881641
17
Image 690  Energy = -421.4900525253
C  -1.0138452528 -0.0979735628  0.7671178436
O  -1.3163367838  0.8563624069  1.4886434418
C  -0.7369314014  0.0352274392 -0.5160427491
C   0.6027889135  0.7452033958 -0.6602730468
C   1.6659672764  0.3597991481  0.2448884970
O   2.7037985675  0.4445896128  0.2124892338
C   1.1711192359 -0.1415639751  1.1534116531
O   4.8084356156  2.2434911904 -0.6911590232
H  -1.6067327371 -1.0244679848  0.8975362601
H  -0.7641737303 -0.8670114656 -0.8451735725
H  -1.4271174034  0.4609421515 -1.0057760352
H   0.5062549718  1.7622598907 -0.5147711910
H   0.9946179585  0.6162114388 -1.5994247969
H   1.5529262928 -0.9357201643  1.2238515413
H   4.5483301734  1.2924111096 -1.0577298472
H   1.8574594651  0.0431331694  1.9848152890
H   5.0034388383  3.0771061992 -1.0824034975
17
Image 691  Energy = -421.4964528027
C  -1.0124463259 -0.0988405388  0.7680870185
O  -1.3152781655  0.8550623343  1.4908119573
C  -0.7370055236  0.0357793355 -0.5167993886
C   0.6028515260  0.7455945281 -0.6611376909
C   1.6660273355  0.3608504780  0.2452715826
O   2.7046123759  0.4474480618  0.2128350461
C   1.1682984891 -0.1424718326  1.1549335039
O   4.8088836072  2.2436401473 -0.6922240321
H  -1.6048134111 -1.0259589430  0.8988458914
H  -0.7641332560 -0.8667674729 -0.8476440421
H  -1.4279799987  0.4630233790 -1.0059481134
H   0.5061236859  1.7631962687 -0.5167932309
H   0.9951844661  0.6155033030 -1.6004342821
H   1.5508442519 -0.9387796170  1.2243549108
H   4.5505782440  1.2924183037 -1.0579869321
H   1.8545220391  0.0431992505  1.9877464386
H   5.0037306599  3.0771030139 -1.0839186367
17
Image 692  Energy = -421.5027529577
C  -1.0110478215 -0.0997074573  0.7690565734
O  -1.3142197115  0.8537625527  1.4929801866
C  -0.7370791406  0.0363313645 -0.5175561621
C   0.6029140101  0.7459855606 -0.6620023249
C   1.6660869808  0.3619025063  0.2456529894
O   2.7054279488  0.4503061976  0.2131802576
C   1.1654764767 -0.1433800269  1.1564574125
O   4.8093315121  2.2437889425 -0.6932888697
H  -1.6028943466 -1.0274496922  0.9001554048
H  -0.7640927060 -0.8665239115 -0.8501142751
H  -1.4288428255  0.4651045242 -1.0061204654
H   0.5059923715  1.7641326549 -0.5188149311
H   0.9957509187  0.6147952780 -1.6014437671
H   1.5487628781 -0.9418394251  1.2248581302
H   4.5528259835  1.2924256330 -1.0582439221
H   1.8515850489  0.0432654558  1.9906773453
H   5.0040224223  3.0770998426 -1.0854335819
17
Image 693  Energy = -421.5089527713
C  -1.0096497224 -0.1005743276  0.7700265091
O  -1.3131614248  0.8524630662  1.4951481326
C  -0.7371522597  0.0368835237 -0.5183130723
C   0.6029763662  0.7463764922 -0.6628669440
C   1.6661461983  0.3629552128  0.2460327670
O   2.7062452823  0.4531640255  0.2135248735
C   1.1626532020 -0.1442885219  1.1579833211
O   4.8097793313  2.2439375758 -0.6943535356
H  -1.6009755426 -1.0289402325  0.9014648013
H  -0.7640520824 -0.8662807782 -0.8525842732
H  -1.4297058840  0.4671855884 -1.0062930905
H   0.5058610299  1.7650690508 -0.5208362915
H   0.9963173186  0.6140873614 -1.6024532513
H   1.5466821741 -0.9448996074  1.2253612005
H   4.5550733943  1.2924330982 -1.0585008186
H   1.8486484929  0.0433317868  1.9936080075
H   5.0043141260  3.0770966856 -1.0869483351
17
Image 694  Energy = -421.5150530628
C  -1.0082520113 -0.1014411585  0.7709968255
O  -1.3121033072  0.8511638773  1.4973158010
C  -0.7372248905  0.0374358125 -0.5190701222
C   0.6030385947  0.7467673221 -0.6637315435
C   1.6662049737  0.3640085733  0.2464109732
O   2.7070643641  0.4560215513  0.2138689024
C   1.1598286770 -0.1451972796  1.1595111612
O   4.8102270657  2.2440860471 -0.6954180306
H  -1.5990569962 -1.0304305657  0.9027740830
H  -0.7640113871 -0.8660380704 -0.8550540410
H  -1.4305691728  0.4692665740 -1.0064659868
H   0.5057296628  1.7660054583 -0.5228573132
H   0.9968836690  0.6133795497 -1.6034627344
H   1.5446021386 -0.9479601796  1.2258641220
H   4.5573204806  1.2924407003 -1.0587576231
H   1.8457123673  0.0433982449  1.9965384268
H   5.0046057716  3.0770935430 -1.0884628999
17
Image 695  Energy = -421.5210547651
C  -1.0068546720 -0.1023079584  0.7719675221
O  -1.3110453596  0.8498649875  1.4994831987
C  -0.7372970442  0.0379882310 -0.5198273141
C   0.6031006962  0.7471580501 -0.6645961196
C   1.6662632887  0.3650625603  0.2467876709
O   2.7078851817  0.4588787814  0.2142123548
C   1.1570029198 -0.1461062637  1.1610408598
O   4.8106747169  2.2442343562 -0.6964823558
H  -1.5971387038 -1.0319206946  0.9040832520
H  -0.7639706220 -0.8657957863 -0.8575235850
H  -1.4314326895  0.4713474834 -1.0066391510
H   0.5055982717  1.7669418795 -0.5248779992
H   0.9974499734  0.6126718396 -1.6044722166
H   1.5425227673 -0.9510211530  1.2263668947
H   4.5595672480  1.2924484404 -1.0590143371
H   1.8427766674  0.0434648316  1.9994686061
H   5.0048973599  3.0770904150 -1.0899772803
17
Image 696  Energy = -421.5269601148
C  -1.0054576907 -0.1031747346  0.7729385975
O  -1.3099875820  0.8485663976  1.5016503335
C  -0.7373687321  0.0385407799 -0.5205846498
C   0.6031626709  0.7475486769 -0.6654606703
C   1.6663211148  0.3661171442  0.2471629247
O   2.7087077334  0.4617357237  0.2145552411
C   1.1541759512 -0.1470154436  1.1625723469
O   4.8111222863  2.2443825028 -0.6975465127
H  -1.5952206609 -1.0334106222  0.9053923107
H  -0.7639297887 -0.8655539245 -0.8599929128
H  -1.4322964313  0.4734283195 -1.0068125800
H   0.5054668576  1.7678783168 -0.5268983526
H   0.9980162349  0.6119642274 -1.6054816986
H   1.5404440542 -0.9540825333  1.2268695181
H   4.5618137025  1.2924563199 -1.0592709620
H   1.8398413883  0.0435315477  2.0023985477
H   5.0051888918  3.0770873015 -1.0914914811
17
Image 697  Energy = -421.5327709825
C  -1.0040610567 -0.1040414934  0.7739100499
O  -1.3089299743  0.8472681082  1.5038172127
C  -0.7374399648  0.0390934594 -0.5213421298
C   0.6032245186  0.7479392045 -0.6663251970
C   1.6663784097  0.3671722938  0.2475367971
O   2.7095320355  0.4645923875  0.2148975702
C   1.1513477918 -0.1479247969  1.1641055618
O   4.8115697754  2.2445304861 -0.6986105029
H  -1.5933028639 -1.0349003508  0.9067012605
H  -0.7638888885 -0.8653124849 -0.8624620315
H  -1.4331603962  0.4755090854 -1.0069862707
H   0.5053354210  1.7688147729 -0.5289183768
H   0.9985824557  0.6112567101 -1.6064911814
H   1.5383659928 -0.9571443189  1.2273719913
H   4.5640598494  1.2924643405 -1.0595274989
H   1.8369065265  0.0435983936  2.0053282522
H   5.0054803679  3.0770842029 -1.0930055065
17
Image 698  Energy = -421.5384887218
C  -1.0026647627 -0.1049082404  0.7748818774
O  -1.3078725362  0.8459701198  1.5059838423
C  -0.7375107511  0.0396462693 -0.5220997535
C   0.6032862385  0.7483296366 -0.6671897041
C   1.6664351160  0.3682279767  0.2479093471
O   2.7103581267  0.4674487838  0.2152393477
C   1.1485184603 -0.1488343112  1.1656404568
O   4.8120171859  2.2446783050 -0.6996743272
H  -1.5913853097 -1.0363898816  0.9080101021
H  -0.7638479223 -0.8650714680 -0.8649309475
H  -1.4340245827  0.4775897841 -1.0071602213
H   0.5052039618  1.7697512501 -0.5309380749
H   0.9991486369  0.6105492851 -1.6075006664
H   1.5362885772 -0.9602065014  1.2278743128
H   4.5663056929  1.2924725043 -1.0597839487
H   1.8339720797  0.0436653683  2.0082577173
H   5.0057717887  3.0770811190 -1.0945193599
17
Image 699  Energy = -421.5441145310
C  -1.0012688047 -0.1057749801  0.7758540788
O  -1.3068152673  0.8446724331  1.5081502273
C  -0.7375810982  0.0401992088 -0.5228575204
C   0.6033478292  0.7487199786 -0.6680541998
C   1.6664911629  0.3692841600  0.2482806288
O   2.7111860663  0.4703049256  0.2155805768
C   1.1456879732 -0.1497439840  1.1671769979
O   4.8124645190  2.2448259584 -0.7007379861
H  -1.5894679965 -1.0378792148  0.9093188356
H  -0.7638068909 -0.8648308747 -0.8673996660
H  -1.4348889901  0.4796704183 -1.0073344304
H   0.5050724788  1.7706877510 -0.5329574492
H   0.9997147785  0.6098419508 -1.6085101554
H   1.5342118017 -0.9632690652  1.2283764809
H   4.5685512360  1.2924808138 -1.0600403120
H   1.8310380473  0.0437324704  2.0111869376
H   5.0060631548  3.0770780501 -1.0960330441
17
Image 700  Energy = -421.5496487232
C  -0.9998731809 -0.1066417163  0.7768266539
O  -1.3057581675  0.8433750485  1.5103163711
C  -0.7376510112  0.0407522767 -0.5236154300
C   0.6034092891  0.7491102369 -0.6689186953
C   1.6665464715  0.3703408100  0.2486506922
O   2.7120159268  0.4731608270  0.2159212579
C   1.1428563452 -0.1506538209  1.1687151616
O   4.8129117763  2.2449734446 -0.7018014799
H  -1.5875509228 -1.0393683495  0.9106274603
H  -0.7637657950 -0.8645907064 -0.8698681911
H  -1.4357536181  0.4817509903 -1.0075088973
H   0.5049409706  1.7716242778 -0.5349765018
H   1.0002808792  0.6091347058 -1.6095196506
H   1.5321356607 -0.9663319894  1.2288784935
H   4.5707964807  1.2924892717 -1.0602965892
H   1.8281044292  0.0437996972  2.0141159062
H   5.0063544661  3.0770749959 -1.0975465610
17
Image 701  Energy = -421.5550915263
C  -0.9984778901 -0.1075084524  0.7777996045
O  -1.3047012370  0.8420779660  1.5124822765
C  -0.7377204941  0.0413054718 -0.5243734831
C   0.6034706163  0.7495004190 -0.6697832033
C   1.6666009620  0.3713978930  0.2490195840
O   2.7128477838  0.4760165028  0.2162613910
C   1.1400235917 -0.1515638328  1.1702549305
O   4.8133589589  2.2451207621 -0.7028648083
H  -1.5856340876 -1.0408572842  0.9119359751
H  -0.7637246350 -0.8643509637 -0.8723365263
H  -1.4366184668  0.4838315021 -1.0076836217
H   0.5048094354  1.7725608329 -0.5369952346
H   1.0008469376  0.6084275492 -1.6105291542
H   1.5300601479 -0.9693952493  1.2293803481
H   4.5730414284  1.2924978806 -1.0605527807
H   1.8251712258  0.0438670461  2.0170446152
H   5.0066457230  3.0770719567 -1.0990599125
17
Image 702  Energy = -421.5604435492
C  -0.9970829311 -0.1083751914  0.7787729342
O  -1.3036444758  0.8407811844  1.5146479464
C  -0.7377895493  0.0418587929 -0.5251316813
C   0.6035318090  0.7498905323 -0.6706477372
C   1.6666545619  0.3724553761  0.2493873489
O   2.7136817035  0.4788719676  0.2166009769
C   1.1371897301 -0.1524740323  1.1717962878
O   4.8138060682  2.2452679093 -0.7039279716
H  -1.5837174893 -1.0423460177  0.9132443793
H  -0.7636834118 -0.8641116467 -0.8748046748
H  -1.4374835364  0.4859119561 -1.0078586034
H   0.5046778711  1.7734974181 -0.5390136495
H   1.0014129521  0.6077204798 -1.6115386686
H   1.5279852556 -0.9724588184  1.2298820419
H   4.5752860808  1.2925066435 -1.0608088866
H   1.8222384359  0.0439345143  2.0199730583
H   5.0069369254  3.0770689321 -1.1005731003
17
Image 703  Energy = -421.5657047415
C  -0.9956883012 -0.1092419361  0.7797466482
O  -1.3025878836  0.8394847010  1.5168133838
C  -0.7378581788  0.0424122385 -0.5258900272
C   0.6035928662  0.7502805834 -0.6715123094
C   1.6667072133  0.3735132276  0.2497540306
O   2.7145177326  0.4817272345  0.2169400192
C   1.1343547822 -0.1533844310  1.1733392121
O   4.8142531054  2.2454148847 -0.7049909703
H  -1.5818011254 -1.0438345490  0.9145526726
H  -0.7636421262 -0.8638727538 -0.8772726402
H  -1.4383488278  0.4879923554 -1.0080338422
H   0.5045462763  1.7744340356 -0.5410317494
H   1.0019789220  0.6070134964 -1.6125481963
H   1.5259109738 -0.9755226713  1.2303835720
H   4.5775304408  1.2925155628 -1.0610649072
H   1.8193060568  0.0440020991  2.0229012312
H   5.0072280737  3.0770659218 -1.1020861272
17
Image 704  Energy = -421.5708756838
C  -0.9942939960 -0.1101086891  0.7807207525
O  -1.3015314596  0.8381885115  1.5189785926
C  -0.7379263844  0.0429658073 -0.5266485242
C   0.6036537870  0.7506705780 -0.6723769302
C   1.6667588784  0.3745714185  0.2501196725
O   2.7153558901  0.4845823148  0.2172785254
C   1.1315187750 -0.1542950370  1.1748836751
O   4.8147000720  2.2455616870 -0.7060538054
H  -1.5798849923 -1.0453228785  0.9158608556
H  -0.7636007794 -0.8636342819 -0.8797404267
H  -1.4392143416  0.4900727038 -1.0082093377
H   0.5044146496  1.7753706872 -0.5430495382
H   1.0025448473  0.6063065970 -1.6135577397
H   1.5238372902 -0.9785867843  1.2308849355
H   4.5797745124  1.2925246410 -1.0613208431
H   1.8163740830  0.0440697991  2.0258291330
H   5.0075191683  3.0770629255 -1.1035989968
17
Image 705  Energy = -421.5757233535
C  -0.9928998023 -0.1109756454  0.7816951530
O  -1.3004752553  0.8368927513  1.5211437066
C  -0.7379941468  0.0435194890 -0.5274071266
C   0.6037145812  0.7510604956 -0.6732415920
C   1.6668094766  0.3756298701  0.2504844893
O   2.7161962542  0.4874373562  0.2176164313
C   1.1286820744 -0.1552064690  1.1764294697
O   4.8151469834  2.2457083253 -0.7071164974
H  -1.5779690864 -1.0468110226  0.9171689491
H  -0.7635593669 -0.8633962260 -0.8822080595
H  -1.4400800912  0.4921530335 -1.0083850978
H   0.5042829845  1.7763073810 -0.5450670336
H   1.0031107377  0.6055997605 -1.6145673100
H   1.5217636154 -0.9816505452  1.2313860933
H   4.5820183177  1.2925338600 -1.0615766961
H   1.8134425107  0.0441376283  2.0287568425
H   5.0078102131  3.0770599574 -1.1051117215
17
Image 706  Energy = -421.5807299039
C  -0.9915059228 -0.1118426113  0.7826699575
O  -1.2994192149  0.8355972691  1.5233086018
C  -0.7380614925  0.0440732911 -0.5281658893
C   0.6037752411  0.7514503631 -0.6741063145
C   1.6668590721  0.3766886131  0.2508483504
O   2.7170386972  0.4902922230  0.2179538307
C   1.1258443797 -0.1561180886  1.1779767206
O   4.8155938267  2.2458547882 -0.7081790298
H  -1.5760533998 -1.0482989689  0.9184769349
H  -0.7635178961 -0.8631585800 -0.8846755242
H  -1.4409460635  0.4942333214 -1.0085611110
H   0.5041512866  1.7772441133 -0.5470842287
H   1.0036765870  0.6048930025 -1.6155769011
H   1.5196905229 -0.9847145508  1.2318870818
H   4.5842618481  1.2925432422 -1.0618324662
H   1.8105113226  0.0442055707  2.0316842867
H   5.0081012055  3.0770570017 -1.1066242994
17
Image 707  Energy = -421.5856544885
C  -0.9901123512 -0.1127095879  0.7836451710
O  -1.2983633348  0.8343020545  1.5254732853
C  -0.7381284247  0.0446272121 -0.5289248167
C   0.6038357676  0.7518401823 -0.6749711012
C   1.6669076859  0.3777476283  0.2512112975
O   2.7178831598  0.4931469194  0.2182907429
C   1.1230057300 -0.1570298916  1.1795253791
O   4.8160406033  2.2460010746 -0.7092414055
H  -1.5741379247 -1.0497867213  0.9197848159
H  -0.7634763686 -0.8629213356 -0.8871428273
H  -1.4418122580  0.4963135729 -1.0087373748
H   0.5040195560  1.7781808863 -0.5491011310
H   1.0042423979  0.6041863197 -1.6165865157
H   1.5176179955 -0.9877787877  1.2323878996
H   4.5865051125  1.2925527893 -1.0620881543
H   1.8075805073  0.0442736263  2.0346114730
H   5.0083921465  3.0770540582 -1.1081367376
17
Image 708  Energy = -421.5905001496
C  -0.9887190817 -0.1135765756  0.7846207988
O  -1.2973076107  0.8330070959  1.5276377644
C  -0.7381949455  0.0451812504 -0.5296839123
C   0.6038961622  0.7522299543 -0.6758359543
C   1.6669553482  0.3788068986  0.2515733714
O   2.7187295701  0.4960014484  0.2186271894
C   1.1201661657 -0.1579418718  1.1810753931
O   4.8164873145  2.2461471835 -0.7103036281
H  -1.5722226529 -1.0512742844  0.9210925957
H  -0.7634347861 -0.8626844849 -0.8896099759
H  -1.4426786758  0.4983937950 -1.0089138875
H   0.5038877927  1.7791177022 -0.5511177484
H   1.0048081738  0.6034797085 -1.6175961568
H   1.5155460153 -0.9908432442  1.2328885466
H   4.5887481204  1.2925625029 -1.0623437616
H   1.8046500527  0.0443417951  2.0375384093
H   5.0086830370  3.0770511261 -1.1096490434
17
Image 709  Energy = -421.5952714237
C  -0.9873261096 -0.1144435745  0.7855968468
O  -1.2962520373  0.8317123807  1.5298020460
C  -0.7382610533  0.0457354031 -0.5304431781
C   0.6039564268  0.7526196793 -0.6767008748
C   1.6670020930  0.3798664087  0.2519346124
O   2.7195778518  0.4988558117  0.2189631919
C   1.1173257276 -0.1588540219  1.1826267090
O   4.8169339617  2.2462931138 -0.7113657009
H  -1.5703075758 -1.0527616632  0.9224002781
H  -0.7633931498 -0.8624480208 -0.8920769770
H  -1.4435453214  0.5004739978 -1.0090906495
H   0.5037559971  1.7800545632 -0.5531340894
H   1.0053739181  0.6027731656 -1.6186058277
H   1.5134745650 -0.9939079088  1.2333890236
H   4.5909908815  1.2925723843 -1.0625992892
H   1.8017199464  0.0444100762  2.0404651033
H   5.0089738782  3.0770482047 -1.1111612241
17
Image 710  Energy = -421.5999724968
C  -0.9859334314 -0.1153105838  0.7865733215
O  -1.2951966091  0.8304178954  1.5319661369
C  -0.7383267435  0.0462896664 -0.5312026132
C   0.6040165635  0.7530093567 -0.6775658619
C   1.6670479522  0.3809261440  0.2522950608
O   2.7204279296  0.5017100109  0.2192987725
C   1.1144844560 -0.1597663334  1.1841792705
O   4.8173805461  2.2464388649 -0.7124276277
H  -1.5683926850 -1.0542488632  0.9237078675
H  -0.7633514600 -0.8622119385 -0.8945438382
H  -1.4444122035  0.5025541948 -1.0092676646
H   0.5036241697  1.7809914714 -0.5551501622
H   1.0059396342  0.6020666875 -1.6196155313
H   1.5114036274 -0.9969727700  1.2338893330
H   4.5932334059  1.2925824349 -1.0628547381
H   1.7987901766  0.0444784684  2.0433915621
H   5.0092646712  3.0770452933 -1.1126732873
17
Image 711  Energy = -421.6046070924
C  -0.9845410440 -0.1161776024  0.7875502274
O  -1.2941413195  0.8291236264  1.5341300444
C  -0.7383920098  0.0468440355 -0.5319622130
C   0.6040765746  0.7533989846 -0.6784309128
C   1.6670929545  0.3819860904  0.2526547584
O   2.7212797299  0.5045640470  0.2196339537
C   1.1116423920 -0.1606787951  1.1857330166
O   4.8178270692  2.2465844358 -0.7134894122
H  -1.5664779721 -1.0557358907  0.9250153684
H  -0.7633097165 -0.8619762350 -0.8970105678
H  -1.4452793337  0.5046344028 -1.0094449382
H   0.5034923117  1.7819284288 -0.5571659756
H   1.0065053261  0.6013602708 -1.6206252703
H   1.5093331849 -1.0000378162  1.2343894780
H   4.5954757038  1.2925926560 -1.0631101095
H   1.7958607317  0.0445469699  2.0463177936
H   5.0095554172  3.0770423912 -1.1141852407
17
Image 712  Energy = -421.6091804261
C  -0.9831489448 -0.1170446289  0.7885275665
O  -1.2930861617  0.8278295600  1.5362937763
C  -0.7384568474  0.0473985067 -0.5327219708
C   0.6041364625  0.7537885596 -0.6792960214
C   1.6671371229  0.3830462346  0.2530137473
O   2.7221331838  0.5074179212  0.2199687582
C   1.1087995763 -0.1615913936  1.1872878817
O   4.8182735328  2.2467298262 -0.7145510589
H  -1.5645634288 -1.0572227530  0.9263227855
H  -0.7632679189 -0.8617409089 -0.8994771754
H  -1.4461467236  0.5067146388 -1.0096224753
H   0.5033604246  1.7828654369 -0.5591815384
H   1.0070709984  0.6006539119 -1.6216350472
H   1.5072632203 -1.0031030366  1.2348894631
H   4.5977177861  1.2926030491 -1.0633654044
H   1.7929315999  0.0446155783  2.0492438060
H   5.0098461175  3.0770394976 -1.1156970924
17
Image 713  Energy = -421.6136967999
C  -0.9817571328 -0.1179116605  0.7895053363
O  -1.2920311278  0.8265356828  1.5384573406
C  -0.7385212555  0.0479530783 -0.5334818785
C   0.6041962296  0.7541780779 -0.6801611814
C   1.6671804696  0.3841065633  0.2533720684
O   2.7229882367  0.5102716362  0.2203032067
C   1.1059560465 -0.1625041158  1.1888438026
O   4.8187199387  2.2468750358 -0.7156125724
H  -1.5626490472 -1.0587094576  0.9276301231
H  -0.7632260670 -0.8615059594 -0.9019436710
H  -1.4470143802  0.5087949167 -1.0098002773
H   0.5032285099  1.7838024973 -0.5611968593
H   1.0076366554  0.5999476074 -1.6226448643
H   1.5051937170 -1.0061684201  1.2353892937
H   4.5999596632  1.2926136156 -1.0636206237
H   1.7900027705  0.0446842906  2.0521696066
H   5.0101367732  3.0770366114 -1.1172088499
17
Image 714  Energy = -421.6181605638
C  -0.9803656122 -0.1187786925  0.7904835300
O  -1.2909762101  0.8252419829  1.5406207440
C  -0.7385852389  0.0485077517 -0.5342419295
C   0.6042558784  0.7545675378 -0.6810263894
C   1.6672229853  0.3851670628  0.2537297567
O   2.7238448673  0.5131251980  0.2206373146
C   1.1031118321 -0.1634169563  1.1904007333
O   4.8191662887  2.2470200641 -0.7166739562
H  -1.5607348211 -1.0601960111  0.9289373842
H  -0.7631841611 -0.8612713855 -0.9044100633
H  -1.4478823031  0.5108752431 -1.0099783406
H   0.5030965683  1.7847396117 -0.5632119462
H   1.0082022997  0.5992413546 -1.6236547245
H   1.5031246622 -1.0092339527  1.2358889767
H   4.6022013439  1.2926243572 -1.0638757682
H   1.7870742352  0.0447531022  2.0550951985
H   5.0104273854  3.0770337321 -1.1187205198
17
Image 715  Energy = -421.6216681086
C  -0.9789744230 -0.1196457322  0.7914621406
O  -1.2899213987  0.8239484736  1.5427839874
C  -0.7386488615  0.0490625021 -0.5350021074
C   0.6043152899  0.7549570082 -0.6818917750
C   1.6672648549  0.3862276482  0.2540870134
O   2.7247030400  0.5159786325  0.2209710394
C   1.1002669585 -0.1643299223  1.1919586429
O   4.8196125786  2.2471649284 -0.7177352318
H  -1.5588207458 -1.0616824115  0.9302445631
H  -0.7631421861 -0.8610372042 -0.9068763746
H  -1.4487504835  0.5129556366 -1.0101566676
H   0.5029646152  1.7856767693 -0.5652267997
H   1.0087679364  0.5985351599 -1.6246646188
H   1.5010560458 -1.0122995987  1.2363885189
H   4.6044428490  1.2926353060 -1.0641308396
H   1.7841459997  0.0448219980  2.0580205960
H   5.0107179307  3.0770308058 -1.1202320868
17
Image 716  Energy = -421.6260335486
C  -0.9775835503 -0.1205127587  0.7924411532
O  -1.2888666890  0.8226551223  1.5449470762
C  -0.7387120786  0.0496173658 -0.5357624210
C   0.6043745917  0.7553464275 -0.6827572191
C   1.6673058200  0.3872883758  0.2544436829
O   2.7255628409  0.5188319358  0.2213044350
C   1.0974214321 -0.1652430230  1.1935175388
O   4.8200588146  2.2473096088 -0.7187963809
H  -1.5569068197 -1.0631686683  0.9315516671
H  -0.7631001593 -0.8608033963 -0.9093425931
H  -1.4496189110  0.5150360710 -1.0103352363
H   0.5028326313  1.7866139859 -0.5672414310
H   1.0093335581  0.5978290155 -1.6256745653
H   1.4989878667 -1.0153653597  1.2368879313
H   4.6066841675  1.2926464342 -1.0643858375
H   1.7812180514  0.0448909779  2.0609457735
H   5.0110084336  3.0770278855 -1.1217435734
17
Image 717  Energy = -421.6303537562
C  -0.9761930041 -0.1213797653  0.7934205592
O  -1.2878120732  0.8213619185  1.5471100142
C  -0.7387749014  0.0501723502 -0.5365228677
C   0.6044337885  0.7557357979 -0.6836227252
C   1.6673458881  0.3883492394  0.2547997844
O   2.7264242451  0.5216851141  0.2216375110
C   1.0945752703 -0.1661562605  1.1950774031
O   4.8205049971  2.2474541035 -0.7198574050
H  -1.5549930382 -1.0646547863  0.9328586978
H  -0.7630580821 -0.8605699601 -0.9118087259
H  -1.4504875741  0.5171165419 -1.0105140360
H   0.5027006152  1.7875512641 -0.5692558465
H   1.0098991651  0.5971229196 -1.6266845683
H   1.4969201178 -1.0184312273  1.2373872231
H   4.6089253057  1.2926577435 -1.0646407631
H   1.7782903853  0.0449600362  2.0638707293
H   5.0112988950  3.0770249703 -1.1232549842
17
Image 718  Energy = -421.6346321309
C  -0.9748027855 -0.1222467472  0.7944003545
O  -1.2867575427  0.8200688498  1.5492728092
C  -0.7388373400  0.0507274612 -0.5372834445
C   0.6044928856  0.7561251167 -0.6844882870
C   1.6673851336  0.3894102450  0.2551553389
O   2.7272871397  0.5245381627  0.2219702887
C   1.0917284993 -0.1670696187  1.1966381864
O   4.8209511269  2.2475984114 -0.7209183073
H  -1.5530793931 -1.0661407734  0.9341656595
H  -0.7630159555 -0.8603368939 -0.9142747845
H  -1.4513564664  0.5191970522 -1.0106930591
H   0.5025685684  1.7884886055 -0.5712700537
H   1.0104647621  0.5964168688 -1.6276946298
H   1.4948527868 -1.0214972064  1.2378864030
H   4.6111662739  1.2926692352 -1.0648956177
H   1.7753629912  0.0450291714  2.0667954704
H   5.0115893158  3.0770220596 -1.1247663267
17
Image 719  Energy = -421.6388735312
C  -0.9734128919 -0.1231137006  0.7953805377
O  -1.2857030890  0.8187759034  1.5514354685
C  -0.7388993992  0.0512827012 -0.5380441456
C   0.6045518886  0.7565143788 -0.6853538946
C   1.6674236576  0.3904714055  0.2555103638
O   2.7281513816  0.5273910724  0.2223027924
C   1.0888811450 -0.1679830758  1.1981998340
O   4.8213972043  2.2477425312 -0.7219790911
H  -1.5511658756 -1.0676266378  0.9354725566
H  -0.7629737798 -0.8601041969 -0.9167407804
H  -1.4522255886  0.5212776102 -1.0108723032
H   0.5024364931  1.7894260112 -0.5732840597
H   1.0110303548  0.5957108588 -1.6287047506
H   1.4927858613 -1.0245633085  1.2383854791
H   4.6134070825  1.2926809104 -1.0651504029
H   1.7724358580  0.0450983839  2.0697200051
H   5.0118796975  3.0770191525 -1.1262776088
17
Image 720  Energy = -421.6430818056
C  -0.9720233260 -0.1239806224  0.7963611064
O  -1.2846487063  0.8174830711  1.5535979941
C  -0.7389610761  0.0518380692 -0.5388049615
C   0.6046108026  0.7569035832 -0.6862195458
C   1.6674615193  0.3915327299  0.2558648664
O   2.7290168920  0.5302438394  0.2226350340
C   1.0860332196 -0.1688966233  1.1997623255
O   4.8218432291  2.2478864613 -0.7230397569
H  -1.5492524824 -1.0691123839  0.9367793907
H  -0.7629315546 -0.8598718710 -0.9192067186
H  -1.4530949479  0.5233582253 -1.0110517710
H   0.5023043899  1.7903634827 -0.5752978681
H   1.0115959455  0.5950048881 -1.6297149323
H   1.4907193378 -1.0276295409  1.2388844602
H   4.6156477367  1.2926927706 -1.0654051201
H   1.7695089806  0.0451676723  2.0726443318
H   5.0121700404  3.0770162482 -1.1277888343
17
Image 721  Energy = -421.6472575696
C  -0.9706340986 -0.1248475088  0.7973420555
O  -1.2835943917  0.8161903505  1.5557603808
C  -0.7390223606  0.0523935610 -0.5395658796
C   0.6046696320  0.7572927346 -0.6870852495
C   1.6674987120  0.3925942184  0.2562188436
O   2.7298836864  0.5330964693  0.2229670096
C   1.0831847202 -0.1698102693  1.2013256830
O   4.8222892001  2.2480301993 -0.7241003018
H  -1.5473392163 -1.0705980111  0.9380861593
H  -0.7628892789 -0.8596399207 -0.9216725957
H  -1.4539645560  0.5254389050 -1.0112314688
H   0.5021722562  1.7913010223 -0.5773114783
H   1.0121615314  0.5942989580 -1.6307251783
H   1.4886532232 -1.0306959048  1.2393833554
H   4.6178882348  1.2927048182 -1.0656597698
H   1.7665823615  0.0452370317  2.0755684373
H   5.0124603443  3.0770133463 -1.1293000025
17
Image 722  Energy = -421.6513990183
C  -0.9692452225 -0.1257143567  0.7983233785
O  -1.2825401447  0.8148977423  1.5579226212
C  -0.7390832397  0.0529491713 -0.5403268858
C   0.6047283812  0.7576818393 -0.6879510174
C   1.6675351983  0.3936558679  0.2565722883
O   2.7307518207  0.5359489717  0.2232987085
C   1.0803356384 -0.1707240250  1.2028899424
O   4.8227351161  2.2481737430 -0.7251607217
H  -1.5454260833 -1.0720835162  0.9393928584
H  -0.7628469515 -0.8594083519 -0.9241384050
H  -1.4548344259  0.5275196552 -1.0114114041
H   0.5020400889  1.7922386319 -0.5793248873
H   1.0127271077  0.5935930711 -1.6317354921
H   1.4865875294 -1.0337624033  1.2398821743
H   4.6201285722  1.2927170557 -1.0659143528
H   1.7636560063  0.0453064574  2.0784923049
H   5.0127506085  3.0770104462 -1.1308111101
17
Image 723  Energy = -421.6555033503
C  -0.9678567065 -0.1265811634  0.7993050690
O  -1.2814859651  0.8136052475  1.5600847094
C  -0.7391437028  0.0535048960 -0.5410879668
C   0.6047870547  0.7580709009 -0.6888168565
C   1.6675709556  0.3947176802  0.2569251945
O   2.7316213260  0.5388013526  0.2236301236
C   1.0774859707 -0.1716378903  1.2044551243
O   4.8231809758  2.2483170907 -0.7262210126
H  -1.5435130884 -1.0735688975  0.9406994847
H  -0.7628045714 -0.8591771704 -0.9266041418
H  -1.4557045693  0.5296004822 -1.0115915830
H   0.5019078861  1.7931763128 -0.5813380922
H   1.0132926718  0.5928872292 -1.6327458757
H   1.4845222664 -1.0368290505  1.2403809258
H   4.6223687450  1.2927294850 -1.0661688697
H   1.7607299190  0.0453759475  2.0814159222
H   5.0130408324  3.0770075472 -1.1323221549
17
Image 724  Energy = -421.6595701929
C  -0.9664685548 -0.1274479269  0.8002871214
O  -1.2804318525  0.8123128663  1.5622466427
C  -0.7392037431  0.0540607329 -0.5418491113
C   0.6048456575  0.7584599197 -0.6896827668
C   1.6676059964  0.3957796658  0.2572775580
O   2.7324921843  0.5416536113  0.2239612554
C   1.0746357219 -0.1725518515  1.2060212272
O   4.8236267781  2.2484602410 -0.7272811718
H  -1.5416002340 -1.0750541547  0.9420060366
H  -0.7627621378 -0.8589463819 -0.9290698055
H  -1.4565749952  0.5316813920 -1.0117720094
H   0.5017756474  1.7941140656 -0.5833510909
H   1.0138582233  0.5921814328 -1.6337563298
H   1.4824574407 -1.0398958737  1.2408796188
H   4.6246087519  1.2927421077 -1.0664233215
H   1.7578041000  0.0454455045  2.0843392837
H   5.0133310160  3.0770046489 -1.1338331366
17
Image 725  Energy = -421.6635981840
C  -0.9650807687 -0.1283146451  0.8012695315
O  -1.2793778066  0.8110205985  1.5644084206
C  -0.7392633564  0.0546166812 -0.5426103094
C   0.6049041947  0.7588488938 -0.6905487444
C   1.6676403584  0.3968418421  0.2576293749
O   2.7333643437  0.5445057420  0.2242921089
C   1.0717849021 -0.1734658860  1.2075882371
O   4.8240725216  2.2486031925 -0.7283411968
H  -1.5396875209 -1.0765392890  0.9433125135
H  -0.7627196501 -0.8587159924 -0.9315353983
H  -1.4574457107  0.5337623907 -1.0119526852
H   0.5016433732  1.7950518902 -0.5853638821
H   1.0144237636  0.5914756816 -1.6347668538
H   1.4803930563 -1.0429629102  1.2413782614
H   4.6268485928  1.2927549249 -1.0666777092
H   1.7548785474  0.0455151344  2.0872623877
H   5.0136211593  3.0770017506 -1.1353440559
17
Image 726  Energy = -421.6675876563
C  -0.9636933495 -0.1291813166  0.8022522963
O  -1.2783238278  0.8097284447  1.5665700423
C  -0.7393225391  0.0551727410 -0.5433715526
C   0.6049626712  0.7592378217 -0.6914147849
C   1.6676740831  0.3979042285  0.2579806399
O   2.7342377477  0.5473577374  0.2246226899
C   1.0689335230 -0.1743799702  1.2091561386
O   4.8245182053  2.2487459440 -0.7294010851
H  -1.5377749501 -1.0780243010  0.9446189152
H  -0.7626771074 -0.8584860091 -0.9340009233
H  -1.4583167218  0.5358434841 -1.0121336118
H   0.5015110644  1.7959897865 -0.5873764642
H   1.0149892943  0.5907699754 -1.6357774471
H   1.4783291171 -1.0460302003  1.2418768614
H   4.6290882676  1.2927679377 -1.0669320341
H   1.7519532594  0.0455848441  2.0901852335
H   5.0139112624  3.0769988519 -1.1368549137
17
Image 727  Energy = -421.6715386712
C  -0.9623062981 -0.1300479395  0.8032354147
O  -1.2772699174  0.8084364061  1.5687315060
C  -0.7393812871  0.0557289125 -0.5441328331
C   0.6050210914  0.7596267025 -0.6922808853
C   1.6677071974  0.3989668412  0.2583313469
O   2.7351123589  0.5502095922  0.2249530015
C   1.0660815932 -0.1752940845  1.2107249211
O   4.8249638277  2.2488884943 -0.7304608338
H  -1.5358625231 -1.0795091906  0.9459252410
H  -0.7626345086 -0.8582564397 -0.9364663829
H  -1.4591880341  0.5379246768 -1.0123147896
H   0.5013787211  1.7969277542 -0.5893888350
H   1.0155548163  0.5900643145 -1.6367881090
H   1.4762656272 -1.0490977792  1.2423754256
H   4.6313277750  1.2927811472 -1.0671862971
H   1.7490282348  0.0456546396  2.0931078191
H   5.0142013254  3.0769959520 -1.1383657098
17
Image 728  Energy = -421.6754500613
C  -0.9609196152 -0.1309145120  0.8042188865
O  -1.2762160768  0.8071444843  1.5708928090
C  -0.7394395975  0.0562851970 -0.5448941452
C   0.6050794589  0.7600155369 -0.6931470445
C   1.6677397085  0.4000296890  0.2586814903
O   2.7359881662  0.5530613056  0.2252830438
C   1.0632291164 -0.1762082182  1.2122945811
O   4.8254093880  2.2490308422 -0.7315204398
H  -1.5339502423 -1.0809939572  0.9472314898
H  -0.7625918528 -0.8580272907 -0.9389317792
H  -1.4600596499  0.5400059707 -1.0124962175
H   0.5012463433  1.7978657930 -0.5914009922
H   1.0161203296  0.5893586994 -1.6377988392
H   1.4742025898 -1.0521656687  1.2428739598
H   4.6335671129  1.2927945550 -1.0674404990
H   1.7461034727  0.0457245229  2.0960301407
H   5.0144913483  3.0769930506 -1.1398764442
17
Image 729  Energy = -421.6793211846
C  -0.9595333008 -0.1317810321  0.8052027117
O  -1.2751623076  0.8058526807  1.5730539482
C  -0.7394974706  0.0568415970 -0.5456554855
C   0.6051377765  0.7604043264 -0.6940132636
C   1.6677716013  0.4010927711  0.2590310657
O   2.7368651883  0.5559128824  0.2256128131
C   1.0603760906 -0.1771223711  1.2138651218
O   4.8258548855  2.2491729867 -0.7325799004
H  -1.5320381104 -1.0824786000  0.9485376604
H  -0.7625491398 -0.8577985668 -0.9413971131
H  -1.4609315665  0.5420873636 -1.0126778907
H   0.5011139302  1.7988039029 -0.5934129338
H   1.0166858340  0.5886531309 -1.6388096382
H   1.4721400070 -1.0552338725  1.2433724684
H   4.6358062792  1.2928081631 -1.0676946404
H   1.7431789720  0.0457944909  2.0989521928
H   5.0147813310  3.0769901468 -1.1413871162
17
Image 730  Energy = -421.6831507227
C  -0.9581473528 -0.1326474967  0.8061868895
O  -1.2741086125  0.8045609977  1.5752149179
C  -0.7395549098  0.0573981162 -0.5464168528
C   0.6051960443  0.7607930734 -0.6948795455
C   1.6678027970  0.4021560707  0.2593800715
O   2.7377435200  0.5587643378  0.2259422982
C   1.0575225015 -0.1780365536  1.2154365556
O   4.8263003212  2.2493149276 -0.7336392133
H  -1.5301261321 -1.0839631167  0.9498437501
H  -0.7625063700 -0.8575702694 -0.9438623826
H  -1.4618037746  0.5441688463 -1.0128598006
H   0.5009814808  1.7997420826 -0.5954246561
H   1.0172513278  0.5879476106 -1.6398205059
H   1.4700778826 -1.0583023758  1.2438709542
H   4.6380452693  1.2928219745 -1.0679487209
H   1.7402547341  0.0458645350  2.1018739650
H   5.0150712732  3.0769872396 -1.1428977240
17
Image 731  Energy = -421.6869354051
C  -0.9567617647 -0.1335139000  0.8071714168
O  -1.2730549985  0.8032694417  1.5773757061
C  -0.7396119210  0.0579547582 -0.5471782458
C   0.6052542572  0.7611817793 -0.6957458933
C   1.6678330789  0.4032195481  0.2597285079
O   2.7386234154  0.5616157042  0.2262714733
C   1.0546683128 -0.1789507845  1.2170089063
O   4.8267456979  2.2494566665 -0.7346983757
H  -1.5282143184 -1.0854475005  0.9511497526
H  -0.7624635449 -0.8573423987 -0.9463275780
H  -1.4626762583  0.5462504004 -1.0130419358
H   0.5008489941  1.8006803284 -0.5974361498
H   1.0178168077  0.5872421427 -1.6408314402
H   1.4680162286 -1.0613711505  1.2443694181
H   4.6402840712  1.2928359936 -1.0682027374
H   1.7373307682  0.0459346440  2.1047954364
H   5.0153611739  3.0769843270 -1.1444082612
17
Image 732  Energy = -421.6906699573
C  -0.9553765266 -0.1343802346  0.8081562891
O  -1.2720014766  0.8019780230  1.5795362953
C  -0.7396685094  0.0585115256 -0.5479396622
C   0.6053124062  0.7615704444 -0.6966123101
C   1.6678621376  0.4042831513  0.2600763754
O   2.7395052332  0.5644670242  0.2266003035
C   1.0518134758 -0.1798650829  1.2185822031
O   4.8271910200  2.2495982064 -0.7357573840
H  -1.5263026850 -1.0869317407  0.9524556581
H  -0.7624206666 -0.8571149543 -0.9487926832
H  -1.4635489991  0.5483320019 -1.0132242841
H   0.5007164688  1.8016186340 -0.5994474010
H   1.0183822685  0.5865367328 -1.6418424369
H   1.4659550645 -1.0644401718  1.2448678612
H   4.6425226672  1.2928502260 -1.0684566855
H   1.7344070904  0.0460048083  2.1077165793
H   5.0156510310  3.0769814064 -1.1459187176
17
Image 733  Energy = -421.6943470173
C  -0.9539916285 -0.1352464943  0.8091415022
O  -1.2709480565  0.8006867505  1.5816966710
C  -0.7397246793  0.0590684198 -0.5487010995
C   0.6053704851  0.7619590692 -0.6974787984
C   1.6678897543  0.4053468475  0.2604236716
O   2.7403892265  0.5673183279  0.2269287632
C   1.0489579574 -0.1807794571  1.2201564655
O   4.8276362900  2.2497395484 -0.7368162345
H  -1.5243912450 -1.0884158289  0.9537614591
H  -0.7623777366 -0.8568879357 -0.9512576849
H  -1.4644219826  0.5504136317 -1.0134068356
H   0.5005839037  1.8025569952 -0.6014583985
H   1.0189477064  0.5858313859 -1.6428534928
H   1.4638944063 -1.0675094379  1.2453662855
H   4.6447610425  1.2928646766 -1.0687105616
H   1.7314837134  0.0460750252  2.1106373733
H   5.0159408430  3.0769784759 -1.1474290853
17
Image 734  Energy = -421.6979621801
C  -0.9526070631 -0.1361126760  0.8101270540
O  -1.2698947448  0.7993956299  1.5838568244
C  -0.7397804324  0.0596254412 -0.5494625546
C   0.6054284922  0.7623476551 -0.6983453608
C   1.6679158513  0.4064106294  0.2607703933
O   2.7412754829  0.5701696272  0.2272568427
C   1.0461017492 -0.1816939042  1.2217316979
O   4.8280815081  2.2498806913 -0.7378749236
H  -1.5224800058 -1.0898997604  0.9550671515
H  -0.7623347558 -0.8566613432 -0.9537225765
H  -1.4652952014  0.5524952805 -1.0135895839
H   0.5004512975  1.8034954109 -0.6034691370
H   1.0195131192  0.5851261045 -1.6438646070
H   1.4618342615 -1.0705789675  1.2458646949
H   4.6469991894  1.2928793489 -1.0689643643
H   1.7285606427  0.0461452979  2.1135578098
H   5.0162306094  3.0769755344 -1.1489393605
17
Image 735  Energy = -421.7015125982
C  -0.9512228247 -0.1369787792  0.8111129437
O  -1.2688415451  0.7981046644  1.5860167513
C  -0.7398357680  0.0601825893 -0.5502240243
C   0.6054864281  0.7627362038 -0.6992119993
C   1.6679404186  0.4074744978  0.2611165408
O   2.7421640086  0.5730209258  0.2275845406
C   1.0432448580 -0.1826084177  1.2233078932
O   4.8285266737  2.2500216326 -0.7389334486
H  -1.5205689711 -1.0913835337  0.9563727341
H  -0.7622917240 -0.8564351775 -0.9561873559
H  -1.4661686541  0.5545769460 -1.0137725260
H   0.5003186490  1.8044338814 -0.6054796147
H   1.0200785061  0.5844208901 -1.6448757800
H   1.4597746309 -1.0736487822  1.2463630928
H   4.6492371046  1.2928942459 -1.0692180932
H   1.7256378796  0.0462156315  2.1164778880
H   5.0165203298  3.0769725817 -1.1504495422
17
Image 736  Energy = -421.7049979364
C  -0.9498389101 -0.1378448060  0.8120991720
O  -1.2677884573  0.7968138535  1.5881764526
C  -0.7398906842  0.0607398630 -0.5509855058
C   0.6055442962  0.7631247175 -0.7000787162
C   1.6679635245  0.4085384603  0.2614621194
O   2.7430547171  0.5758722196  0.2279118653
C   1.0403873051 -0.1835229912  1.2248850340
O   4.8289717855  2.2501623688 -0.7399918079
H  -1.5186581396 -1.0928671507  0.9576782093
H  -0.7622486406 -0.8562094395 -0.9586520270
H  -1.4670423432  0.5566586330 -1.0139556606
H   0.5001859572  1.8053724094 -0.6074898349
H   1.0206438680  0.5837157419 -1.6458870143
H   1.4577155065 -1.0767188963  1.2468614825
H   4.6514747905  1.2929093696 -1.0694717496
H   1.7227154195  0.0462860290  2.1193976148
H   5.0168100048  3.0769696179 -1.1519596332
17
Image 737  Energy = -421.7084202998
C  -0.9484553174 -0.1387107610  0.8130857421
O  -1.2667354772  0.7955231924  1.5903359352
C  -0.7399451798  0.0612972621 -0.5517469984
C   0.6056021024  0.7635131997 -0.7009455143
C   1.6679853370  0.4096025350  0.2618071358
O   2.7439474109  0.5787234939  0.2282388347
C   1.0375291225 -0.1844376205  1.2264630975
O   4.8294168409  2.2503028949 -0.7410500012
H  -1.5167475048 -1.0943506174  0.9589835825
H  -0.7622055047 -0.8559841276 -0.9611165999
H  -1.4679162727  0.5587403515 -1.0141389866
H   0.5000532212  1.8063110002 -0.6094998066
H   1.0212092075  0.5830106573 -1.6468983144
H   1.4556568725 -1.0797893160  1.2473598666
H   4.6537122565  1.2929247212 -1.0697253363
H   1.7197932495  0.0463564905  2.1223170042
H   5.0170996357  3.0769666436 -1.1534696407
17
Image 738  Energy = -421.7117830221
C  -0.9470720424 -0.1395766482  0.8140726581
O  -1.2656826008  0.7942326754  1.5924952052
C  -0.7399992549  0.0618547866 -0.5525085027
C   0.6056598516  0.7639016538 -0.7018123969
C   1.6680060271  0.4106667382  0.2621515949
O   2.7448418936  0.5815747354  0.2285654655
C   1.0346703363 -0.1853523076  1.2280420672
O   4.8298618374  2.2504432061 -0.7421080283
H  -1.5148370598 -1.0958339401  0.9602888596
H  -0.7621623158 -0.8557592379 -0.9635810840
H  -1.4687904448  0.5608221096 -1.0143225018
H   0.4999204401  1.8072496588 -0.6115095387
H   1.0217745277  0.5823056334 -1.6479096853
H   1.4535987134 -1.0828600366  1.2478582475
H   4.6559495123  1.2929403021 -1.0699788561
H   1.7168713551  0.0464270119  2.1252360681
H   5.0173892238  3.0769636592 -1.1549795719
17
Image 739  Energy = -421.7150894415
C  -0.9456890789 -0.1404424706  0.8150599213
O  -1.2646298264  0.7929422994  1.5946542646
C  -0.7400529097  0.0624124358 -0.5532700191
C   0.6057175454  0.7642900828 -0.7026793683
C   1.6680256562  0.4117310665  0.2624955040
O   2.7457380939  0.5844259444  0.2288917642
C   1.0318109570 -0.1862670614  1.2296219358
O   4.8303067739  2.2505832991 -0.7431658888
H  -1.5129268020 -1.0973171222  0.9615940438
H  -0.7621190741 -0.8555347644 -0.9660454823
H  -1.4696648574  0.5629039088 -1.0145062024
H   0.4997876131  1.8081883882 -0.6135190367
H   1.0223398296  0.5816006693 -1.6489211305
H   1.4515410190 -1.0859310407  1.2483566266
H   4.6581865628  1.2929561143 -1.0702323108
H   1.7139497277  0.0464975858  2.1281548096
H   5.0176787700  3.0769606649 -1.1564894308
17
Image 740  Energy = -421.7183406337
C  -0.9443064278 -0.1413082309  0.8160475265
O  -1.2635771519  0.7916520620  1.5968131141
C  -0.7401061446  0.0629702077 -0.5540315472
C   0.6057751823  0.7646784888 -0.7035464330
C   1.6680441744  0.4127954935  0.2628388826
O   2.7466360579  0.5872771360  0.2292177316
C   1.0289509950 -0.1871818897  1.2312026917
O   4.8307516515  2.2507231723 -0.7442235826
H  -1.5110167303 -1.0988001652  0.9628991377
H  -0.7620757808 -0.8553106992 -0.9685097940
H  -1.4705395073  0.5649857475 -1.0146900844
H   0.4996547393  1.8091271897 -0.6155283041
H   1.0229051128  0.5808957649 -1.6499326521
H   1.4494837795 -1.0890023019  1.2488550042
H   4.6604234095  1.2929721609 -1.0704857004
H   1.7110283659  0.0465682035  2.1310732295
H   5.0179682746  3.0769576602 -1.1579992200
17
Image 741  Energy = -421.7215379632
C  -0.9429241056 -0.1421739345  0.8170354598
O  -1.2625245697  0.7903619579  1.5989717597
C  -0.7401589598  0.0635280992 -0.5547930853
C   0.6058327617  0.7650668734 -0.7044135944
C   1.6680614994  0.4138599829  0.2631817654
O   2.7475358552  0.5901283299  0.2295433728
C   1.0260904784 -0.1880967911  1.2327843056
O   4.8311964722  2.2508628249 -0.7452811112
H  -1.5091068399 -1.1002830729  0.9642041466
H  -0.7620324375 -0.8550870336 -0.9709740207
H  -1.4714143931  0.5670676268 -1.0148741456
H   0.4995218180  1.8100660651 -0.6175373474
H   1.0234703765  0.5801909190 -1.6509442523
H   1.4474269784 -1.0920737942  1.2493533797
H   4.6626600560  1.2929884442 -1.0707390249
H   1.7081072716  0.0466388589  2.1339913357
H   5.0182577382  3.0769546439 -1.1595089434
17
Image 742  Energy = -421.7246837080
C  -0.9415421368 -0.1430395874  0.8180237039
O  -1.2614720701  0.7890719803  1.6011302103
C  -0.7402113549  0.0640861065 -0.5555546314
C   0.6058902845  0.7654552381 -0.7052808549
C   1.6680775891  0.4149245085  0.2635241865
O   2.7484375090  0.5929795395  0.2298686982
C   1.0232294463 -0.1890117556  1.2343667424
O   4.8316412372  2.2510022556 -0.7463384762
H  -1.5071971236 -1.1017658506  0.9655090771
H  -0.7619890459 -0.8548637597 -0.9734381660
H  -1.4722895165  0.5691495512 -1.0150583845
H   0.4993888487  1.8110050173 -0.6195461750
H   1.0240356206  0.5794861297 -1.6519559336
H   1.4453705967 -1.0951455049  1.2498517530
H   4.6648965076  1.2930049662 -1.0709922845
H   1.7051864467  0.0467095499  2.1369091416
H   5.0185471615  3.0769516154 -1.1610186065
17
Image 743  Energy = -421.7277808998
C  -0.9401605339 -0.1439051935  0.8190122479
O  -1.2604196498  0.7877821266  1.6032884689
C  -0.7402633286  0.0646442268 -0.5563161823
C   0.6059477517  0.7658435841 -0.7061482170
C   1.6680924627  0.4159890704  0.2638661568
O   2.7493409879  0.5958307663  0.2301937163
C   1.0203679232 -0.1899267729  1.2359499871
O   4.8320859461  2.2511414621 -0.7473956766
H  -1.5052875785 -1.1032485016  0.9668139328
H  -0.7619456062 -0.8546408727 -0.9759022311
H  -1.4731648794  0.5712315239 -1.0152427996
H   0.4992558308  1.8119440483 -0.6215547917
H   1.0246008451  0.5787813963 -1.6529676983
H   1.4433146252 -1.0982174459  1.2503501255
H   4.6671327668  1.2930217286 -1.0712454800
H   1.7022658916  0.0467802791  2.1398266543
H   5.0188365450  3.0769485740 -1.1625282127
17
Image 744  Energy = -421.7308290325
C  -0.9387792859 -0.1447707519  0.8200010916
O  -1.2593673161  0.7864924014  1.6054465288
C  -0.7403148786  0.0652024583 -0.5570777340
C   0.6060051639  0.7662319134 -0.7070156836
C   1.6681061802  0.4170536923  0.2642076595
O   2.7502462324  0.5986820016  0.2305184289
C   1.0175059084 -0.1908418376  1.2375340518
O   4.8325305966  2.2512804416 -0.7484527078
H  -1.5033782093 -1.1047310258  0.9681187126
H  -0.7619021176 -0.8544183715 -0.9783662116
H  -1.4740404819  0.5733135443 -1.0154273877
H   0.4991227637  1.8128831587 -0.6235631965
H   1.0251660499  0.5780767203 -1.6539795474
H   1.4412590687 -1.1012896507  1.2508485003
H   4.6693688310  1.2930387332 -1.0714986125
H   1.6993456058  0.0468510525  2.1427438696
H   5.0191258889  3.0769455199 -1.1640377617
17
Image 745  Energy = -421.7338262969
C  -0.9373983709 -0.1456362591  0.8209902406
O  -1.2583150817  0.7852028125  1.6076043789
C  -0.7403660021  0.0657608008 -0.5578392821
C   0.6060625211  0.7666202285 -0.7078832580
C   1.6681188062  0.4181184049  0.2645486702
O   2.7511531807  0.6015332335  0.2308428346
C   1.0146433909 -0.1917569460  1.2391189566
O   4.8329751863  2.2514191912 -0.7495095644
H  -1.5014690236 -1.1062134219  0.9694234133
H  -0.7618585787 -0.8541962591 -0.9808301024
H  -1.4749163238  0.5753956104 -1.0156121447
H   0.4989896470  1.8138223479 -0.6255713855
H   1.0257312348  0.5773721045 -1.6549914815
H   1.4392039375 -1.1043621606  1.2513468801
H   4.6716046951  1.2930559818 -1.0717516827
H   1.6964255883  0.0469218778  2.1456607784
H   5.0194151928  3.0769424528 -1.1655472513
17
Image 746  Energy = -421.7367701563
C  -0.9360177735 -0.1465017125  0.8219796977
O  -1.2572629559  0.7839133661  1.6097620118
C  -0.7404166975  0.0663192547 -0.5586008218
C   0.6061198237  0.7670085312 -0.7087509422
C   1.6681303823  0.4191832283  0.2648891766
O   2.7520617881  0.6043844539  0.2311669345
C   1.0117803702 -0.1926720906  1.2407047073
O   4.8334197134  2.2515577086 -0.7505662417
H  -1.4995600268 -1.1076956901  0.9707280335
H  -0.7618149877 -0.8539745401 -0.9832939021
H  -1.4757924051  0.5774777222 -1.0157970664
H   0.4988564807  1.8147616153 -0.6275793566
H   1.0262963999  0.5766675508 -1.6560035009
H   1.4371492367 -1.1074350095  1.2518452658
H   4.6738403555  1.2930734764 -1.0720046914
H   1.6935058392  0.0469927625  2.1485773769
H   5.0197044568  3.0769393725 -1.1670566808
17
Image 747  Energy = -421.7396599910
C  -0.9346374922 -0.1473671115  0.8229694591
O  -1.2562109419  0.7826240646  1.6119194263
C  -0.7404669650  0.0668778197 -0.5593623488
C   0.6061770725  0.7673968226 -0.7096187358
C   1.6681409156  0.4202481674  0.2652291833
O   2.7529720370  0.6072356614  0.2314907328
C   1.0089168599 -0.1935872606  1.2422912915
O   4.8338641777  2.2516959921 -0.7516227376
H  -1.4976512197 -1.1091778326  0.9720325745
H  -0.7617713440 -0.8537532181 -0.9857576132
H  -1.4766687268  0.5795598824 -1.0159821494
H   0.4987232653  1.8157009607 -0.6295871105
H   1.0268615460  0.5759630597 -1.6570156062
H   1.4350949628 -1.1105082188  1.2523436563
H   4.6760758113  1.2930912191 -1.0722576387
H   1.6905863603  0.0470637133  2.1514936683
H   5.0199936812  3.0769362784 -1.1685660516
17
Image 748  Energy = -421.7424957352
C  -0.9332575335 -0.1482324575  0.8239595148
O  -1.2551590389  0.7813349084  1.6140766238
C  -0.7405168061  0.0674364946 -0.5601238590
C   0.6062342680  0.7677851027 -0.7104866373
C   1.6681503852  0.4213132157  0.2655687035
O   2.7538839370  0.6100868605  0.2318142348
C   1.0060528796 -0.1945024448  1.2438786892
O   4.8343085800  2.2518340404 -0.7526790509
H  -1.4957426004 -1.1106598525  0.9733370384
H  -0.7617276474 -0.8535322939 -0.9882212379
H  -1.4775452889  0.5816420931 -1.0161673903
H   0.4985900015  1.8166403841 -0.6315946493
H   1.0274266736  0.5752586308 -1.6580277977
H   1.4330411074 -1.1135817990  1.2528420495
H   4.6783110625  1.2931092124 -1.0725105246
H   1.6876671542  0.0471347352  2.1544096594
H   5.0202828661  3.0769331695 -1.1700753662
17
Image 749  Energy = -421.7452783724
C  -0.9318779016 -0.1490977530  0.8249498530
O  -1.2541072457  0.7800458987  1.6162336058
C  -0.7405662239  0.0679952764 -0.5608853491
C   0.6062914098  0.7681733712 -0.7113546452
C   1.6681587552  0.4223783625  0.2659077495
O   2.7547975161  0.6129380590  0.2321374438
C   1.0031884445 -0.1954176360  1.2454668837
O   4.8347529215  2.2519718522 -0.7537351807
H  -1.4938341673 -1.1121417521  0.9746414271
H  -0.7616838988 -0.8533117632 -0.9906847750
H  -1.4784220892  0.5837243536 -1.0163527852
H   0.4984566899  1.8175798850 -0.6336019745
H   1.0279917831  0.5745542643 -1.6590400757
H   1.4309876622 -1.1166557547  1.2533404423
H   4.6805461089  1.2931274590 -1.0727633488
H   1.6847482235  0.0472058320  2.1573253558
H   5.0205720117  3.0769300449 -1.1715846268
17
Image 750  Energy = -421.7480079859
C  -0.9304985930 -0.1499630010  0.8259404622
O  -1.2530555634  0.7787570380  1.6183903722
C  -0.7406152220  0.0685541620 -0.5616468161
C   0.6063484970  0.7685616275 -0.7122227591
C   1.6681659891  0.4234435973  0.2662463297
O   2.7557128072  0.6157892653  0.2324603605
C   1.0003235619 -0.1963328321  1.2470558661
O   4.8351972035  2.2521094264 -0.7547911254
H  -1.4919259199 -1.1136235329  0.9759457409
H  -0.7616400997 -0.8530916185 -0.9931482197
H  -1.4792991237  0.5858066605 -1.0165383298
H   0.4983233311  1.8185194626 -0.6356090866
H   1.0285568746  0.5738499604 -1.6600524403
H   1.4289346208 -1.1197300868  1.2538388316
H   4.6827809489  1.2931459622 -1.0730161109
H   1.6818295692  0.0472770055  2.1602407596
H   5.0208611183  3.0769269034 -1.1730938348
17
Image 751  Energy = -421.7506841594
C  -0.9291195969 -0.1508282042  0.8269313343
O  -1.2520039950  0.7774683305  1.6205469215
C  -0.7406638039  0.0691131483 -0.5624082577
C   0.6064055283  0.7689498719 -0.7130909796
C   1.6681720590  0.4245089108  0.2665844482
O   2.7566298358  0.6186404868  0.2327829843
C   0.9974582331 -0.1972480353  1.2486456333
O   4.8356414266  2.2522467612 -0.7558468830
H  -1.4900178582 -1.1151051958  0.9772499795
H  -0.7615962512 -0.8528718516 -0.9956115658
H  -1.4801763874  0.5878890090 -1.0167240194
H   0.4981899257  1.8194591159 -0.6376159853
H   1.0291219484  0.5731457200 -1.6610648921
H   1.4268819786 -1.1228047935  1.2543372139
H   4.6850155809  1.2931647255 -1.0732688106
H   1.6789111903  0.0473482562  2.1631558703
H   5.0211501858  3.0769237442 -1.1746029915
17
Image 752  Energy = -421.7533062666
C  -0.9277408977 -0.1516933643  0.8279224650
O  -1.2509525449  0.7761797811  1.6227032517
C  -0.7407119722  0.0696722338 -0.5631696718
C   0.6064625027  0.7693381049 -0.7139593084
C   1.6681769486  0.4255742949  0.2669221082
O   2.7575486150  0.6214917291  0.2331053138
C   0.9945924571 -0.1981632510  1.2502361850
O   4.8360855914  2.2523838546 -0.7569024513
H  -1.4881099825 -1.1165867419  0.9785541424
H  -0.7615523541 -0.8526524571 -0.9980748088
H  -1.4810538757  0.5899713951 -1.0169098496
H   0.4980564741  1.8203988440 -0.6396226700
H   1.0296870047  0.5724415437 -1.6620774315
H   1.4248297320 -1.1258798696  1.2548355854
H   4.6872500029  1.2931837526 -1.0735214478
H   1.6759930840  0.0474195836  2.1660706859
H   5.0214392145  3.0769205663 -1.1761120979
17
Image 753  Energy = -421.7558738561
C  -0.9263624777 -0.1525584828  0.8289138541
O  -1.2499012179  0.7748913952  1.6248593615
C  -0.7407597286  0.0702314182 -0.5639310565
C   0.6065194194  0.7697263278 -0.7148277477
C   1.6681806498  0.4266397408  0.2672593130
O   2.7584691480  0.6243429966  0.2334273484
C   0.9917262325 -0.1990784860  1.2518275206
O   4.8365296981  2.2525207042 -0.7579578277
H  -1.4862022929 -1.1180681721  0.9798582290
H  -0.7615084084 -0.8524334324 -1.0005379470
H  -1.4819315848  0.5920538163 -1.0170958162
H   0.4979229771  1.8213386458 -0.6416291402
H   1.0302520439  0.5717374326 -1.6630900593
H   1.4227778770 -1.1289553063  1.2553339419
H   4.6894842133  1.2932030473 -1.0737740227
H   1.6730752464  0.0474909857  2.1689852043
H   5.0217282046  3.0769173689 -1.1776211554
17
Image 754  Energy = -421.7583866039
C  -0.9249843184 -0.1534235603  0.8299055042
O  -1.2488500188  0.7736031780  1.6270152500
C  -0.7408070738  0.0707907018 -0.5646924104
C   0.6065762779  0.7701145423 -0.7156963002
C   1.6681831572  0.4277052383  0.2675960674
O   2.7593914325  0.6271942933  0.2337490876
C   0.9888595596 -0.1999937482  1.2534196382
O   4.8369737470  2.2526573073 -0.7590130096
H  -1.4842947885 -1.1195494879  0.9811622395
H  -0.7614644138 -0.8522147776 -1.0030009809
H  -1.4828095120  0.5941362717 -1.0172819152
H   0.4977894354  1.8222785204 -0.6436353959
H   1.0308170665  0.5710333873 -1.6641027761
H   1.4207264094 -1.1320310912  1.2558322790
H   4.6917182110  1.2932226134 -1.0740265352
H   1.6701576725  0.0475624599  2.1718994233
H   5.0220171563  3.0769141512 -1.1791301656
17
Image 755  Energy = -421.7608438527
C  -0.9236064021 -0.1542885978  0.8308974192
O  -1.2477989521  0.7723151343  1.6291709168
C  -0.7408540077  0.0713500846 -0.5654537329
C   0.6066330784  0.7705027503 -0.7165649689
C   1.6681844653  0.4287707753  0.2679323784
O   2.7603154643  0.6300456231  0.2340705314
C   0.9859924402 -0.2009090452  1.2550125341
O   4.8374177380  2.2527936610 -0.7600679947
H  -1.4823874678 -1.1210306907  0.9824661742
H  -0.7614203697 -0.8519964923 -1.0054639116
H  -1.4836876555  0.5962187612 -1.0174681437
H   0.4976558496  1.8232184669 -0.6456414374
H   1.0313820729  0.5703294085 -1.6651155826
H   1.4186753243 -1.1351072097  1.2563305921
H   4.6939519952  1.2932424552 -1.0742789854
H   1.6672403568  0.0476340028  2.1748133415
H   5.0223060699  3.0769109124 -1.1806391305
17
Image 756  Energy = -421.7632458479
C  -0.9222287117 -0.1551535969  0.8318896036
O  -1.2467480220  0.7710272687  1.6313263621
C  -0.7409005302  0.0719095657 -0.5662150240
C   0.6066898210  0.7708909542 -0.7174337571
C   1.6681845657  0.4298363382  0.2682682545
O   2.7612412399  0.6328969904  0.2343916803
C   0.9831248781 -0.2018243841  1.2566062028
O   4.8378616716  2.2529297625 -0.7611227806
H  -1.4804803282 -1.1225117822  0.9837700337
H  -0.7613762759 -0.8517785753 -1.0079267402
H  -1.4845660136  0.5983012852 -1.0176544987
H   0.4975222206  1.8241584844 -0.6476472654
H   1.0319470638  0.5696254967 -1.6661284796
H   1.4166246166 -1.1381836467  1.2568288765
H   4.6961855654  1.2932625769 -1.0745313734
H   1.6643232931  0.0477056109  2.1777269579
H   5.0225949457  3.0769076513 -1.1821480523
17
Image 757  Energy = -421.7655923945
C  -0.9208512314 -0.1560185593  0.8328820615
O  -1.2456972324  0.7697395857  1.6334815863
C  -0.7409466406  0.0724691440 -0.5669762846
C   0.6067465066  0.7712791561 -0.7183026686
C   1.6681834494  0.4309019136  0.2686037051
O   2.7621687548  0.6357483992  0.2347125351
C   0.9802568793 -0.2027397700  1.2582006377
O   4.8383055480  2.2530656087 -0.7621773651
H  -1.4785733670 -1.1239927639  0.9850738188
H  -0.7613321323 -0.8515610240 -1.0103894672
H  -1.4854445846  0.6003838437 -1.0178409777
H   0.4973885491  1.8250985724 -0.6496528807
H   1.0325120394  0.5689216523 -1.6671414675
H   1.4145742814 -1.1412603898  1.2573271279
H   4.6984189210  1.2932829828 -1.0747836994
H   1.6614064754  0.0477772815  2.1806402720
H   5.0228837839  3.0769043668 -1.1836569334
17
Image 758  Energy = -421.7736481400
C  -0.9194724802 -0.1568838724  0.8338750463
O  -1.2446470483  0.7684525369  1.6356367282
C  -0.7409925187  0.0730288614 -0.5677376043
C   0.6068031454  0.7716673181 -0.7191715844
C   1.6681808677  0.4319671903  0.2689390833
O   2.7630981380  0.6385997929  0.2350330695
C   0.9773876800 -0.2036550381  1.2597950264
O   4.8387493586  2.2532012268 -0.7632316047
H  -1.4766667359 -1.1254735604  0.9863774692
H  -0.7612879448 -0.8513438845 -1.0128520470
H  -1.4863233375  0.6024663903 -1.0180276097
H   0.4972548197  1.8260387193 -0.6516582271
H   1.0330769957  0.5682179015 -1.6681545353
H   1.4125244267 -1.1443373236  1.2578253576
H   4.7006519735  1.2933036015 -1.0750360061
H   1.6584900459  0.0478490108  2.1835532282
H   5.0231726142  3.0769011291 -1.1851657898
17
Image 759  Energy = -421.7758428438
C  -0.9180939505 -0.1577491425  0.8348683101
O  -1.2435970015  0.7671656693  1.6377916448
C  -0.7410379756  0.0735886736 -0.5684988972
C   0.6068597264  0.7720554863 -0.7200406400
C   1.6681770654  0.4330324691  0.2692740460
O   2.7640292400  0.6414512352  0.2353533076
C   0.9745180813 -0.2045703626  1.2613901887
O   4.8391931116  2.2533365819 -0.7642856409
H  -1.4747602742 -1.1269542507  0.9876810469
H  -0.7612437074 -0.8511271044 -1.0153145250
H  -1.4872022997  0.6045489701 -1.0182143586
H   0.4971210500  1.8269789344 -0.6536633625
H   1.0336419365  0.5675142185 -1.6691676926
H   1.4104749312 -1.1474145618  1.2583235447
H   4.7028848109  1.2933245161 -1.0752882494
H   1.6555738494  0.0479208043  2.1864658860
H   5.0234614062  3.0768978631 -1.1866746085
17
Image 760  Energy = -421.7779813938
C  -0.9167156311 -0.1586143704  0.8358618592
O  -1.2425470967  0.7658789874  1.6399463358
C  -0.7410830104  0.0741485805 -0.5692601647
C   0.6069162515  0.7724436642 -0.7209098405
C   1.6681720386  0.4340977439  0.2696086022
O   2.7649620471  0.6443027264  0.2356732512
C   0.9716480980 -0.2054857432  1.2629861180
O   4.8396368068  2.2534716704 -0.7653394704
H  -1.4728539785 -1.1284348361  0.9889845526
H  -0.7611994199 -0.8509106839 -1.0177769030
H  -1.4880814698  0.6066315835 -1.0184012220
H   0.4969872406  1.8279192170 -0.6556682877
H   1.0342068621  0.5668106039 -1.6701809399
H   1.4084257896 -1.1504921060  1.2588216856
H   4.7051174321  1.2933457313 -1.0755404292
H   1.6526578798  0.0479926634  2.1893782446
H   5.0237501602  3.0768945677 -1.1881833916
17
Image 761  Energy = -421.7800635292
C  -0.9153375113 -0.1594795568  0.8368557019
O  -1.2414973387  0.7645924959  1.6421008012
C  -0.7411276219  0.0747085829 -0.5700214079
C   0.6069727229  0.7728318559 -0.7217791915
C   1.6681657841  0.4351630088  0.2699427609
O   2.7658965439  0.6471542667  0.2359929021
C   0.9687777473 -0.2064011794  1.2645828078
O   4.8400804440  2.2536064887 -0.7663930899
H  -1.4709478455 -1.1299153179  0.9902879869
H  -0.7611550819 -0.8506946253 -1.0202391845
H  -1.4889608473  0.6087142316 -1.0185881981
H   0.4968533921  1.8288595667 -0.6576730033
H   1.0347717726  0.5661070581 -1.6711942777
H   1.4063769966 -1.1535699589  1.2593197770
H   4.7073498361  1.2933672520 -1.0757925460
H   1.6497421305  0.0480645896  2.1922903028
H   5.0240388762  3.0768912413 -1.1896921415
17
Image 762  Energy = -421.7820890157
C  -0.9139595816 -0.1603447017  0.8378498477
O  -1.2404477321  0.7633061989  1.6442550412
C  -0.7411718085  0.0752686821 -0.5707826284
C   0.6070291431  0.7732200655 -0.7226486991
C   1.6681582993  0.4362282563  0.2702765329
O   2.7668327146  0.6500058566  0.2363122619
C   0.9659070478 -0.2073166717  1.2661802513
O   4.8405240232  2.2537410331 -0.7674464961
H  -1.4690418714 -1.1313956975  0.9915913507
H  -0.7611106927 -0.8504789318 -1.0227013739
H  -1.4898404319  0.6107969162 -1.0187752851
H   0.4967195048  1.8297999832 -0.6596775106
H   1.0353366683  0.5654035817 -1.6722077068
H   1.4043285461 -1.1566481199  1.2598178158
H   4.7095820223  1.2933890831 -1.0760446001
H   1.6468265941  0.0481365831  2.1952020595
H   5.0243275545  3.0768878827 -1.1912008609
17
Image 763  Energy = -421.7840577306
C  -0.9125818331 -0.1612098057  0.8388443064
O  -1.2393982815  0.7620201001  1.6464090562
C  -0.7412155685  0.0758288794 -0.5715438277
C   0.6070855142  0.7736082977 -0.7235183698
C   1.6681495797  0.4372934755  0.2706099306
O   2.7677705445  0.6528574982  0.2366313323
C   0.9630360190 -0.2082322219  1.2677784414
O   4.8409675440  2.2538752993 -0.7684996854
H  -1.4671360518 -1.1328759765  0.9928946450
H  -0.7610662517 -0.8502636061 -1.0251634762
H  -1.4907202237  0.6128796398 -1.0189624812
H   0.4965855791  1.8307404667 -0.6616818112
H   1.0359015493  0.5647001750 -1.6732212281
H   1.4022804321 -1.1597265838  1.2603157993
H   4.7118139906  1.2934112298 -1.0762965919
H   1.6439112624  0.0482086423  2.1981135135
H   5.0246161954  3.0768844902 -1.1927095531
17
Image 764  Energy = -421.7859701011
C  -0.9112042574 -0.1620748701  0.8398390874
O  -1.2383489909  0.7607342027  1.6485628472
C  -0.7412588999  0.0763891752 -0.5723050078
C   0.6071418382  0.7739965567 -0.7243882108
C   1.6681396182  0.4383586523  0.2709429683
O   2.7687100224  0.6557091951  0.2369501145
C   0.9601646804 -0.2091478330  1.2693773712
O   4.8414110063  2.2540092834 -0.7695526544
H  -1.4652303819 -1.1343561567  0.9941978710
H  -0.7610217587 -0.8500486487 -1.0276254955
H  -1.4916002228  0.6149624047 -1.0191497853
H   0.4964516150  1.8316810177 -0.6636859075
H   1.0364664159  0.5639968382 -1.6742348433
H   1.4002326484 -1.1628053411  1.2608137252
H   4.7140457415  1.2934336978 -1.0765485223
H   1.6409961262  0.0482807637  2.2010246640
H   5.0249047991  3.0768810622 -1.1942182216
17
Image 765  Energy = -421.7878266113
C  -0.9098268464 -0.1629398971  0.8408341984
O  -1.2372998643  0.7594485099  1.6507164151
C  -0.7413018009  0.0769495693 -0.5730661709
C   0.6071981173  0.7743848469 -0.7252582296
C   1.6681284047  0.4394237704  0.2712756612
O   2.7696511399  0.6585609522  0.2372686093
C   0.9572930517 -0.2100635091  1.2709770339
O   4.8418544099  2.2541429808 -0.7706053998
H  -1.4633248563 -1.1358362396  0.9955010302
H  -0.7609772137 -0.8498340573 -1.0300874341
H  -1.4924804292  0.6170452127 -1.0193371964
H   0.4963176124  1.8326216370 -0.6656898023
H   1.0370312683  0.5632935712 -1.6752485541
H   1.3981851888 -1.1658843797  1.2613115913
H   4.7162772759  1.2934564926 -1.0768003917
H   1.6380811757  0.0483529427  2.2039355103
H   5.0251933661  3.0768775970 -1.1957268706
17
Image 766  Energy = -421.7896276291
C  -0.9084495923 -0.1638048899  0.8418296462
O  -1.2362509060  0.7581630247  1.6528697612
C  -0.7413442695  0.0775100608 -0.5738273192
C   0.6072543531  0.7747731726 -0.7261284342
C   1.6681159256  0.4404888129  0.2716080245
O   2.7705938928  0.6614127756  0.2375868175
C   0.9544211531 -0.2109792547  1.2725774236
O   4.8422977548  2.2542763869 -0.7716579180
H  -1.4614194695 -1.1373162268  0.9968041238
H  -0.7609326172 -0.8496198271 -1.0325492928
H  -1.4933608426  0.6191280651 -1.0195247136
H   0.4961835713  1.8335623256 -0.6676934983
H   1.0375961065  0.5625903742 -1.6762623625
H   1.3961380474 -1.1689636875  1.2618093958
H   4.7185085948  1.2934796206 -1.0770522011
H   1.6351664009  0.0484251743  2.2068460515
H   5.0254818968  3.0768740927 -1.1972355043
17
Image 767  Energy = -421.7913740263
C  -0.9070724874 -0.1646698521  0.8428254367
O  -1.2352021209  0.7568777511  1.6550228864
C  -0.7413863036  0.0780706482 -0.5745884546
C   0.6073105477  0.7751615378 -0.7269988330
C   1.6681021641  0.4415537632  0.2719400732
O   2.7715382797  0.6642646713  0.2379047394
C   0.9515490057 -0.2118950748  1.2741785351
O   4.8427410407  2.2544094972 -0.7727102050
H  -1.4595142162 -1.1387961194  0.9981071527
H  -0.7608879696 -0.8494059527 -1.0350110714
H  -1.4942414626  0.6212109625 -1.0197123361
H   0.4960494915  1.8345030847 -0.6696969981
H   1.0381609305  0.5618872472 -1.6772762705
H   1.3940912178 -1.1720432541  1.2623071371
H   4.7207396989  1.2935030880 -1.0773039512
H   1.6322517919  0.0484974544  2.2097562863
H   5.0257703917  3.0768705475 -1.1987441270
17
Image 768  Energy = -421.7930659957
C  -0.9056955238 -0.1655347873  0.8438215764
O  -1.2341535146  0.7555926935  1.6571757915
C  -0.7414279009  0.0786313304 -0.5753495784
C   0.6073667031  0.7755499468 -0.7278694347
C   1.6680871011  0.4426186063  0.2722718208
O   2.7724843020  0.6671166453  0.2382223754
C   0.9486766316 -0.2128109745  1.2757803642
O   4.8431842674  2.2545423065 -0.7737622566
H  -1.4576090911 -1.1402759182  0.9994101175
H  -0.7608432713 -0.8491924296 -1.0374727698
H  -1.4951222890  0.6232939056 -1.0199000631
H   0.4959153729  1.8354439152 -0.6717003042
H   1.0387257404  0.5611841904 -1.6782902799
H   1.3920446934 -1.1751230714  1.2628048138
H   4.7229705887  1.2935269018 -1.0775556429
H   1.6293373391  0.0485697798  2.2126662130
H   5.0260588511  3.0768669594 -1.2002527429
17
Image 769  Energy = -421.7947038089
C  -0.9043186939 -0.1663996984  0.8448180727
O  -1.2331050935  0.7543078571  1.6593284771
C  -0.7414690589  0.0791921069 -0.5761106913
C   0.6074228211  0.7759384040 -0.7287402480
C   1.6680707152  0.4436833285  0.2726032804
O   2.7734319627  0.6699687032  0.2385397256
C   0.9458040549 -0.2137269598  1.2773829070
O   4.8436274347  2.2546748098 -0.7748140680
H  -1.4557040896 -1.1417556237  1.0007130185
H  -0.7607985224 -0.8489792557 -1.0399343893
H  -1.4960033217  0.6253768954 -1.0200878938
H   0.4957812152  1.8363848180 -0.6737034184
H   1.0392905359  0.5604812045 -1.6793043927
H   1.3899984676 -1.1782031333  1.2633024244
H   4.7252012640  1.2935510690 -1.0778072770
H   1.6264230333  0.0486421484  2.2155758289
H   5.0263472755  3.0768633261 -1.2017613560
17
Image 770  Energy = -421.7962872644
C  -0.9029419902 -0.1672645877  0.8458149344
O  -1.2320568648  0.7530232480  1.6614809435
C  -0.7415097747  0.0797529774 -0.5768717935
C   0.6074789039  0.7763269139 -0.7296112816
C   1.6680529842  0.4447479172  0.2729344642
O   2.7743812658  0.6728208499  0.2388567902
C   0.9429313013 -0.2146430370  1.2789861603
O   4.8440705423  2.2548070018 -0.7758656342
H  -1.4537992075 -1.1432352361  1.0020158554
H  -0.7607537223 -0.8487664312 -1.0423959325
H  -1.4968845614  0.6274599335 -1.0202758271
H   0.4956470185  1.8373257938 -0.6757063422
H   1.0398553171  0.5597782901 -1.6803186106
H   1.3879525330 -1.1812834353  1.2637999676
H   4.7274317245  1.2935755972 -1.0780588544
H   1.6235088652  0.0487145589  2.2184851309
H   5.0266356652  3.0768596456 -1.2032699704
17
Image 771  Energy = -421.7978165878
C  -0.9015654055 -0.1681294572  0.8468121714
O  -1.2310088363  0.7517388727  1.6636331913
C  -0.7415500451  0.0803139422 -0.5776328842
C   0.6075349534  0.7767154814 -0.7304825444
C   1.6680338838  0.4458123604  0.2732653841
O   2.7753322166  0.6756730904  0.2391735697
C   0.9400583982 -0.2155592132  1.2805901209
O   4.8445135900  2.2549388769 -0.7769169497
H  -1.4518944404 -1.1447147556  1.0033186280
H  -0.7607088704 -0.8485539584 -1.0448574035
H  -1.4977660089  0.6295430221 -1.0204638619
H   0.4955127829  1.8382668433 -0.6777090772
H   1.0404200840  0.5590754481 -1.6813329354
H   1.3859068821 -1.1843639736  1.2642974421
H   4.7296619697  1.2936004944 -1.0783103759
H   1.6205948254  0.0487870107  2.2213941151
H   5.0269240205  3.0768559153 -1.2047785901
17
Image 772  Energy = -421.7992913366
C  -0.9001889328 -0.1689943083  0.8478097940
O  -1.2299610160  0.7504547377  1.6657852211
C  -0.7415898670  0.0808750012 -0.5783939625
C   0.6075909717  0.7771041114 -0.7313540452
C   1.6680133894  0.4468766466  0.2735960518
O   2.7762848205  0.6785254293  0.2394900642
C   0.9371853747 -0.2164754959  1.2821947856
O   4.8449565775  2.2550704295 -0.7779680091
H  -1.4499897842 -1.1461941824  1.0046213357
H  -0.7606639656 -0.8483418404 -1.0473188072
H  -1.4986476654  0.6316261640 -1.0206519970
H   0.4953785083  1.8392079672 -0.6797116246
H   1.0409848368  0.5583726793 -1.6823473690
H   1.3838615071 -1.1874447443  1.2647948467
H   4.7318919990  1.2936257690 -1.0785618425
H   1.6176809042  0.0488595032  2.2243027775
H   5.0272123419  3.0768521328 -1.2062872195
17
Image 773  Energy = -421.8007113312
C  -0.8988125661 -0.1698591423  0.8488078130
O  -1.2289134126  0.7491708502  1.6679370335
C  -0.7416292370  0.0814361543 -0.5791550271
C   0.6076469607  0.7774928086 -0.7322257928
C   1.6679914753  0.4479407639  0.2739264794
O   2.7772390835  0.6813778716  0.2398062746
C   0.9343122618 -0.2173918932  1.2838001516
O   4.8453995049  2.2552016534 -0.7790188065
H  -1.4480852343 -1.1476735164  1.0059239780
H  -0.7606190069 -0.8481300802 -1.0497801486
H  -1.4995295323  0.6337093620 -1.0208402310
H   0.4952441949  1.8401491661 -0.6817139860
H   1.0415495757  0.5576699845 -1.6833619130
H   1.3818163997 -1.1905257438  1.2652921801
H   4.7341218121  1.2936514302 -1.0788132552
H   1.6147670909  0.0489320359  2.2272111135
H   5.0275006296  3.0768482953 -1.2077958633
17
Image 774  Energy = -421.8020766242
C  -0.8974362996 -0.1707239607  0.8498062391
O  -1.2278660346  0.7478872170  1.6700886295
C  -0.7416681515  0.0819974007 -0.5799160767
C   0.6077029224  0.7778815779 -0.7330977965
C   1.6679681147  0.4490047003  0.2742566792
O   2.7781950119  0.6842304222  0.2401222014
C   0.9314390919 -0.2183084139  1.2854062163
O   4.8458423720  2.2553325423 -0.7800693362
H  -1.4461807857 -1.1491527580  1.0072265542
H  -0.7605739934 -0.8479186801 -1.0522414331
H  -1.5004116109  0.6357926190 -1.0210285626
H   0.4951098429  1.8410904410 -0.6837161632
H   1.0421143013  0.5569673644 -1.6843765696
H   1.3797715514 -1.1936069678  1.2657894411
H   4.7363514088  1.2936774875 -1.0790646147
H   1.6118533741  0.0490046082  2.2301191186
H   5.0277888842  3.0768443999 -1.2093045266
17
Image 775  Energy = -421.8033875069
C  -0.8960601286 -0.1715887650  0.8508050829
O  -1.2268188911  0.7466038450  1.6722400098
C  -0.7417066070  0.0825587394 -0.5806771097
C   0.6077588592  0.7782704242 -0.7339700657
C   1.6679432791  0.4500684431  0.2745866637
O   2.7791526127  0.6870830866  0.2404378457
C   0.9285658997 -0.2192250669  1.2870129771
O   4.8462851791  2.2554630894 -0.7811195920
H  -1.4442764330 -1.1506319073  1.0085290635
H  -0.7605289244 -0.8477076414 -1.0547026653
H  -1.5012939025  0.6378759378 -1.0212169902
H   0.4949754525  1.8420317929 -0.6857181580
H   1.0426790139  0.5562648198 -1.6853913409
H   1.3777269533 -1.1966884119  1.2662866285
H   4.7385807892  1.2937039514 -1.0793159223
H   1.6089397416  0.0490772193  2.2330267881
H   5.0280771062  3.0768404434 -1.2108132152
17
Image 776  Energy = -421.8046436881
C  -0.8946840489 -0.1724535563  0.8518043550
O  -1.2257719915  0.7453207410  1.6743911755
C  -0.7417445995  0.0831201686 -0.5814381242
C   0.6078147730  0.7786593526 -0.7348426103
C   1.6679169393  0.4511319799  0.2749164459
O   2.7801118931  0.6899358702  0.2407532086
C   0.9256927218 -0.2201418620  1.2886204322
O   4.8467279263  2.2555932875 -0.7821695676
H  -1.4423721703 -1.1521109645  1.0098315050
H  -0.7604837992 -0.8474969646 -1.0571638498
H  -1.5021764084  0.6399593214 -1.0214055125
H   0.4948410237  1.8429732232 -0.6877199726
H   1.0432437142  0.5555623511 -1.6864062290
H   1.3756825964 -1.1997700718  1.2667837411
H   4.7408099537  1.2937308330 -1.0795671789
H   1.6060261800  0.0491498680  2.2359341170
H   5.0283652961  3.0768364226 -1.2123219352
17
Image 777  Energy = -421.8058458904
C  -0.8933080570 -0.1733183360  0.8528040665
O  -1.2247253455  0.7440379120  1.6765421273
C  -0.7417821250  0.0836816867 -0.5821991184
C   0.6078706664  0.7790483682 -0.7357154410
C   1.6678890640  0.4521952977  0.2752460387
O   2.7810728613  0.6927887788  0.2410682912
C   0.9228195973 -0.2210588096  1.2902285802
O   4.8471706139  2.2557231290 -0.7832192566
H  -1.4404679911 -1.1535899300  1.0111338777
H  -0.7604386171 -0.8472866498 -1.0596249912
H  -1.5030591298  0.6420427725 -1.0215941277
H   0.4947065569  1.8439147332 -0.6897216093
H   1.0438084026  0.5548599588 -1.6874212366
H   1.3736384709 -1.2028519430  1.2672807779
H   4.7430389028  1.2937581441 -1.0798183857
H   1.6031126749  0.0492225535  2.2388411001
H   5.0286534545  3.0768323338 -1.2138306931
17
Image 778  Energy = -421.8069942958
C  -0.8919321504 -0.1741831048  0.8538042293
O  -1.2236789634  0.7427553647  1.6786928659
C  -0.7418191789  0.0842432913 -0.5829600898
C   0.6079265419  0.7794374762 -0.7365885688
C   1.6678596201  0.4532583833  0.2755754556
O   2.7820355259  0.6956418183  0.2413830948
C   0.9199465677 -0.2219759209  1.2918374199
O   4.8476132422  2.2558526055 -0.7842686519
H  -1.4385638886 -1.1550688040  1.0124361804
H  -0.7603933776 -0.8470766966 -1.0620860941
H  -1.5039420682  0.6441262941 -1.0217828341
H   0.4945720520  1.8448563246 -0.6917230706
H   1.0443730800  0.5541576434 -1.6884363661
H   1.3715945668 -1.2059340205  1.2677777377
H   4.7452676372  1.2937858978 -1.0800695439
H   1.6001992110  0.0492952743  2.2417477319
H   5.0289415821  3.0768281732 -1.2153394963
17
Image 779  Energy = -421.8080893050
C  -0.8905563266 -0.1750478632  0.8548048560
O  -1.2226328558  0.7414731058  1.6808433916
C  -0.7418557564  0.0848049803 -0.5837210360
C   0.6079824026  0.7798266825 -0.7374620055
C   1.6678285723  0.4543212228  0.2759047106
O   2.7829998966  0.6984949950  0.2416976211
C   0.9170736772 -0.2228932081  1.2934469508
O   4.8480558115  2.2559817082 -0.7853177461
H  -1.4366598552 -1.1565475868  1.0137384118
H  -0.7603480801 -0.8468671046 -1.0645471633
H  -1.5048252251  0.6462098895 -1.0219716299
H   0.4944375094  1.8457979989 -0.6937243594
H   1.0449377469  0.5534554053 -1.6894516204
H   1.3695508737 -1.2090162992  1.2682746194
H   4.7474961578  1.2938141077 -1.0803206547
H   1.5972857715  0.0493680290  2.2446540065
H   5.0292296796  3.0768239367 -1.2168483525
17
Image 780  Energy = -421.8091313321
C  -0.8891805837 -0.1759126109  0.8558059607
O  -1.2215870342  0.7401911422  1.6829937048
C  -0.7418918518  0.0853667513 -0.5844819540
C   0.6080382512  0.7802159929 -0.7383357638
C   1.6677958833  0.4553838012  0.2762338181
O   2.7839659837  0.7013483154  0.2420118714
C   0.9142009722 -0.2238106842  1.2950571728
O   4.8484983223  2.2561104276 -0.7863665316
H  -1.4347558832 -1.1580262785  1.0150405704
H  -0.7603027239 -0.8466578736 -1.0670082044
H  -1.5057086021  0.6482935621 -1.0221605130
H   0.4943029290  1.8467397581 -0.6957254783
H   1.0455024041  0.5527532448 -1.6904670025
H   1.3675073809 -1.2120987727  1.2687714220
H   4.7497244657  1.2938427889 -1.0805717195
H   1.5943723386  0.0494408156  2.2475599173
H   5.0295177478  3.0768196195 -1.2183572701
17
Image 781  Energy = -421.8101214219
C  -0.8878049202 -0.1767773472  0.8568075587
O  -1.2205415105  0.7389094806  1.6851438055
C  -0.7419274593  0.0859286017 -0.5852428405
C   0.6080940914  0.7806054139 -0.7392098571
C   1.6677615130  0.4564461027  0.2765627930
O   2.7849337986  0.7042017864  0.2423258473
C   0.9113285016 -0.2247283629  1.2966680858
O   4.8489407749  2.2562387533 -0.7874150000
H  -1.4328519641 -1.1595048794  1.0163426546
H  -0.7602573083 -0.8464490037 -1.0694692231
H  -1.5065922012  0.6503773157 -1.0223494814
H   0.4941683111  1.8476816043 -0.6977264307
H   1.0460670525  0.5520511625 -1.6914825157
H   1.3654640777 -1.2151814340  1.2692681442
H   4.7519525623  1.2938719578 -1.0808227397
H   1.5914588929  0.0495136314  2.2504654574
H   5.0298057876  3.0768152170 -1.2198662582
17
Image 782  Energy = -421.8110600827
C  -0.8864293343 -0.1776420711  0.8578096668
O  -1.2194962977  0.7376281279  1.6872936935
C  -0.7419625720  0.0864905289 -0.5860036915
C   0.6081499266  0.7809949521 -0.7400842998
C   1.6677254185  0.4575081101  0.2768916512
O   2.7859033541  0.7070554152  0.2426395504
C   0.9084563169 -0.2256462590  1.2982796903
O   4.8493831697  2.2563666739 -0.7884631421
H  -1.4309480890 -1.1609833896  1.0176446626
H  -0.7602118325 -0.8462404952 -1.0719302261
H  -1.5074760245  0.6524611546 -1.0225385327
H   0.4940336558  1.8486235395 -0.6997272196
H   1.0466316929  0.5513491586 -1.6924981636
H   1.3634209532 -1.2182642752  1.2697647852
H   4.7541804490  1.2939016319 -1.0810737169
H   1.5885454137  0.0495864734  2.2533706192
H   5.0300937997  3.0768107238 -1.2213753267
17
Image 783  Energy = -421.8119481707
C  -0.8850538238 -0.1785067807  0.8588123036
O  -1.2184514093  0.7363470914  1.6894433682
C  -0.7419971827  0.0870525301 -0.5867645027
C   0.6082057607  0.7813846148 -0.7409591074
C   1.6676875537  0.4585698052  0.2772204090
O   2.7868746638  0.7099092094  0.2429529822
C   0.9055844722 -0.2265643878  1.2998919871
O   4.8498255072  2.2564941773 -0.7895109482
H  -1.4290442487 -1.1624618089  1.0189465925
H  -0.7601662954 -0.8460323488 -1.0743912203
H  -1.5083600745  0.6545450832 -1.0227276645
H   0.4938989633  1.8495655661 -0.7017278485
H   1.0471963261  0.5506472336 -1.6935139499
H   1.3613779963 -1.2213472879  1.2702613438
H   4.7564081271  1.2939318306 -1.0813246527
H   1.5856318786  0.0496593380  2.2562753939
H   5.0303817853  3.0768061342 -1.2228844861
17
Image 784  Energy = -421.8127864988
C  -0.8836783858 -0.1793714739  0.8598154892
O  -1.2174068604  0.7350663785  1.6915928289
C  -0.7420312831  0.0876146023 -0.5875252693
C   0.6082615983  0.7817744099 -0.7418342966
C   1.6676478690  0.4596311689  0.2775490831
O   2.7878477430  0.7127631768  0.2432661445
C   0.9027130250 -0.2274827659  1.3015049777
O   4.8502677877  2.2566212497 -0.7905584075
H  -1.4271404335 -1.1639401370  1.0202484421
H  -0.7601206960 -0.8458245652 -1.0768522132
H  -1.5092443537  0.6566291063 -1.0229168741
H   0.4937642336  1.8505076866 -0.7037283208
H   1.0477609533  0.5499453880 -1.6945298786
H   1.3593351955 -1.2244304636  1.2707578191
H   4.7586355982  1.2939625750 -1.0815755488
H   1.5827182635  0.0497322215  2.2591797722
H   5.0306697454  3.0768014418 -1.2243937478
17
Image 785  Energy = -421.8135760810
C  -0.8823030164 -0.1802361484  0.8608192461
O  -1.2163626672  0.7337859976  1.6937420743
C  -0.7420648641  0.0881767422 -0.5882859858
C   0.6083174441  0.7821643460 -0.7427098854
C   1.6676063104  0.4606921818  0.2778776907
O   2.7888226084  0.7156173249  0.2435790386
C   0.8998420364 -0.2284014114  1.3031186640
O   4.8507100116  2.2567478766 -0.7916055081
H  -1.4252366332 -1.1654183733  1.0215502089
H  -0.7600750332 -0.8456171457 -1.0793132127
H  -1.5101288650  0.6587132289 -1.0231061585
H   0.4936294670  1.8514499034 -0.7057286398
H   1.0483255752  0.5492436226 -1.6955459541
H   1.3572925386 -1.2275137934  1.2712542101
H   4.7608628637  1.2939938882 -1.0818264072
H   1.5798045424  0.0498051200  2.2620837432
H   5.0309576811  3.0767966399 -1.2259031242
17
Image 786  Energy = -421.8143175920
C  -0.8809277100 -0.1811008015  0.8618235986
O  -1.2153188477  0.7325059576  1.6958911027
C  -0.7420979154  0.0887389463 -0.5890466459
C   0.6083733036  0.7825544324 -0.7435858936
C   1.6675628195  0.4617528235  0.2782062492
O   2.7897992785  0.7184716618  0.2438916661
C   0.8969715719 -0.2293203440  1.3047330490
O   4.8511521792  2.2568740414 -0.7926522368
H  -1.4233328372 -1.1668965167  1.0228518901
H  -0.7600293056 -0.8454100919 -1.0817742270
H  -1.5110136116  0.6607974561 -1.0232955146
H   0.4934946636  1.8523922192 -0.7077288091
H   1.0488901929  0.5485419381 -1.6965621810
H   1.3552500123 -1.2305972685  1.2717505159
H   4.7630899250  1.2940257956 -1.0820772298
H   1.5768906873  0.0498780296  2.2649872949
H   5.0312455937  3.0767917210 -1.2274126286
17
Image 787  Energy = -421.8150120548
C  -0.8795524592 -0.1819654306  0.8628285739
O  -1.2142754218  0.7312262685  1.6980399120
C  -0.7421304258  0.0893012105 -0.5898072426
C   0.6084291832  0.7829446794 -0.7444623429
C   1.6675173319  0.4628130732  0.2785347767
O   2.7907777738  0.7213261953  0.2442040285
C   0.8941017023 -0.2302395854  1.3063481365
O   4.8515942907  2.2569997261 -0.7936985790
H  -1.4214290344 -1.1683745659  1.0241534826
H  -0.7599835119 -0.8452034056 -1.0842352647
H  -1.5118985969  0.6628817934 -1.0234849388
H   0.4933598236  1.8533346370 -0.7097288321
H   1.0494548073  0.5478403355 -1.6975785643
H   1.3532076020 -1.2336808801  1.2722467351
H   4.7653167832  1.2940583256 -1.0823280190
H   1.5739766675  0.0499509462  2.2678904137
H   5.0315334844  3.0767866766 -1.2289222756
17
Image 788  Energy = -421.8161859962
C  -0.8781770874 -0.1828301280  0.8638341718
O  -1.2132324838  0.7299470461  1.7001885707
C  -0.7421624049  0.0898635347 -0.5905677624
C   0.6084850923  0.7833351245 -0.7453393081
C   1.6674697081  0.4638728259  0.2788633326
O   2.7917581823  0.7241809676  0.2445160902
C   0.8912326397 -0.2311590244  1.3079641928
O   4.8520363488  2.2571249264 -0.7947445082
H  -1.4195252253 -1.1698525277  1.0254549824
H  -0.7599376452 -0.8449970856 -1.0866963289
H  -1.5127838222  0.6649662509 -1.0236744260
H   0.4932249449  1.8542771564 -0.7117287054
H   1.0500194240  0.5471388132 -1.6985951050
H   1.3511653296 -1.2367646080  1.2727428708
H   4.7675434346  1.2940914705 -1.0825787813
H   1.5710622033  0.0500237352  2.2707928008
H   5.0318213611  3.0767815222 -1.2304320867
17
Image 789  Energy = -421.8167882287
C  -0.8768017617 -0.1836947875  0.8648404582
O  -1.2121899817  0.7286681904  1.7023369986
C  -0.7421938144  0.0904259095 -0.5913282029
C   0.6085410359  0.7837257524 -0.7462167617
C   1.6674199433  0.4649321463  0.2791918923
O   2.7927404616  0.7270359502  0.2448278907
C   0.8883643230 -0.2320788324  1.3095809457
O   4.8524783505  2.2572496026 -0.7957900163
H  -1.4176213852 -1.1713303904  1.0267563854
H  -0.7598917097 -0.8447911385 -1.0891574355
H  -1.5136692946  0.6670508296 -1.0238639733
H   0.4930900301  1.8552197846 -0.7137284395
H   1.0505840393  0.5464373758 -1.6996118137
H   1.3491231374 -1.2398484552  1.2732389144
H   4.7697698847  1.2941253068 -1.0828295147
H   1.5681475229  0.0500965340  2.2736947455
H   5.0321092184  3.0767762214 -1.2319420731
17
Image 790  Energy = -421.8173457239
C  -0.8754264680 -0.1845594057  0.8658474707
O  -1.2111479427  0.7273897155  1.7044851922
C  -0.7422246374  0.0909883297 -0.5920885541
C   0.6085970230  0.7841165770 -0.7470947328
C   1.6673679505  0.4659910101  0.2795204755
O   2.7937246412  0.7298911516  0.2451394316
C   0.8854968424 -0.2329990406  1.3111984019
O   4.8529202960  2.2573737292 -0.7968350824
H  -1.4157175007 -1.1728081508  1.0280576871
H  -0.7598457034 -0.8445855675 -1.0916185950
H  -1.5145550191  0.6691355361 -1.0240535760
H   0.4929550798  1.8561625252 -0.7157280381
H   1.0511486544  0.5457360250 -1.7006286971
H   1.3470810056 -1.2429324102  1.2737348647
H   4.7719961343  1.2941598742 -1.0830802222
H   1.5652325859  0.0501693385  2.2765962285
H   5.0323970583  3.0767707627 -1.2334522543
17
Image 791  Energy = -421.8178593535
C  -0.8740511893 -0.1854239793  0.8668552514
O  -1.2101063971  0.7261116374  1.7066331470
C  -0.7422548550  0.0915507891 -0.5928488049
C   0.6086530637  0.7845076141 -0.7479732541
C   1.6673136317  0.4670493907  0.2798491033
O   2.7947107550  0.7327465807  0.2454507142
C   0.8826302973 -0.2339196845  1.3128165699
O   4.8533621849  2.2574972772 -0.7978796829
H  -1.4138135572 -1.1742858052  1.0293588820
H  -0.7597996241 -0.8443803767 -1.0940798185
H  -1.5154410014  0.6712203774 -1.0242432286
H   0.4928200942  1.8571053819 -0.7177275047
H   1.0517132705  0.5450347629 -1.7016457626
H   1.3450389128 -1.2460164602  1.2742307202
H   4.7742221840  1.2941952177 -1.0833309071
H   1.5623173475  0.0502421439  2.2794972275
H   5.0326848824  3.0767651329 -1.2349626518
17
Image 792  Energy = -421.8183297725
C  -0.8726759053 -0.1862885046  0.8678638485
O  -1.2090653793  0.7248339744  1.7087808580
C  -0.7422844448  0.0921132808 -0.5936089424
C   0.6087091699  0.7848988816 -0.7488523629
C   1.6672568757  0.4681072582  0.2801777982
O   2.7956988424  0.7356022469  0.2457617396
C   0.8797647980 -0.2348408039  1.3144354600
O   4.8538040173  2.2576202135 -0.7989237905
H  -1.4119095383 -1.1757633491  1.0306599641
H  -0.7597534694 -0.8441755708 -1.0965411182
H  -1.5163272480  0.6733053615 -1.0244329251
H   0.4926850740  1.8580483593 -0.7197268431
H   1.0522778890  0.5443335921 -1.7026630185
H   1.3429968350 -1.2491005907  1.2747264793
H   4.7764480341  1.2942313887 -1.0835815731
H   1.5594017567  0.0503149451  2.2823977166
H   5.0329726930  3.0767593170 -1.2364732904
17
Image 793  Energy = -421.8187580170
C  -0.8713005917 -0.1871529776  0.8688733171
O  -1.2080249287  0.7235567481  1.7109283192
C  -0.7423133808  0.0926757970 -0.5943689521
C   0.6087653549  0.7852903999 -0.7497321014
C   1.6671975549  0.4691645795  0.2805065844
O   2.7966889497  0.7384581607  0.2460725089
C   0.8769004688 -0.2357624447  1.3160550852
O   4.8542457926  2.2577424998 -0.7999673736
H  -1.4100054262 -1.1772407771  1.0319609261
H  -0.7597072364 -0.8439711557 -1.0990025075
H  -1.5172137663  0.6753904971 -1.0246226584
H   0.4925500197  1.8589914622 -0.7217260572
H   1.0528425115  0.5436325156 -1.7036804743
H   1.3409547454 -1.2521847849  1.2752221402
H   4.7786736846  1.2942684467 -1.0838322243
H   1.5564857555  0.0503877357  2.2852976658
H   5.0332604925  3.0767532977 -1.2379841980
17
Image 794  Energy = -421.8191445556
C  -0.8699252194 -0.1880173940  0.8698837218
O  -1.2069850906  0.7222799839  1.7130755236
C  -0.7423416325  0.0932383286 -0.5951288171
C   0.6088216343  0.7856821928 -0.7506125192
C   1.6671355211  0.4702213162  0.2808354888
O   2.7976811321  0.7413143336  0.2463830225
C   0.8740374507 -0.2366846597  1.3176754615
O   4.8546875105  2.2578640913 -0.8010103952
H  -1.4081012002 -1.1787180828  1.0332617595
H  -0.7596609216 -0.8437671384 -1.1014640013
H  -1.5181005652  0.6774757943 -1.0248124204
H   0.4924149320  1.8599346962 -0.7237251509
H   1.0534071396  0.5429315373 -1.7046981407
H   1.3389126140 -1.2552690236  1.2757177005
H   4.7808991351  1.2943064610 -1.0840828656
H   1.5535692768  0.0504605085  2.2881970394
H   5.0335482836  3.0767470547 -1.2394954070
17
Image 795  Energy = -421.8194904925
C  -0.8685497541 -0.1888817488  0.8708951384
O  -1.2059459184  0.7210037122  1.7152224626
C  -0.7423691632  0.0938008649 -0.5958885175
C   0.6088780264  0.7860742883 -0.7514936739
C   1.6670705996  0.4712774240  0.2811645414
O   2.7986754559  0.7441707787  0.2466932804
C   0.8711759069 -0.2376075108  1.3192966090
O   4.8551291702  2.2579849352 -0.8020528116
H  -1.4061968368 -1.1801952586  1.0345624539
H  -0.7596145210 -0.8435635275 -1.1039256163
H  -1.5189876552  0.6795612645 -1.0250022018
H   0.4922798117  1.8608780679 -0.7257241288
H   1.0539717755  0.5422306617 -1.7057160307
H   1.3368704063 -1.2583532843  1.2762131579
H   4.7831243845  1.2943455136 -1.0843335025
H   1.5506522420  0.0505332546  2.2910957950
H   5.0338360696  3.0767405644 -1.2410069553
17
Image 796  Energy = -421.8197966314
C  -0.8671741541 -0.1897460362  0.8719076579
O  -1.2049074752  0.7197279698  1.7173691258
C  -0.7423959284  0.0943633931 -0.5966480301
C   0.6089345532  0.7864667199 -0.7523756349
C   1.6670025817  0.4723328506  0.2814937766
O   2.7996720024  0.7470275110  0.2470032821
C   0.8683160296 -0.2385310719  1.3209185532
O   4.8555707710  2.2581049680 -0.8030945702
H  -1.4042923082 -1.1816722949  1.0358629968
H  -0.7595680296 -0.8433603337 -1.1063873720
H  -1.5198750491  0.6816469210 -1.0251919911
H   0.4921446600  1.8618215847 -0.7277229953
H   1.0545364213  0.5415298947 -1.7067341595
H   1.3348280822 -1.2614375406  1.2767085091
H   4.7853494314  1.2943857030 -1.0845841415
H   1.5477345577  0.0506059635  2.2939938811
H   5.0341238542  3.0767337980 -1.2425188880
17
Image 797  Energy = -421.8200637807
C  -0.8657983686 -0.1906102494  0.8729213916
O  -1.2038698379  0.7184528020  1.7195155000
C  -0.7424218732  0.0949258980 -0.5974073265
C   0.6089912411  0.7868595283 -0.7532584863
C   1.6669312125  0.4733875334  0.2818232342
O   2.8006708722  0.7498845482  0.2473130260
C   0.8654580500 -0.2394554324  1.3225413268
O   4.8560123118  2.2582241120 -0.8041356064
H  -1.4023875810 -1.1831491803  1.0371633726
H  -0.7595214416 -0.8431575705 -1.1088492907
H  -1.5207627622  0.6837327797 -1.0253817747
H   0.4920094779  1.8627652557 -0.7297217556
H   1.0551010798  0.5408292435 -1.7077525454
H   1.3327855938 -1.2645217607  1.2772037504
H   4.7875742731  1.2944271494 -1.0848347905
H   1.5448161102  0.0506786222  2.2968912343
H   5.0344116421  3.0767267207 -1.2440312598
17
Image 798  Energy = -421.8202929654
C  -0.8644223343 -0.1914743800  0.8739364786
O  -1.2028331021  0.7171782665  1.7216615687
C  -0.7424469285  0.0954883604 -0.5981663720
C   0.6090481233  0.7872527646 -0.7541423334
C   1.6668561740  0.4744413948  0.2821529623
O   2.8016721934  0.7527419118  0.2476225093
C   0.8626022531 -0.2403807037  1.3241649723
O   4.8564537909  2.2583422703 -0.8051758395
H  -1.4004826142 -1.1846259004  1.0384635616
H  -0.7594747492 -0.8429552549 -1.1113113996
H  -1.5216508140  0.6858188602 -1.0255715355
H   0.4918742673  1.8637090921 -0.7317204155
H   1.0556657544  0.5401287175 -1.7087712113
H   1.3307428827 -1.2676059059  1.2776988770
H   4.7897989058  1.2944700033 -1.0850854592
H   1.5418967586  0.0507512146  2.2997877746
H   5.0346994388  3.0767192887 -1.2455441385
17
Image 799  Energy = -421.8204849697
C  -0.8630459707 -0.1923384174  0.8749530981
O  -1.2017973898  0.7159044374  1.7238073097
C  -0.7424710047  0.0960507561 -0.5989251222
C   0.6091052421  0.7876464940 -0.7550273111
C   1.6667770581  0.4754943369  0.2824830202
O   2.8026761324  0.7555996286  0.2479317275
C   0.8597490020 -0.2413070284  1.3257895464
O   4.8568952063  2.2584593182 -0.8062151654
H  -1.3985773555 -1.1861024366  1.0397635380
H  -0.7594279426 -0.8427534092 -1.1137737322
H  -1.5225392294  0.6879051867 -1.0257612519
H   0.4917390303  1.8646531079 -0.7337189815
H   1.0562304491  0.5394283292 -1.7097901865
H   1.3286998748 -1.2706899274  1.2781938827
H   4.7920233239  1.2945144580 -1.0853361599
H   1.5389763224  0.0508237201  2.3026833989
H   5.0349872514  3.0767114459 -1.2470576108
17
Image 800  Energy = -421.8206409437
C  -0.8616691710 -0.1932023477  0.8759714891
O  -1.2007628631  0.7146314150  1.7259526934
C  -0.7424939819  0.0966130528 -0.5996835189
C   0.6091626536  0.7880408038 -0.7559135993
C   1.6666933207  0.4765462303  0.2828134847
O   2.8036829140  0.7584577334  0.2482406731
C   0.8568987766 -0.2422345961  1.3274151270
O   4.8573365551  2.2585750893 -0.8072534452
H  -1.3966717361 -1.1875787641  1.0410632670
H  -0.7593810089 -0.8425520638 -1.1162363316
H  -1.5234280416  0.6899917913 -1.0259508950
H   0.4916037695  1.8655973216 -0.7357174617
H   1.0567951694  0.5387280953 -1.7108095098
H   1.3266564730 -1.2737737614  1.2786887591
H   4.7942475191  1.2945607715 -1.0855869087
H   1.5360545622  0.0508961115  2.3055779684
H   5.0352750895  3.0767031173 -1.2485717916
17
Image 801  Energy = -421.8207621906
C  -0.8602917874 -0.1940661516  0.8769919868
O  -1.1997297484  0.7133593403  1.7280976770
C  -0.7425156910  0.0971752060 -0.6004414816
C   0.6092204361  0.7884358159 -0.7568014495
C   1.6666042005  0.4775968960  0.2831444606
O   2.8046928561  0.7613162740  0.2485493347
C   0.8540522451 -0.2431636718  1.3290418258
O   4.8577778331  2.2586893512 -0.8082904841
H  -1.3947656605 -1.1890548483  1.0423626992
H  -0.7593339295 -0.8423512616 -1.1186992566
H  -1.5243172971  0.6920787177 -1.0261404244
H   0.4914684892  1.8665417589 -0.7377158663
H   1.0573599227  0.5380280399 -1.7118292353
H   1.3246125428 -1.2768573200  1.2791834942
H   4.7964714784  1.2946093047 -1.0858377282
H   1.5331311442  0.0509683508  2.3084712884
H   5.0355629658  3.0766941978 -1.2500868408
17
Image 802  Energy = -421.8208501101
C  -0.8589136002 -0.1949298002  0.8780150943
O  -1.1986983845  0.7120884262  1.7302421958
C  -0.7425358775  0.0977371492 -0.6011988902
C   0.6092787067  0.7888317133 -0.7576912391
C   1.6665085560  0.4786460675  0.2834761015
O   2.8057064389  0.7641753203  0.2488576927
C   0.8512104054 -0.2440946522  1.3306698140
O   4.8582190337  2.2588017549 -0.8093259897
H  -1.3928589864 -1.1905306370  1.0436617601
H  -0.7592866768 -0.8421510675 -1.1211625927
H  -1.5252070653  0.6941660304 -1.0263297803
H   0.4913331954  1.8674864575 -0.7397142092
H   1.0579247196  0.5373282000 -1.7128494437
H   1.3225678844 -1.2799404728  1.2796780702
H   4.7986951813  1.2946605990 -1.0860886515
H   1.5302055694  0.0510403817  2.3113630651
H   5.0358508997  3.0766845297 -1.2516029973
17
Image 803  Energy = -421.8209064874
C  -0.8575342465 -0.1957932461  0.8790416508
O  -1.1976693348  0.7108190293  1.7323861393
C  -0.7425541164  0.0982987721 -0.6019555467
C   0.6093376603  0.7892288008 -0.7585835966
C   1.6664044860  0.4796933031  0.2838086597
O   2.8067244670  0.7670349870  0.2491657126
C   0.8483749168 -0.2450281974  1.3322993811
O   4.8586601459  2.2589117197 -0.8103594738
H  -1.3909514784 -1.1920060430  1.0449603240
H  -0.7592392044 -0.8419515909 -1.1236264794
H  -1.5260974615  0.6962538353 -1.0265188627
H   0.4911978983  1.8684314799 -0.7417125118
H   1.0584895778  0.5366286375 -1.7138702691
H   1.3205221672 -1.2830230048  1.2801724566
H   4.8009185911  1.2947155567 -1.0863397340
H   1.5272770087  0.0511121107  2.3142528073
H   5.0361389229  3.0766738501 -1.2531206575
17
Image 804  Energy = -421.8209352806
C  -0.8561530071 -0.1966563942  0.8800733352
O  -1.1966437263  0.7095518663  1.7345292837
C  -0.7425695554  0.0988598554 -0.6027110564
C   0.6093976850  0.7896276876 -0.7594797784
C   1.6662881899  0.4807377237  0.2841426333
O   2.8077485549  0.7698954981  0.2494733211
C   0.8455490933 -0.2459656259  1.3339311115
O   4.8591011466  2.2590180849 -0.8113899591
H  -1.3890426690 -1.1934808909  1.0462581380
H  -0.7591914199 -0.8417530519 -1.1260911897
H  -1.5269887152  0.6983423402 -1.0267074722
H   0.4910626186  1.8693769494 -0.7437108128
H   1.0590545314  0.5359294786 -1.7148919784
H   1.3184747353 -1.2861044867  1.2806665917
H   4.8031416302  1.2947759817 -1.0865910852
H   1.5243438095  0.0511833516  2.3171395281
H   5.0364270981  3.0766616321 -1.2546406105
17
Image 805  Energy = -421.8209458100
C  -0.8547677424 -0.1975189563  0.8811151799
O  -1.1956249418  0.7082890979  1.7366709411
C  -0.7425796358  0.0994197412 -0.6034642373
C   0.6094599436  0.7900301987 -0.7603835477
C   1.6661482794  0.4817766958  0.2844795037
O   2.8087835456  0.7727575041  0.2497802902
C   0.8427428783 -0.2469108850  1.3355667628
O   4.8595419645  2.2591173716 -0.8124145068
H  -1.3871311692 -1.1949546458  1.0475544339
H  -0.7591430448 -0.8415561141 -1.1285575210
H  -1.5278815093  0.7004321533 -1.0268950107
H   0.4909274190  1.8703232299 -0.7457092133
H   1.0596196792  0.5352311071 -1.7159153661
H   1.3164236374 -1.2891836227  1.2811602868
H   4.8053640490  1.2948472833 -1.0868430324
H   1.5214010362  0.0512535476  2.3200202484
H   5.0367156110  3.0766462932 -1.2561652115
17
Image 806  Energy = -421.8209210275
C  -0.8533823226 -0.1983814676  0.8821577343
O  -1.1946066462  0.7070266610  1.7388124378
C  -0.7425892559  0.0999795922 -0.6042172695
C   0.6095223124  0.7904329376 -0.7612878429
C   1.6660064269  0.4828152125  0.2848165424
O   2.8098197790  0.7756196763  0.2500871391
C   0.8399378767 -0.2478566329  1.3372028314
O   4.8599827497  2.2592161307 -0.8134386256
H  -1.3852195402 -1.1964283070  1.0488506278
H  -0.7590946163 -0.8413594016 -1.1310239579
H  -1.5287744759  0.7025220804 -1.0270825302
H   0.4907922060  1.8712695942 -0.7477075636
H   1.0601848347  0.5345328005 -1.7169388972
H   1.3143724092 -1.2922626813  1.2816539224
H   4.8075863604  1.2949193356 -1.0870949924
H   1.5184577715  0.0513237022  2.3229005309
H   5.0370041304  3.0766307671 -1.2576900869
17
Image 807  Energy = -421.8208616799
C  -0.8519967147 -0.1992439250  0.8832010427
O  -1.1935888699  0.7057645719  1.7409537729
C  -0.7425984010  0.1005393973 -0.6049701393
C   0.6095848059  0.7908359224 -0.7621926976
C   1.6658625568  0.4838532547  0.2851537681
O   2.8108572522  0.7784820152  0.2503938742
C   0.8371341934 -0.2488029102  1.3388393166
O   4.8604235034  2.2593143337 -0.8144622902
H  -1.3833077640 -1.1979018711  1.0501467125
H  -0.7590461330 -0.8411629100 -1.1334905093
H  -1.5296676155  0.7046121254 -1.0272700202
H   0.4906569817  1.8722160436 -0.7497058699
H   1.0607499995  0.5338345609 -1.7179625766
H   1.3123210219 -1.2953416410  1.2821474993
H   4.8098085684  1.2949921879 -1.0873469709
H   1.5155139553  0.0513938073  2.3257803503
H   5.0372926596  3.0766150370 -1.2592152626
17
Image 808  Energy = -421.8207681880
C  -0.8506108815 -0.2001063254  0.8842451563
O  -1.1925716474  0.7045028499  1.7430949451
C  -0.7426070535  0.1010991438 -0.6057228316
C   0.6096474407  0.7912391741 -0.7630981503
C   1.6657165814  0.4848908005  0.2854912019
O   2.8118959631  0.7813445214  0.2507005022
C   0.8343319485 -0.2497497633  1.3404762190
O   4.8608642268  2.2594119476 -0.8154854715
H  -1.3813958202 -1.1993753339  1.0514426797
H  -0.7589975933 -0.8409666347 -1.1359571854
H  -1.5305609290  0.7067022928 -1.0274574686
H   0.4905217487  1.8731625794 -0.7517041394
H   1.0613151753  0.5331363911 -1.7189864101
H   1.3102694426 -1.2984204775  1.2826410183
H   4.8120306771  1.2950658971 -1.0875989742
H   1.5125695188  0.0514638537  2.3286596774
H   5.0375812021  3.0765990836 -1.2607407686
17
Image 809  Energy = -421.8206412504
C  -0.8492247807 -0.2009686651  0.8852901354
O  -1.1915550193  0.7032415177  1.7452359525
C  -0.7426151926  0.1016588173 -0.6064753291
C   0.6097102362  0.7916427176 -0.7640042464
C   1.6655683977  0.4859278250  0.2858288671
O   2.8129359115  0.7842071955  0.2510070303
C   0.8315312815 -0.2506972464  1.3421135402
O   4.8613049213  2.2595089339 -0.8165081354
H  -1.3794836852 -1.2008486907  1.0527385194
H  -0.7589489954 -0.8407705704 -1.1384239975
H  -1.5314544171  0.7087925873 -1.0276448615
H   0.4903865099  1.8741092029 -0.7537023800
H   1.0618803640  0.5324382941 -1.7200104042
H   1.3082176335 -1.3014991632  1.2831344804
H   4.8142526908  1.2951405297 -1.0878510097
H   1.5096243818  0.0515338305  2.3315384776
H   5.0378697621  3.0765828844 -1.2622666392
17
Image 810  Energy = -421.8204813687
C  -0.8478383631 -0.2018309401  0.8863360514
O  -1.1905390327  0.7019806028  1.7473767927
C  -0.7426227937  0.1022184010 -0.6072276119
C   0.6097732151  0.7920465819 -0.7649110397
C   1.6654178833  0.4869642993  0.2861667908
O   2.8139770986  0.7870700377  0.2513134665
C   0.8287323565 -0.2516454237  1.3437512837
O   4.8617455887  2.2596052472 -0.8175302416
H  -1.3775713313 -1.2023219359  1.0540342199
H  -0.7589003370 -0.8405747110 -1.1408909581
H  -1.5323480808  0.7108830146 -1.0278321825
H   0.4902512686  1.8750559156 -0.7557006005
H   1.0624455679  0.5317402740 -1.7210345668
H   1.3061655500 -1.3045776660  1.2836278866
H   4.8164746146  1.2952161644 -1.0881030860
H   1.5066784504  0.0516037253  2.3344167103
H   5.0381583446  3.0765664128 -1.2637929149
17
Image 811  Energy = -421.8202892570
C  -0.8464515707 -0.2026931460  0.8873829902
O  -1.1895237444  0.7007201383  1.7495174626
C  -0.7426298265  0.1027778751 -0.6079796564
C   0.6098364048  0.7924508022 -0.7658185948
C   1.6652648904  0.4880001892  0.2865050047
O   2.8150195285  0.7899330487  0.2516198195
C   0.8259353701 -0.2525943717  1.3453894547
O   4.8621862307  2.2597008330 -0.8185517416
H  -1.3756587255 -1.2037950628  1.0553297668
H  -0.7588516153 -0.8403790497 -1.1433580818
H  -1.5332419213  0.7129735810 -1.0280194122
H   0.4901160292  1.8760027195 -0.7576988116
H   1.0630107897  0.5310423359 -1.7220589072
H   1.3041131391 -1.3076559482  1.2841212382
H   4.8186964539  1.2952928953 -1.0883552133
H   1.5037316119  0.0516735234  2.3372943261
H   5.0384469555  3.0765496367 -1.2653196440
17
Image 812  Energy = -421.8200654301
C  -0.8450643341 -0.2035552779  0.8884310572
O  -1.1885092233  0.6994601653  1.7516579579
C  -0.7426362542  0.1033372158 -0.6087314348
C   0.6098998383  0.7928554215 -0.7667269910
C   1.6651092376  0.4890354535  0.2868435464
O   2.8160632080  0.7927962289  0.2519260993
C   0.8231405618 -0.2535441841  1.3470280612
O   4.8626268497  2.2597956247 -0.8195725761
H  -1.3737458281 -1.2052680632  1.0566251425
H  -0.7588028270 -0.8401835785 -1.1458253861
H  -1.5341359399  0.7150642943 -1.0282065270
H   0.4899807965  1.8769496164 -0.7596970256
H   1.0635760323  0.5303444861 -1.7230834366
H   1.3020603362 -1.3107339644  1.2846145366
H   4.8209182152  1.2953708377 -1.0886074039
H   1.5007837291  0.0517432067  2.3401712650
H   5.0387356018  3.0765325170 -1.2668468850
17
Image 813  Energy = -421.8198107597
C  -0.8436765680 -0.2044173300  0.8894803843
O  -1.1874955555  0.6982007356  1.7537982730
C  -0.7426420301  0.1038963941 -0.6094829127
C   0.6099635572  0.7932604936 -0.7676363274
C   1.6649506967  0.4900700412  0.2871824621
O   2.8171081487  0.7956595787  0.2522323174
C   0.8203482307 -0.2544949779  1.3486671148
O   4.8630674483  2.2598895390 -0.8205926709
H  -1.3718325894 -1.2067409266  1.0579203250
H  -0.7587539676 -0.8399882874 -1.1482928919
H  -1.5350301383  0.7171551634 -1.0283934977
H   0.4898455770  1.8778966088 -0.7616952578
H   1.0641412994  0.5296467328 -1.7241081688
H   1.3000070613 -1.3138116590  1.2851077834
H   4.8231399058  1.2954501358 -1.0888596732
H   1.4978346315  0.0518127532  2.3430474515
H   5.0390242923  3.0765150048 -1.2683747110
17
Image 814  Energy = -421.8195258088
C  -0.8422881644 -0.2052792959  0.8905311415
O  -1.1864828512  0.6969419163  1.7559384002
C  -0.7426470939  0.1044553727 -0.6102340466
C   0.6100276146  0.7936660879 -0.7685467323
C   1.6647889735  0.4911038875  0.2875218101
O   2.8181543678  0.7985230985  0.2525384878
C   0.8175587609 -0.2554469034  1.3503066322
O   4.8635080299  2.2599824689 -0.8216119305
H  -1.3699189463 -1.2082136396  1.0592152860
H  -0.7587050316 -0.8397931643 -1.1507606254
H  -1.5359245188  0.7192462000 -1.0285802868
H   0.4897103787  1.8788436994 -0.7636935274
H   1.0647065957  0.5289490866 -1.7251331220
H   1.2979532116 -1.3168889610  1.2856009807
H   4.8253615350  1.2955309746 -1.0891120408
H   1.4948841002  0.0518821345  2.3459227884
H   5.0393130382  3.0764970371 -1.2699032152
17
Image 815  Energy = -421.8192113769
C  -0.8408989813 -0.2061411675  0.8915835554
O  -1.1854712575  0.6956837974  1.7580783288
C  -0.7426513647  0.1050141031 -0.6109847795
C   0.6100920814  0.7940722971 -0.7694583763
C   1.6646236740  0.4921369065  0.2878616667
O   2.8192018922  0.8013867888  0.2528446280
C   0.8147726642 -0.2564001609  1.3519466379
O   4.8639485988  2.2600742718 -0.8226302273
H  -1.3680048150 -1.2096861837  1.0605099875
H  -0.7586560113 -0.8395981936 -1.1532286208
H  -1.5368190842  0.7213374189 -1.0287668449
H   0.4895752126  1.8797908921 -0.7656918591
H   1.0652719270  0.5282515625 -1.7261583195
H   1.2958986507 -1.3199657769  1.2860941312
H   4.8275831143  1.2956136013 -1.0893645326
H   1.4919318444  0.0519513133  2.3487971463
H   5.0396018546  3.0764785298 -1.2714325217
17
Image 816  Energy = -421.8188413650
C  -0.8395088478 -0.2070029164  0.8926379643
O  -1.1844609568  0.6944264784  1.7602180163
C  -0.7426547244  0.1055725177 -0.6117350376
C   0.6101570567  0.7944792465 -0.7703714845
C   1.6644542856  0.4931690094  0.2882020887
O   2.8202507362  0.8042506336  0.2531507677
C   0.8119906005 -0.2573549192  1.3535871727
O   4.8643891570  2.2601647443 -0.8236473793
H  -1.3660900968 -1.2111585262  1.0618043691
H  -0.7586068964 -0.8394033536 -1.1556969166
H  -1.5377138339  0.7234288316 -1.0289531009
H   0.4894400940  1.8807381872 -0.7676902803
H   1.0658372980  0.5275541859 -1.7271837930
H   1.2938432438 -1.3230420801  1.2865872493
H   4.8298046544  1.2956983690 -1.0896171853
H   1.4889774686  0.0520202313  2.3516703485
H   5.0398907614  3.0764593605 -1.2729627990
17
Image 817  Energy = -421.8184671476
C  -0.8381174390 -0.2078645532  0.8936948166
O  -1.1834522873  0.6931701864  1.7623574741
C  -0.7426570080  0.1061305167 -0.6124846966
C   0.6102226889  0.7948871367 -0.7712864363
C   1.6642799230  0.4941999788  0.2885432968
O   2.8213010005  0.8071146544  0.2534569315
C   0.8092137181 -0.2583117449  1.3552282884
O   4.8648297185  2.2602535921 -0.8246631228
H  -1.3641745943 -1.2126306365  1.0630983611
H  -0.7585576701 -0.8392086130 -1.1581655927
H  -1.5386087796  0.7255204798 -1.0291389545
H   0.4893050454  1.8816855976 -0.7696888507
H   1.0664027251  0.5268569829 -1.7282095936
H   1.2917866328 -1.3261175408  1.2870803268
H   4.8320261835  1.2957857866 -1.0898700523
H   1.4860203520  0.0520888182  2.3545421155
H   5.0401797905  3.0764393583 -1.2744943112
17
Image 818  Energy = -421.8180673480
C  -0.8367242717 -0.2087260580  0.8947549037
O  -1.1824457645  0.6919152437  1.7644966634
C  -0.7426579303  0.1066879343 -0.6132335619
C   0.6102892255  0.7952962931 -0.7722038335
C   1.6640991925  0.4952295154  0.2888855547
O   2.8223528033  0.8099788518  0.2537631723
C   0.8064438143 -0.2592713501  1.3568700842
O   4.8652702978  2.2603403169 -0.8256770105
H  -1.3622580173 -1.2141024481  1.0643918315
H  -0.7585083050 -0.8390139205 -1.1606347630
H  -1.5395039317  0.7276124132 -1.0293242351
H   0.4891701049  1.8826331349 -0.7716876539
H   1.0669682278  0.5261600071 -1.7292358031
H   1.2897283393 -1.3291918256  1.2875733710
H   4.8342477374  1.2958767177 -1.0901232233
H   1.4830594842  0.0521569456  2.3574119923
H   5.0404689936  3.0764182287 -1.2760274886
17
Image 819  Energy = -421.8176447242
C  -0.8353283866 -0.2095873929  0.8958198069
O  -1.1814424204  0.6906622972  1.7666355035
C  -0.7426569194  0.1072444409 -0.6139812455
C   0.6103571612  0.7957073662 -0.7731248800
C   1.6639093033  0.4962570223  0.2892293862
O   2.8234063875  0.8128432240  0.2540695924
C   0.8036844854 -0.2602351578  1.3585127626
O   4.8657109233  2.2604239230 -0.8266881465
H  -1.3603397883 -1.2155738260  1.0656845157
H  -0.7584587461 -0.8388191749 -1.1631046520
H  -1.5403993097  0.7297047290 -1.0295086017
H   0.4890353482  1.8835808218 -0.7736868544
H   1.0675338443  0.5254633673 -1.7302625839
H   1.2876674099 -1.3322642683  1.2880663970
H   4.8364693842  1.2959728892 -1.0903768777
H   1.4800928499  0.0522243571  2.3602790660
H   5.0407584733  3.0763953819 -1.2775631886
17
Image 820  Energy = -421.8172076479
C  -0.8339269239 -0.2104484450  0.8968942657
O  -1.1804453561  0.6894132964  1.7687737386
C  -0.7426522576  0.1077990493 -0.6147265837
C   0.6104279794  0.7961223065 -0.7740531842
C   1.6637018793  0.4972807078  0.2895763539
O   2.8244624899  0.8157077496  0.2543764928
C   0.8009465345 -0.2612074322  1.3601569345
O   4.8661516776  2.2605014252 -0.8276938369
H  -1.3584181862 -1.2170443547  1.0669756144
H  -0.7584088281 -0.8386240763 -1.1655759166
H  -1.5412949675  0.7317977066 -1.0296910325
H   0.4889010040  1.8845287205 -0.7756869336
H   1.0680996860  0.5247673950 -1.7312904184
H   1.2856009968 -1.3353328598  1.2885594473
H   4.8386913148  1.2960794822 -1.0906315517
H   1.4771144220  0.0522902834  2.3631405844
H   5.0410485352  3.0763690455 -1.2791039741
