17
Image 0  Energy = -421.8674527846
C  -2.0000000000  0.5000000000  0.0000000000
O  -2.0000000000  1.7200000000  0.0000000000
C  -0.7500000000 -0.3500000000  0.0000000000
C   0.5500000000  0.4500000000  0.0000000000
C   1.8500000000 -0.3500000000  0.0000000000
O   1.9500000000 -1.5500000000  0.0000000000
C   3.0500000000  0.5500000000  0.0000000000
O   4.5000000000  2.2000000000  0.0000000000
H  -2.9500000000  0.0000000000  0.0000000000
H  -0.8000000000 -1.0000000000  0.8800000000
H  -0.8000000000 -1.0000000000 -0.8800000000
H   0.6000000000  1.1000000000  0.8800000000
H   0.6000000000  1.1000000000 -0.8800000000
H   3.0000000000  1.2000000000  0.8800000000
H   3.0000000000  1.2000000000 -0.8800000000
H   3.9500000000  0.0000000000  0.0000000000
H   4.8000000000  3.1000000000  0.0000000000
17
Image 1  Energy = -421.8385109673
C  -1.9286895345  0.4630625771  0.0565733621
O  -1.9512369230  1.6612652936  0.1117840245
C  -0.7387661973 -0.3169496287 -0.0378181647
C   0.5492562100  0.4689749166 -0.0481105921
C   1.8181601059 -0.2817308097  0.0145756428
O   2.0010336946 -1.4461128565  0.0155401865
C   2.9271085358  0.5167787426  0.0640839894
O   4.5263541700  2.2071146641 -0.0530710404
H  -2.8558003971 -0.0804357728  0.0672177534
H  -0.7966215256 -0.9969765336  0.7592630535
H  -0.8472258094 -0.8980618517 -0.8992717847
H   0.5913675784  1.1519961999  0.7787989024
H   0.6281074707  1.0663204348 -0.9368568386
H   2.8916390923  1.0551798536  0.9213203911
H   3.1132064866  1.2010211152 -0.8818016473
H   3.8052085030 -0.0039969572  0.1481944197
H   4.8168985401  3.1025506114 -0.0804216575
17
Image 2  Energy = -421.6680998950
C  -1.8622118000  0.4219774804  0.1119040266
O  -1.9017164836  1.6009203987  0.2200867382
C  -0.7321769938 -0.2875221802 -0.0750197003
C   0.5518748200  0.4888389184 -0.0952258104
C   1.7910610136 -0.2243701779  0.0294518228
O   2.0548433304 -1.3250177195  0.0303128118
C   2.8045903602  0.4793519922  0.1441904313
O   4.5476157978  2.2091461167 -0.1042327274
H  -2.7597788686 -0.1553475125  0.1322920899
H  -0.7940413495 -0.9903570014  0.6377071704
H  -0.8932728793 -0.7947750589 -0.9129950836
H   0.5846210299  1.2008424726  0.6789228735
H   0.6566221029  1.0319611608 -0.9900680906
H   2.7865227155  0.9064777217  0.9535864342
H   3.2256879883  1.2083593502 -0.8937072007
H   3.6578913507 -0.0028311474  0.2912665229
H   4.8318678654  3.1023451858 -0.1584723077
17
Image 3  Energy = -421.3703095231
C  -1.7938812872  0.3820659613  0.1660775385
O  -1.8535192246  1.5402422623  0.3249827828
C  -0.7278509117 -0.2608714028 -0.1114931940
C   0.5555555188  0.5075720087 -0.1414089655
C   1.7669680187 -0.1678858762  0.0441558582
O   2.1116520418 -1.1953863642  0.0448062077
C   2.6780075700  0.4447476835  0.2368059503
O   4.5697804714  2.2123201827 -0.1524568262
H  -2.6666585089 -0.2277677922  0.1953062121
H  -0.7914708720 -0.9819964383  0.5172634388
H  -0.9373267439 -0.6924031251 -0.9233593002
H   0.5774888186  1.2473998486  0.5810880113
H   0.6843542758  0.9976614158 -1.0400399352
H   2.6853544183  0.7487361985  0.9682687396
H   3.3341413026  1.2138439921 -0.9068056985
H   3.5109579510 -0.0004788356  0.4309389023
H   4.8464471595  3.1022002827 -0.2341297207
17
Image 4  Energy = -421.0742279453
C  -1.7286014901  0.3447566766  0.2213861048
O  -1.8062752821  1.4800475527  0.4296290066
C  -0.7211592531 -0.2338422855 -0.1483385494
C   0.5603241152  0.5265202445 -0.1868132664
C   1.7487828083 -0.1063202317  0.0597618633
O   2.1699518513 -1.0681929199  0.0595271951
C   2.5466699189  0.4042818630  0.3315781727
O   4.5922507073  2.2154736432 -0.2006743284
H  -2.5741314028 -0.3001441792  0.2580390864
H  -0.7886352188 -0.9755427611  0.3984459587
H  -0.9812199629 -0.5913547183 -0.9355495443
H   0.5702015388  1.2938841566  0.4839419568
H   0.7119495395  0.9637793298 -1.0905205975
H   2.5851282609  0.5919861473  0.9787271498
H   3.4422223771  1.2191895627 -0.9185030453
H   3.3614878921  0.0029946280  0.5689258213
H   4.8610535995  3.1024832913 -0.3095629838
17
Image 5  Energy = -420.7955128524
C  -1.6697058830  0.3097180939  0.2816796086
O  -1.7597232329  1.4210558867  0.5372870319
C  -0.7049298798 -0.2043711924 -0.1861724632
C   0.5604203438  0.5455010773 -0.2328395160
C   1.7509466249 -0.0429820028  0.0825470639
O   2.2228138548 -0.9491270863  0.0706488693
C   2.4023718857  0.3633643823  0.4076270188
O   4.6157752373  2.2191889163 -0.2504157150
H  -2.4796541280 -0.3743312549  0.3217643187
H  -0.7851826757 -0.9737358962  0.2793357121
H  -1.0270246236 -0.4905796661 -0.9532263203
H   0.5630690396  1.3428542970  0.3860783810
H   0.7408156524  0.9303326015 -1.1444718615
H   2.4805290315  0.4446648364  1.0076417169
H   3.5515885986  1.2245946970 -0.9285523473
H   3.2117270675  0.0000151967  0.7078073993
H   4.8761630863  3.1038371143 -0.3867388966
17
Image 6  Energy = -420.6294323894
C  -1.6049469693  0.2705311090  0.3404948578
O  -1.7140508457  1.3631317556  0.6427552307
C  -0.6969250915 -0.1767744253 -0.2234755104
C   0.5673886044  0.5648585949 -0.2777476174
C   1.7483632077  0.0187175135  0.1105171371
O   2.2826555755 -0.8260464365  0.0746218062
C   2.2553455033  0.3095722334  0.4842650795
O   4.6375136460  2.2210508646 -0.2983568692
H  -2.3863014605 -0.4465874884  0.3843586284
H  -0.7818277096 -0.9688822047  0.1593824238
H  -1.0724948543 -0.3890466372 -0.9664816372
H   0.5558979090  1.3910361908  0.2892074787
H   0.7689911252  0.8964257811 -1.1964112455
H   2.3778056847  0.3013137664  1.0371413503
H   3.6605458957  1.2327070582 -0.9407569927
H   3.0613282950  0.0047576917  0.8433922856
H   4.8907114855  3.1032346335 -0.4629064050
17
Image 7  Energy = -420.5595144118
C  -1.5332369207  0.2254078420  0.3985845329
O  -1.6678688955  1.3040790306  0.7446879863
C  -0.6981517729 -0.1508946398 -0.2605894896
C   0.5743859471  0.5860709185 -0.3256246178
C   1.7147248928  0.0634204014  0.1281557461
O   2.3619023556 -0.7037378012  0.0682080201
C   2.1164961193  0.2779327485  0.5749145076
O   4.6569984480  2.2208433550 -0.3447974867
H  -2.2929387553 -0.5164121196  0.4458847516
H  -0.7789011800 -0.9581363317  0.0358481735
H  -1.1183739770 -0.2849681891 -0.9709778933
H   0.5478782837  1.4380312259  0.1922062514
H   0.7966268013  0.8622654156 -1.2453452307
H   2.2781164854  0.1527078710  1.0716970949
H   3.7694305248  1.2448048165 -0.9544717720
H   2.9181773972  0.0092341202  0.9801920001
H   4.9047342472  3.0993513394 -0.5385725751
17
Image 8  Energy = -420.4669455900
C  -1.4615299517  0.1790106667  0.4557689952
O  -1.6237847622  1.2470388091  0.8417144982
C  -0.7015979345 -0.1256654452 -0.2954860778
C   0.5813172378  0.6083769309 -0.3743483126
C   1.6816639451  0.1071151143  0.1458729409
O   2.4490772711 -0.5539713505  0.0668472425
C   1.9754559649  0.2154397670  0.6635535281
O   4.6762596816  2.2191842955 -0.3870734469
H  -2.2007318480 -0.5824067484  0.5047121101
H  -0.7760644612 -0.9471850324 -0.0838875171
H  -1.1628566784 -0.1826260508 -0.9733936794
H   0.5420361020  1.4816312437  0.0987492215
H   0.8230720844  0.8294071077 -1.2926360258
H   2.1830507923  0.0089743723  1.1004945292
H   3.8716795030  1.2582721529 -0.9689408133
H   2.7753876391  0.0137156441  1.1107227591
H   4.9175654146  3.0936885233 -0.6126699523
17
Image 9  Energy = -420.5118659225
C  -1.3933864191  0.1330459910  0.5143478869
O  -1.5839262230  1.1938169167  0.9343045651
C  -0.7025377141 -0.1021305691 -0.3281235250
C   0.5879364923  0.6323917047 -0.4235659979
C   1.6452232575  0.1283154858  0.1561440163
O   2.5370678692 -0.3697010707  0.0688667462
C   1.8489765925  0.1352374365  0.7582588188
O   4.6931905018  2.2132291773 -0.4247061139
H  -2.1103577956 -0.6439111306  0.5606273223
H  -0.7732869274 -0.9382512241 -0.1992877831
H  -1.2065029422 -0.0828435832 -0.9757198142
H   0.5379621001  1.5231487792  0.0097229000
H   0.8490861766  0.7983887515 -1.3386641442
H   2.0844828509 -0.1344843704  1.1214838602
H   3.9691706610  1.2764647197 -0.9850860224
H   2.6378918587  0.0213049456  1.2366131096
H   4.9290096597  3.0859780410 -0.6852158241
17
Image 10  Energy = -420.6751020538
C  -1.3277401934  0.0889260363  0.5737896475
O  -1.5393115487  1.1370813419  1.0346306382
C  -0.6986103322 -0.0756382385 -0.3646349691
C   0.5881626571  0.6556137510 -0.4741499059
C   1.6320970566  0.1585074673  0.1750879146
O   2.5938101716 -0.1963725777  0.0915951333
C   1.7300597535  0.0672508467  0.8432317154
O   4.7115782109  2.2105826224 -0.4688126099
H  -2.0176396396 -0.7111767065  0.6207614657
H  -0.7707361680 -0.9319181724 -0.3185094332
H  -1.2526265570  0.0199341752 -0.9843360186
H   0.5321994087  1.5679775996 -0.0837622711
H   0.8764722694  0.7661411152 -1.3888247440
H   1.9892185321 -0.2834816241  1.1399798910
H   4.0733540622  1.2891757960 -0.9990082749
H   2.4882468031  0.0260897443  1.3625511312
H   4.9414655112  3.0813068244 -0.7595893096
17
Image 11  Energy = -420.7424582738
C  -1.2609321677  0.0441927260  0.6317510663
O  -1.4892755572  1.0765936738  1.1397562599
C  -0.6962928365 -0.0476563394 -0.4025515828
C   0.5836118976  0.6791541651 -0.5237029191
C   1.6298969950  0.2014376798  0.1838293943
O   2.6231828260 -0.0360458455  0.1424001468
C   1.6192192899  0.0087221913  0.9246366234
O   4.7310883702  2.2108996764 -0.5178704172
H  -1.9226992789 -0.7823604569  0.6837988164
H  -0.7671832832 -0.9265677793 -0.4410546918
H  -1.2999695234  0.1263954872 -0.9957331995
H   0.5263895895  1.6139919928 -0.1808450063
H   0.9051297926  0.7325658160 -1.4407415359
H   1.8975529613 -0.4329942748  1.1587881709
H   4.1824427176  1.2974982229 -1.0112805192
H   2.3331567056  0.0255718466  1.4841653940
H   4.9546814996  3.0786012181 -0.8353459999
17
Image 12  Energy = -420.8917297461
C  -1.1908380935  0.0020433604  0.6768242139
O  -1.4391276747  1.0129802899  1.2421947403
C  -0.7026985832 -0.0212570943 -0.4376695889
C   0.5900023291  0.6977506489 -0.5634249515
C   1.6282196976  0.2478762913  0.1921322732
O   2.6621168243  0.1131012408  0.1539372341
C   1.4859376338 -0.0431680160  0.9963788011
O   4.7532856384  2.2177911410 -0.5674958532
H  -1.8299187112 -0.8528595996  0.7467197870
H  -0.7650925540 -0.9140426267 -0.5607306360
H  -1.3411537813  0.2272430999 -1.0008919550
H   0.5204639359  1.6591758368 -0.2773399337
H   0.9316141724  0.6983946077 -1.4896693614
H   1.7924475543 -0.5841142436  1.1793292152
H   4.2896298249  1.2993939526 -1.0248028244
H   2.1964122259  0.0320970104  1.6429870226
H   4.9686995609  3.0775940997 -0.9084781819
17
Image 13  Energy = -421.2042221656
C  -1.1168104048 -0.0401349001  0.7156064668
O  -1.3879492208  0.9471606613  1.3447440162
C  -0.7172816999  0.0029224482 -0.4705104025
C   0.5954889531  0.7177655653 -0.6041765533
C   1.6366287141  0.3028003317  0.1896167450
O   2.6965368027  0.2531002594  0.1777331739
C   1.3483044147 -0.1039280939  1.0922378075
O   4.7768873877  2.2280940200 -0.6184995966
H  -1.7366742143 -0.9247776418  0.8102261872
H  -0.7646732103 -0.8952626554 -0.6812448081
H  -1.3780150208  0.3263450950 -1.0025386333
H   0.5144725914  1.7027284366 -0.3765817014
H   0.9579803467  0.6638860527 -1.5359009986
H   1.6887050500 -0.7254162827  1.1888096160
H   4.3974213836  1.2972877416 -1.0386691791
H   2.0557352264  0.0400949814  1.7907667220
H   4.9832428994  3.0773339807 -0.9816188600
17
Image 14  Energy = -421.5025908199
C  -1.0461089740 -0.0824835061  0.7629693406
O  -1.3382568053  0.8845954202  1.4480849474
C  -0.7214897948  0.0295409853 -0.5056921262
C   0.5991440957  0.7380388214 -0.6488889593
C   1.6392282048  0.3497291002  0.2144578930
O   2.7371674635  0.3941245672  0.1943736032
C   1.2032803278 -0.1353571358  1.1639310410
O   4.7990186777  2.2340728305 -0.6683518753
H  -1.6434611147 -0.9963792684  0.8736601732
H  -0.7627616583 -0.8837211632 -0.8016156482
H  -1.4202967824  0.4278278838 -1.0095043086
H   0.5074165708  1.7488323971 -0.4744943584
H   0.9849733901  0.6299349801 -1.5854673413
H   1.5968002349 -0.8892910669  1.2130429315
H   4.5051421366  1.2998883339 -1.0512895183
H   1.9129132055  0.0441851690  1.9303828153
H   4.9972908236  3.0764616518 -1.0555986101
17
Image 15  Energy = -421.7235122550
C  -0.9763208209 -0.1245057555  0.8122131576
O  -1.2883956629  0.8215573110  1.5523932237
C  -0.7239129862  0.0565706922 -0.5409877298
C   0.6029850537  0.7592619199 -0.6953460114
C   1.6366362703  0.3956697437  0.2429994998
O   2.7784289246  0.5364921693  0.2123319452
C   1.0682935407 -0.1754372128  1.2333573210
O   4.8212088533  2.2389721755 -0.7179158582
H  -1.5493440606 -1.0690443875  0.9374903058
H  -0.7606622464 -0.8729273842 -0.9231754606
H  -1.4633566324  0.5306060354 -1.0164905907
H   0.5002443149  1.7958756171 -0.5734071566
H   1.0127141320  0.5955820536 -1.6365083908
H   1.4979040251 -1.0453993711  1.2389387209
H   4.6142313135  1.3044712364 -1.0641025304
H   1.7678992907  0.0473884042  2.0693335239
H   5.0114466921  3.0748667538 -1.1311239704
17
Image 16  Energy = -421.8239930271
C  -0.9028467563 -0.1675626797  0.8599225209
O  -1.2382478953  0.7583030924  1.6597537539
C  -0.7302476256  0.0820613080 -0.5772391642
C   0.6074154148  0.7797641105 -0.7391403352
C   1.6400066376  0.4433090226  0.2689760801
O   2.8061421331  0.6773195126  0.2326752707
C   0.9436072751 -0.2216831179  1.2993493086
O   4.8437282268  2.2465916826 -0.7695302847
H  -1.4523541223 -1.1429821940  1.0020001755
H  -0.7590490780 -0.8572274509 -1.0455346035
H  -1.5034752922  0.6323696988 -1.0225828319
H   0.4944305574  1.8411700040 -0.6746680097
H   1.0406943782  0.5605883979 -1.6855053208
H   1.3901069740 -1.1908815938  1.2631167208
H   4.7257777827  1.3057232014 -1.0776725039
H   1.6181104509  0.0495314931  2.2134345874
H   5.0262009402  3.0736055123 -1.2073553644
17
Image 17  Energy = -421.8172076479
C  -0.8339269239 -0.2104484450  0.8968942657
O  -1.1804453561  0.6894132964  1.7687737386
C  -0.7426522576  0.1077990493 -0.6147265837
C   0.6104279794  0.7961223065 -0.7740531842
C   1.6637018793  0.4972807078  0.2895763539
O   2.8244624899  0.8157077496  0.2543764928
C   0.8009465345 -0.2612074322  1.3601569345
O   4.8661516776  2.2605014252 -0.8276938369
H  -1.3584181862 -1.2170443547  1.0669756144
H  -0.7584088281 -0.8386240763 -1.1655759166
H  -1.5412949675  0.7317977066 -1.0296910325
H   0.4889010040  1.8845287205 -0.7756869336
H   1.0680996860  0.5247673950 -1.7312904184
H   1.2856009968 -1.3353328598  1.2885594473
H   4.8386913148  1.2960794822 -1.0906315517
H   1.4771144220  0.0522902834  2.3631405844
H   5.0410485352  3.0763690455 -1.2791039741
