17
EQ0 Reactant E=-421.8674527846
C  -2.0000000000  0.5000000000  0.0000000000
O  -2.0000000000  1.7200000000  0.0000000000
C  -0.7500000000 -0.3500000000  0.0000000000
C   0.5500000000  0.4500000000  0.0000000000
C   1.8500000000 -0.3500000000  0.0000000000
O   1.9500000000 -1.5500000000  0.0000000000
C   3.0500000000  0.5500000000  0.0000000000
O   4.5000000000  2.2000000000  0.0000000000
H  -2.9500000000  0.0000000000  0.0000000000
H  -0.8000000000 -1.0000000000  0.8800000000
H  -0.8000000000 -1.0000000000 -0.8800000000
H   0.6000000000  1.1000000000  0.8800000000
H   0.6000000000  1.1000000000 -0.8800000000
H   3.0000000000  1.2000000000  0.8800000000
H   3.0000000000  1.2000000000 -0.8800000000
H   3.9500000000  0.0000000000  0.0000000000
H   4.8000000000  3.1000000000  0.0000000000
17
EQ1 Int_1 E=-421.8239930271
C  -0.9028467563 -0.1675626797  0.8599225209
O  -1.2382478953  0.7583030924  1.6597537539
C  -0.7302476256  0.0820613080 -0.5772391642
C   0.6074154148  0.7797641105 -0.7391403352
C   1.6400066376  0.4433090226  0.2689760801
O   2.8061421331  0.6773195126  0.2326752707
C   0.9436072751 -0.2216831179  1.2993493086
O   4.8437282268  2.2465916826 -0.7695302847
H  -1.4523541223 -1.1429821940  1.0020001755
H  -0.7590490780 -0.8572274509 -1.0455346035
H  -1.5034752922  0.6323696988 -1.0225828319
H   0.4944305574  1.8411700040 -0.6746680097
H   1.0406943782  0.5605883979 -1.6855053208
H   1.3901069740 -1.1908815938  1.2631167208
H   4.7257777827  1.3057232014 -1.0776725039
H   1.6181104509  0.0495314931  2.2134345874
H   5.0262009402  3.0736055123 -1.2073553644
17
EQ2 Product E=-421.8172076479
C  -0.8339269239 -0.2104484450  0.8968942657
O  -1.1804453561  0.6894132964  1.7687737386
C  -0.7426522576  0.1077990493 -0.6147265837
C   0.6104279794  0.7961223065 -0.7740531842
C   1.6637018793  0.4972807078  0.2895763539
O   2.8244624899  0.8157077496  0.2543764928
C   0.8009465345 -0.2612074322  1.3601569345
O   4.8661516776  2.2605014252 -0.8276938369
H  -1.3584181862 -1.2170443547  1.0669756144
H  -0.7584088281 -0.8386240763 -1.1655759166
H  -1.5412949675  0.7317977066 -1.0296910325
H   0.4889010040  1.8845287205 -0.7756869336
H   1.0680996860  0.5247673950 -1.7312904184
H   1.2856009968 -1.3353328598  1.2885594473
H   4.8386913148  1.2960794822 -1.0906315517
H   1.4771144220  0.0522902834  2.3631405844
H   5.0410485352  3.0763690455 -1.2791039741
