17
TS0 EQ0-EQ1 E=-420.4669455900
C  -1.4615299517  0.1790106667  0.4557689952
O  -1.6237847622  1.2470388091  0.8417144982
C  -0.7015979345 -0.1256654452 -0.2954860778
C   0.5813172378  0.6083769309 -0.3743483126
C   1.6816639451  0.1071151143  0.1458729409
O   2.4490772711 -0.5539713505  0.0668472425
C   1.9754559649  0.2154397670  0.6635535281
O   4.6762596816  2.2191842955 -0.3870734469
H  -2.2007318480 -0.5824067484  0.5047121101
H  -0.7760644612 -0.9471850324 -0.0838875171
H  -1.1628566784 -0.1826260508 -0.9733936794
H   0.5420361020  1.4816312437  0.0987492215
H   0.8230720844  0.8294071077 -1.2926360258
H   2.1830507923  0.0089743723  1.1004945292
H   3.8716795030  1.2582721529 -0.9689408133
H   2.7753876391  0.0137156441  1.1107227591
H   4.9175654146  3.0936885233 -0.6126699523
