7
Image 0  Energy = -29.4275505310
C   1.7670910427  1.0587552979 -0.1241834133
H   0.7497160774  1.4005093090 -0.8776892525
O   0.0151087312  0.7269607418  1.1171937565
C   1.2788376130 -0.6748849725 -0.4370646740
H   0.4773928406  0.1590907220  1.7664107009
H   1.6369367663 -0.8349299820 -1.4740160849
H   1.6761629299 -1.3451234745  0.3232881342
7
Image 1  Energy = -29.4583711909
C   1.7199822037  1.0160399975 -0.1302354260
H   0.7664223327  1.3999879669 -0.8688121559
O   0.0318310947  0.7261715977  1.1110502370
C   1.3053087279 -0.6387411935 -0.4282156833
H   0.4750861677  0.1633761829  1.7641213867
H   1.6315224663 -0.8366393234 -1.4712549189
H   1.6710930154 -1.3398176014  0.3172857283
7
Image 2  Energy = -29.4888288966
C   1.6735072167  0.9718830842 -0.1362181029
H   0.7819717268  1.4015926498 -0.8616738837
O   0.0480174122  0.7263608933  1.1035985987
C   1.3325190741 -0.6024312351 -0.4205494341
H   0.4731866060  0.1660450684  1.7641708093
H   1.6257173684 -0.8379161844 -1.4678911396
H   1.6663265978 -1.3351566401  0.3125023194
7
Image 3  Energy = -29.5177973910
C   1.6252867572  0.9279216706 -0.1448789341
H   0.7992373882  1.4065995241 -0.8553168163
O   0.0624322208  0.7267876547  1.0987247923
C   1.3629654170 -0.5718693460 -0.4136955269
H   0.4709019230  0.1682883384  1.7655845742
H   1.6194519647 -0.8387275728 -1.4639389034
H   1.6609703339 -1.3286226343  0.3074599819
7
Image 4  Energy = -29.5438143900
C   1.5698635390  0.8899399146 -0.1508839047
H   0.8194590420  1.4118986790 -0.8478791948
O   0.0794250457  0.7297464253  1.0906240362
C   1.3931984770 -0.5487017644 -0.4112215155
H   0.4696665871  0.1691021670  1.7687902404
H   1.6134284276 -0.8392296624 -1.4597859954
H   1.6562048858 -1.3223781237  0.3042955035
7
Image 5  Energy = -29.5711314893
C   1.4978145425  0.8494338956 -0.1492884370
H   0.8426270895  1.4208706866 -0.8401803894
O   0.1034006285  0.7366035833  1.0770169415
C   1.4287865785 -0.5300026741 -0.4140033138
H   0.4702539396  0.1691264894  1.7719522784
H   1.6071470943 -0.8397332856 -1.4550918472
H   1.6512161326 -1.3159210559  0.3035339368
7
Image 6  Energy = -29.5988788223
C   1.4049708639  0.8124765911 -0.1301370845
H   0.8673686682  1.4363982172 -0.8342546590
O   0.1370468113  0.7477784469  1.0593584898
C   1.4676853621 -0.5293225003 -0.4211928318
H   0.4743464792  0.1709808606  1.7684470095
H   1.6031763450 -0.8401903025 -1.4531412960
H   1.6466514804 -1.3077436734  0.3048595423
7
Image 7  Energy = -29.6261270410
C   1.3097454933  0.7821661639 -0.1028060646
H   0.8905482163  1.4512850963 -0.8291454611
O   0.1744766616  0.7602675231  1.0411623482
C   1.4972563856 -0.5349012119 -0.4276952919
H   0.4800028847  0.1744121706  1.7600766708
H   1.6041247078 -0.8404922502 -1.4556312374
H   1.6450916585 -1.3023598527  0.3079782073
7
Image 8  Energy = -29.6506874329
C   1.2135904718  0.7457717713 -0.0803940286
H   0.9142942140  1.4651487177 -0.8227380644
O   0.2114666976  0.7763418482  1.0265450483
C   1.5212663428 -0.5350295430 -0.4321671675
H   0.4862267260  0.1777495719  1.7506141682
H   1.6090005339 -0.8397781112 -1.4602295172
H   1.6454010172 -1.2998266135  0.3123087329
7
Image 9  Energy = -29.6689293897
C   1.0989838875  0.6902453328 -0.0729194811
H   0.9446353840  1.4820824122 -0.8114379226
O   0.2488886388  0.8044510077  1.0243330936
C   1.5449181781 -0.5303265035 -0.4345573271
H   0.4940807026  0.1809929621  1.7376282839
H   1.6213382023 -0.8366616681 -1.4678867135
H   1.6484010171 -1.3004059073  0.3187792481
7
Image 10  Energy = -29.6766636884
C   0.9810635731  0.6385904361 -0.1211608556
H   0.9799051838  1.4893259091 -0.7817053392
O   0.2733785156  0.8591680824  1.0589656398
C   1.5488324552 -0.5456192016 -0.4341863277
H   0.5035078927  0.1772878997  1.7205276026
H   1.6545494965 -0.8234720583 -1.4726898983
H   1.6600088846 -1.3049034287  0.3241883642
7
Image 11  Energy = -29.6776890224
C   0.9764950335  0.6374992312 -0.1150385593
H   0.9771058532  1.4898063207 -0.7847425588
O   0.2845260991  0.8640731653  1.0603861995
C   1.5274544632 -0.5487477744 -0.4358383861
H   0.5015596064  0.1763610815  1.7162726232
H   1.6688499207 -0.8204237484 -1.4720725137
H   1.6652550233 -1.3081906394  0.3249723788
7
Image 12  Energy = -29.6782904482
C   0.9732299750  0.6358139892 -0.1167474290
H   0.9741196013  1.4885778923 -0.7859525311
O   0.2923346837  0.8727983138  1.0656304700
C   1.5125014615 -0.5537011912 -0.4369071824
H   0.4996465818  0.1734957865  1.7144590640
H   1.6811752347 -0.8168051443 -1.4708618497
H   1.6682384614 -1.3098020122  0.3243186483
7
Image 13  Energy = -29.6786777294
C   0.9690122765  0.6340618397 -0.1172251060
H   0.9712148528  1.4872730333 -0.7874637335
O   0.3007651460  0.8794650911  1.0699082621
C   1.5024121171 -0.5569062434 -0.4377118873
H   0.4971697346  0.1716329696  1.7127872738
H   1.6911834728 -0.8137245771 -1.4700876368
H   1.6694883990 -1.3114244800  0.3237320148
7
Image 14  Energy = -29.6789500183
C   0.9655854506  0.6324836848 -0.1181007006
H   0.9681466968  1.4856531843 -0.7888711240
O   0.3085103561  0.8852704355  1.0738038809
C   1.4954795206 -0.5592396734 -0.4383438445
H   0.4945859582  0.1699527211  1.7116640620
H   1.6993630369 -0.8108943343 -1.4692174793
H   1.6695749822 -1.3128483880  0.3230043853
7
Image 15  Energy = -29.6790705538
C   0.9597556682  0.6344511835 -0.1188925572
H   0.9632124791  1.4819817272 -0.7907367901
O   0.3202959105  0.8921927486  1.0792984045
C   1.4892539851 -0.5653682203 -0.4398347314
H   0.4903655418  0.1681015994  1.7099687313
H   1.7100059446 -0.8065082913 -1.4673157640
H   1.6683564688 -1.3144731238  0.3214518947
7
Image 16  Energy = -29.6794796056
C   0.9581134659  0.6291645275 -0.1200544523
H   0.9576507006  1.4800111446 -0.7936064955
O   0.3306696706  0.8990224237  1.0839377206
C   1.4832295832 -0.5636421452 -0.4394295210
H   0.4863085054  0.1660231950  1.7091521837
H   1.7190630282 -0.8030981204 -1.4666481023
H   1.6662110490 -1.3171034041  0.3205878662
7
Image 17  Energy = -29.6795878774
C   0.9557430515  0.6295538323 -0.1200805252
H   0.9528332918  1.4773934014 -0.7957844697
O   0.3392517367  0.9033192662  1.0873278320
C   1.4814646986 -0.5657429235 -0.4399307023
H   0.4829249572  0.1647446548  1.7083754988
H   1.7254944152 -0.8000774137 -1.4654752364
H   1.6635338501 -1.3188132039  0.3195068115
7
Image 18  Energy = -29.6797560519
C   0.9551602398  0.6272750321 -0.1205341375
H   0.9483323540  1.4756083710 -0.7979167798
O   0.3463030609  0.9073650238  1.0901088444
C   1.4794986970 -0.5648011514 -0.4396835637
H   0.4800965957  0.1634014340  1.7080069860
H   1.7309109406 -0.7977138992 -1.4648558217
H   1.6609441111 -1.3207571870  0.3188136889
7
Image 19  Energy = -29.6798340446
C   0.9542057691  0.6271393104 -0.1205514951
H   0.9446337560  1.4738464921 -0.7995626662
O   0.3520745498  0.9100254904  1.0923343605
C   1.4789019921 -0.5654201255 -0.4397554383
H   0.4778250217  0.1626395171  1.7075169360
H   1.7350556419 -0.7957172131 -1.4641173937
H   1.6585492655 -1.3221358530  0.3180749152
7
Image 20  Energy = -29.6799197114
C   0.9536177296  0.6264767044 -0.1207276158
H   0.9408235572  1.4721603306 -0.8012292576
O   0.3577158921  0.9127398483  1.0945186509
C   1.4782747530 -0.5654111982 -0.4396808260
H   0.4756264458  0.1618334243  1.7071186493
H   1.7391710705 -0.7937764105 -1.4634503903
H   1.6560165484 -1.3236450843  0.3173900176
7
Image 21  Energy = -29.6799889422
C   0.9529488281  0.6262578854 -0.1207962782
H   0.9370081242  1.4704236272 -0.8028521639
O   0.3632662620  0.9151950436  1.0966293417
C   1.4779821549 -0.5657126217 -0.4396610085
H   0.4735190908  0.1611638726  1.7066860393
H   1.7431742708 -0.7918471544 -1.4627231239
H   1.6533472706 -1.3251030400  0.3166564230
7
Image 22  Energy = -29.6800597823
C   0.9524621757  0.6257587261 -0.1209074448
H   0.9331177276  1.4687487410 -0.8044932138
O   0.3687287925  0.9176297029  1.0986922436
C   1.4777012880 -0.5656877916 -0.4395714185
H   0.4715011934  0.1605125577  1.7063025061
H   1.7471884106 -0.7899486813 -1.4620229926
H   1.6505464192 -1.3266356406  0.3159395424
7
Image 23  Energy = -29.6801199085
C   0.9519350381  0.6254997663 -0.1209753841
H   0.9292259988  1.4670542671 -0.8060893848
O   0.3740871422  0.9198866191  1.1006922712
C   1.4776073540 -0.5658209975 -0.4395144056
H   0.4695987479  0.1599665779  1.7059195163
H   1.7511631575 -0.7880627523 -1.4612827127
H   1.6476285697 -1.3281458586  0.3151893216
7
Image 24  Energy = -29.6801788276
C   0.9515058798  0.6250773476 -0.1210697497
H   0.9252933433  1.4654062611 -0.8076803190
O   0.3793451552  0.9220929289  1.1026391345
C   1.4775202931 -0.5657650462 -0.4394228027
H   0.4678168188  0.1594666782  1.7055836141
H   1.7551753794 -0.7861968868 -1.4605489701
H   1.6445891414 -1.3297036619  0.3144383082
7
Image 25  Energy = -29.6802298790
C   0.9510411272  0.6247918243 -0.1211389371
H   0.9213654833  1.4637590163 -0.8092310419
O   0.3844867885  0.9241563959  1.1045236732
C   1.4775381736 -0.5658054786 -0.4393575241
H   0.4661783925  0.1590668754  1.7052694647
H   1.7592011482 -0.7843381128 -1.4597818848
H   1.6414348970 -1.3312528951  0.3136554615
7
Image 26  Energy = -29.6802784717
C   0.9506277696  0.6244031661 -0.1212412861
H   0.9174196177  1.4621448633 -0.8107588270
O   0.3895030766  0.9261559508  1.1063519448
C   1.4775493298 -0.5657289014 -0.4392779301
H   0.4646973291  0.1587310760  1.7050130899
H   1.7632918274 -0.7824879455 -1.4590074025
H   1.6381570595 -1.3328405761  0.3128596324
7
Image 27  Energy = -29.6803208506
C   0.9501730837  0.6240912792 -0.1213166623
H   0.9134865477  1.4605469756 -0.8122537059
O   0.3943794258  0.9280254135  1.1081080022
C   1.4776168603 -0.5657205116 -0.4392222400
H   0.4633989583  0.1585015454  1.7047975142
H   1.7674370431 -0.7806364126 -1.4582002648
H   1.6347540906 -1.3344306629  0.3120265784
7
Image 28  Energy = -29.6803604281
C   0.9497476110  0.6237111010 -0.1214536863
H   0.9095537646  1.4589687602 -0.8137080289
O   0.3990845436  0.9298289313  1.1098058492
C   1.4776654547 -0.5656343866 -0.4391664109
H   0.4623076729  0.1583467891  1.7046626534
H   1.7716725927 -0.7787809513 -1.4573711674
H   1.6312143719 -1.3360626231  0.3111700258
7
Image 29  Energy = -29.6803947902
C   0.9492605512  0.6233685049 -0.1215204726
H   0.9056472820  1.4574336686 -0.8151485971
O   0.4036146527  0.9314826488  1.1114016636
C   1.4777433091 -0.5656092662 -0.4391278293
H   0.4614553920  0.1583233578  1.7045812851
H   1.7759962514 -0.7769167736 -1.4565102911
H   1.6275285780 -1.3377045106  0.3102634737
7
Image 30  Energy = -29.6804263359
C   0.9488117400  0.6229968716 -0.1217585489
H   0.9017640813  1.4558735325 -0.8164973125
O   0.4078844290  0.9331054046  1.1129396040
C   1.4777877205 -0.5655109448 -0.4391066818
H   0.4608826162  0.1583562661  1.7046347935
H   1.7804279840 -0.7750319526 -1.4556046374
H   1.6236874518 -1.3394115504  0.3093320178
7
Image 31  Energy = -29.6804533815
C   0.9482167601  0.6225847628 -0.1216404991
H   0.8979363813  1.4544805334 -0.8179467611
O   0.4119613507  0.9344423444  1.1142831255
C   1.4778578397 -0.5655122372 -0.4390712381
H   0.4606263213  0.1586292509  1.7046950636
H   1.7849774622 -0.7731419594 -1.4546917015
H   1.6196698961 -1.3411050587  0.3083112321
7
Image 32  Energy = -29.6804768956
C   0.9478678216  0.6223718950 -0.1225551935
H   0.8941927096  1.4527256452 -0.8189362723
O   0.4154657905  0.9360887418  1.1157237018
C   1.4778587372 -0.5653477562 -0.4391532239
H   0.4607557326  0.1587029597  1.7051473164
H   1.7895822672 -0.7711915824 -1.4536280031
H   1.6155229625 -1.3429722785  0.3073409210
7
Image 33  Energy = -29.6804936296
C   0.9475531196  0.6211776404 -0.1214078141
H   0.8925336166  1.4527809163 -0.8200938159
O   0.4171609077  0.9362357761  1.1159037455
C   1.4776452099 -0.5648749941 -0.4388929015
H   0.4609876923  0.1592173164  1.7050516039
H   1.7917928081 -0.7704365999 -1.4534178835
H   1.6135726767 -1.3437224367  0.3067963134
7
Image 34  Energy = -29.6805003798
C   0.9476738611  0.6211297504 -0.1222896889
H   0.8916672785  1.4521449769 -0.8200640655
O   0.4177149024  0.9368998400  1.1163340030
C   1.4775561330 -0.5646049513 -0.4389695577
H   0.4611765168  0.1590526418  1.7053949578
H   1.7929177786 -0.7699423944 -1.4530961438
H   1.6125395599 -1.3443022371  0.3066297467
7
Image 35  Energy = -29.6805051482
C   0.9474808926  0.6209853489 -0.1221356464
H   0.8908199111  1.4519019108 -0.8204352167
O   0.4184653701  0.9370721766  1.1165319062
C   1.4775644157 -0.5646273484 -0.4389486915
H   0.4613750326  0.1592455388  1.7054590626
H   1.7940675797 -0.7694865523 -1.4528683102
H   1.6114728295 -1.3447134490  0.3063361532
7
Image 36  Energy = -29.6805096632
C   0.9473399733  0.6209078871 -0.1222198472
H   0.8899756912  1.4515581534 -0.8207048612
O   0.4191463869  0.9373366798  1.1167727360
C   1.4775631934 -0.5646153439 -0.4389596306
H   0.4616036580  0.1593721980  1.7055949535
H   1.7952207327 -0.7690158002 -1.4526091369
H   1.6103963961 -1.3451661512  0.3060650455
7
Image 37  Energy = -29.6805138952
C   0.9471896854  0.6208194958 -0.1222550256
H   0.8891629332  1.4512477886 -0.8209840145
O   0.4197920711  0.9375644974  1.1169875248
C   1.4775628774 -0.5646125336 -0.4389641797
H   0.4618511622  0.1595185752  1.7057225774
H   1.7963474516 -0.7685594261 -1.4523600532
H   1.6093398504 -1.3456007773  0.3057924310
7
Image 38  Energy = -29.6805179632
C   0.9470426215  0.6207381276 -0.1223013857
H   0.8883761278  1.4509420831 -0.8212489056
O   0.4203961622  0.9377830190  1.1171907253
C   1.4775615307 -0.5646099716 -0.4389708967
H   0.4621183686  0.1596658362  1.7058582441
H   1.7974527487 -0.7681117451 -1.4521126070
H   1.6082984682 -1.3460297329  0.3055240876
7
Image 39  Energy = -29.6805217928
C   0.9468980295  0.6206553500 -0.1223448021
H   0.8876181342  1.4506494938 -0.8215051136
O   0.4209598852  0.9379869373  1.1173788413
C   1.4775581948 -0.5646060536 -0.4389771197
H   0.4624025509  0.1598167904  1.7059974996
H   1.7985320605 -0.7676757017 -1.4518700161
H   1.6072771710 -1.3464492003  0.3052599799
7
Image 40  Energy = -29.6805253691
C   0.9467545906  0.6205766282 -0.1223883982
H   0.8868863813  1.4503663302 -0.8217516381
O   0.4214860977  0.9381777599  1.1175539578
C   1.4775544103 -0.5646041251 -0.4389839732
H   0.4627030441  0.1599709596  1.7061406918
H   1.7995881533 -0.7672496379 -1.4516308898
H   1.6062733477 -1.3468603018  0.3049995152
7
Image 41  Energy = -29.6805288112
C   0.9466141569  0.6204959220 -0.1224317006
H   0.8861790746  1.4500937508 -0.8219901132
O   0.4219768516  0.9383571729  1.1177164437
C   1.4775481886 -0.5645994626 -0.4389901819
H   0.4630189386  0.1601276492  1.7062878186
H   1.8006226875 -0.7668333445 -1.4513957415
H   1.6052861262 -1.3472640795  0.3047427405
7
Image 42  Energy = -29.6805320895
C   0.9464740553  0.6204206262 -0.1224745649
H   0.8854957123  1.4498295480 -0.8222197552
O   0.4224341373  0.9385243485  1.1178671380
C   1.4775423229 -0.5645983386 -0.4389972921
H   0.4633490426  0.1602872687  1.7064380072
H   1.8016355456 -0.7664260722 -1.4511634292
H   1.6043152072 -1.3476597741  0.3044891578
7
Image 43  Energy = -29.6805351442
C   0.9463368887  0.6203453501 -0.1225169443
H   0.8848378712  1.4495758152 -0.8224409420
O   0.4228575082  0.9386804120  1.1180060823
C   1.4775348346 -0.5645958972 -0.4390041165
H   0.4636909188  0.1604482541  1.7065907752
H   1.8026236530 -0.7660296295 -1.4509358324
H   1.6033643468 -1.3480466978  0.3042402388
7
Image 44  Energy = -29.6805381542
C   0.9462023933  0.6202703883 -0.1225589195
H   0.8842036186  1.4493316546 -0.8226540816
O   0.4232495152  0.9388259825  1.1181339399
C   1.4775258478 -0.5645923524 -0.4390107695
H   0.4640437951  0.1606106243  1.7067458508
H   1.8035888285 -0.7656431592 -1.4507123948
H   1.6024320221 -1.3484255340  0.3039956327
7
Image 45  Energy = -29.6805409706
C   0.9460704803  0.6201977395 -0.1226002269
H   0.8835949234  1.4490974358 -0.8228584994
O   0.4236102098  0.9389608615  1.1182510622
C   1.4775162803 -0.5645895019 -0.4390174447
H   0.4644049146  0.1607734163  1.7069020805
H   1.8045271675 -0.7652679767 -1.4504937985
H   1.6015220481 -1.3487943701  0.3037560932
7
Image 46  Energy = -29.6805436379
C   0.9459383881  0.6201319946 -0.1226410160
H   0.8830067175  1.4488697850 -0.8230552982
O   0.4239442535  0.9390854176  1.1183590462
C   1.4775078533 -0.5645913896 -0.4390250833
H   0.4647755802  0.1609381010  1.7070598841
H   1.8054456183 -0.7649008445 -1.4502778610
H   1.6006276124 -1.3491554719  0.3035195925
7
Image 47  Energy = -29.6805461711
C   0.9458091425  0.6200636501 -0.1226813525
H   0.8824366381  1.4486502991 -0.8232463345
O   0.4242532370  0.9392023989  1.1184581178
C   1.4774973431 -0.5645902306 -0.4390322625
H   0.4651557548  0.1611037563  1.7072198881
H   1.8063469834 -0.7645414107 -1.4500652609
H   1.5997469217 -1.3495108665  0.3032864693
7
Image 48  Energy = -29.6805486000
C   0.9456833047  0.6199945989 -0.1227215060
H   0.8818878055  1.4484396689 -0.8234304112
O   0.4245364523  0.9393110880  1.1185485321
C   1.4774852276 -0.5645871545 -0.4390388367
H   0.4655419574  0.1612692516  1.7073807919
H   1.8072256822 -0.7641917983 -1.4498573043
H   1.5988855904 -1.3498580543  0.3030579954
