7
Image 0  Energy = -29.4275505310
C   1.7670910427  1.0587552979 -0.1241834133
H   0.7497160774  1.4005093090 -0.8776892525
O   0.0151087312  0.7269607418  1.1171937565
C   1.2788376130 -0.6748849725 -0.4370646740
H   0.4773928406  0.1590907220  1.7664107009
H   1.6369367663 -0.8349299820 -1.4740160849
H   1.6761629299 -1.3451234745  0.3232881342
7
Image 1  Energy = -29.4583711909
C   1.7199822037  1.0160399975 -0.1302354260
H   0.7664223327  1.3999879669 -0.8688121559
O   0.0318310947  0.7261715977  1.1110502370
C   1.3053087279 -0.6387411935 -0.4282156833
H   0.4750861677  0.1633761829  1.7641213867
H   1.6315224663 -0.8366393234 -1.4712549189
H   1.6710930154 -1.3398176014  0.3172857283
7
Image 2  Energy = -29.4888288966
C   1.6735072167  0.9718830842 -0.1362181029
H   0.7819717268  1.4015926498 -0.8616738837
O   0.0480174122  0.7263608933  1.1035985987
C   1.3325190741 -0.6024312351 -0.4205494341
H   0.4731866060  0.1660450684  1.7641708093
H   1.6257173684 -0.8379161844 -1.4678911396
H   1.6663265978 -1.3351566401  0.3125023194
7
Image 3  Energy = -29.5177973910
C   1.6252867572  0.9279216706 -0.1448789341
H   0.7992373882  1.4065995241 -0.8553168163
O   0.0624322208  0.7267876547  1.0987247923
C   1.3629654170 -0.5718693460 -0.4136955269
H   0.4709019230  0.1682883384  1.7655845742
H   1.6194519647 -0.8387275728 -1.4639389034
H   1.6609703339 -1.3286226343  0.3074599819
7
Image 4  Energy = -29.5438143900
C   1.5698635390  0.8899399146 -0.1508839047
H   0.8194590420  1.4118986790 -0.8478791948
O   0.0794250457  0.7297464253  1.0906240362
C   1.3931984770 -0.5487017644 -0.4112215155
H   0.4696665871  0.1691021670  1.7687902404
H   1.6134284276 -0.8392296624 -1.4597859954
H   1.6562048858 -1.3223781237  0.3042955035
7
Image 5  Energy = -29.5711314893
C   1.4978145425  0.8494338956 -0.1492884370
H   0.8426270895  1.4208706866 -0.8401803894
O   0.1034006285  0.7366035833  1.0770169415
C   1.4287865785 -0.5300026741 -0.4140033138
H   0.4702539396  0.1691264894  1.7719522784
H   1.6071470943 -0.8397332856 -1.4550918472
H   1.6512161326 -1.3159210559  0.3035339368
7
Image 6  Energy = -29.5988788223
C   1.4049708639  0.8124765911 -0.1301370845
H   0.8673686682  1.4363982172 -0.8342546590
O   0.1370468113  0.7477784469  1.0593584898
C   1.4676853621 -0.5293225003 -0.4211928318
H   0.4743464792  0.1709808606  1.7684470095
H   1.6031763450 -0.8401903025 -1.4531412960
H   1.6466514804 -1.3077436734  0.3048595423
7
Image 7  Energy = -29.6261270410
C   1.3097454933  0.7821661639 -0.1028060646
H   0.8905482163  1.4512850963 -0.8291454611
O   0.1744766616  0.7602675231  1.0411623482
C   1.4972563856 -0.5349012119 -0.4276952919
H   0.4800028847  0.1744121706  1.7600766708
H   1.6041247078 -0.8404922502 -1.4556312374
H   1.6450916585 -1.3023598527  0.3079782073
7
Image 8  Energy = -29.6506874329
C   1.2135904718  0.7457717713 -0.0803940286
H   0.9142942140  1.4651487177 -0.8227380644
O   0.2114666976  0.7763418482  1.0265450483
C   1.5212663428 -0.5350295430 -0.4321671675
H   0.4862267260  0.1777495719  1.7506141682
H   1.6090005339 -0.8397781112 -1.4602295172
H   1.6454010172 -1.2998266135  0.3123087329
7
Image 9  Energy = -29.6689293897
C   1.0989838875  0.6902453328 -0.0729194811
H   0.9446353840  1.4820824122 -0.8114379226
O   0.2488886388  0.8044510077  1.0243330936
C   1.5449181781 -0.5303265035 -0.4345573271
H   0.4940807026  0.1809929621  1.7376282839
H   1.6213382023 -0.8366616681 -1.4678867135
H   1.6484010171 -1.3004059073  0.3187792481
7
Image 10  Energy = -29.6766636884
C   0.9810635731  0.6385904361 -0.1211608556
H   0.9799051838  1.4893259091 -0.7817053392
O   0.2733785156  0.8591680824  1.0589656398
C   1.5488324552 -0.5456192016 -0.4341863277
H   0.5035078927  0.1772878997  1.7205276026
H   1.6545494965 -0.8234720583 -1.4726898983
H   1.6600088846 -1.3049034287  0.3241883642
7
Image 11  Energy = -29.6776890224
C   0.9764950335  0.6374992312 -0.1150385593
H   0.9771058532  1.4898063207 -0.7847425588
O   0.2845260991  0.8640731653  1.0603861995
C   1.5274544632 -0.5487477744 -0.4358383861
H   0.5015596064  0.1763610815  1.7162726232
H   1.6688499207 -0.8204237484 -1.4720725137
H   1.6652550233 -1.3081906394  0.3249723788
7
Image 12  Energy = -29.6782904482
C   0.9732299750  0.6358139892 -0.1167474290
H   0.9741196013  1.4885778923 -0.7859525311
O   0.2923346837  0.8727983138  1.0656304700
C   1.5125014615 -0.5537011912 -0.4369071824
H   0.4996465818  0.1734957865  1.7144590640
H   1.6811752347 -0.8168051443 -1.4708618497
H   1.6682384614 -1.3098020122  0.3243186483
7
Image 13  Energy = -29.6786777294
C   0.9690122765  0.6340618397 -0.1172251060
H   0.9712148528  1.4872730333 -0.7874637335
O   0.3007651460  0.8794650911  1.0699082621
C   1.5024121171 -0.5569062434 -0.4377118873
H   0.4971697346  0.1716329696  1.7127872738
H   1.6911834728 -0.8137245771 -1.4700876368
H   1.6694883990 -1.3114244800  0.3237320148
7
Image 14  Energy = -29.6789500183
C   0.9655854506  0.6324836848 -0.1181007006
H   0.9681466968  1.4856531843 -0.7888711240
O   0.3085103561  0.8852704355  1.0738038809
C   1.4954795206 -0.5592396734 -0.4383438445
H   0.4945859582  0.1699527211  1.7116640620
H   1.6993630369 -0.8108943343 -1.4692174793
H   1.6695749822 -1.3128483880  0.3230043853
7
Image 15  Energy = -29.6790705538
C   0.9597556682  0.6344511835 -0.1188925572
H   0.9632124791  1.4819817272 -0.7907367901
O   0.3202959105  0.8921927486  1.0792984045
C   1.4892539851 -0.5653682203 -0.4398347314
H   0.4903655418  0.1681015994  1.7099687313
H   1.7100059446 -0.8065082913 -1.4673157640
H   1.6683564688 -1.3144731238  0.3214518947
7
Image 16  Energy = -29.6794796056
C   0.9581134659  0.6291645275 -0.1200544523
H   0.9576507006  1.4800111446 -0.7936064955
O   0.3306696706  0.8990224237  1.0839377206
C   1.4832295832 -0.5636421452 -0.4394295210
H   0.4863085054  0.1660231950  1.7091521837
H   1.7190630282 -0.8030981204 -1.4666481023
H   1.6662110490 -1.3171034041  0.3205878662
7
Image 17  Energy = -29.6795878774
C   0.9557430515  0.6295538323 -0.1200805252
H   0.9528332918  1.4773934014 -0.7957844697
O   0.3392517367  0.9033192662  1.0873278320
C   1.4814646986 -0.5657429235 -0.4399307023
H   0.4829249572  0.1647446548  1.7083754988
H   1.7254944152 -0.8000774137 -1.4654752364
H   1.6635338501 -1.3188132039  0.3195068115
7
Image 18  Energy = -29.6797560519
C   0.9551602398  0.6272750321 -0.1205341375
H   0.9483323540  1.4756083710 -0.7979167798
O   0.3463030609  0.9073650238  1.0901088444
C   1.4794986970 -0.5648011514 -0.4396835637
H   0.4800965957  0.1634014340  1.7080069860
H   1.7309109406 -0.7977138992 -1.4648558217
H   1.6609441111 -1.3207571870  0.3188136889
7
Image 19  Energy = -29.6798340446
C   0.9542057691  0.6271393104 -0.1205514951
H   0.9446337560  1.4738464921 -0.7995626662
O   0.3520745498  0.9100254904  1.0923343605
C   1.4789019921 -0.5654201255 -0.4397554383
H   0.4778250217  0.1626395171  1.7075169360
H   1.7350556419 -0.7957172131 -1.4641173937
H   1.6585492655 -1.3221358530  0.3180749152
7
Image 20  Energy = -29.6799197114
C   0.9536177296  0.6264767044 -0.1207276158
H   0.9408235572  1.4721603306 -0.8012292576
O   0.3577158921  0.9127398483  1.0945186509
C   1.4782747530 -0.5654111982 -0.4396808260
H   0.4756264458  0.1618334243  1.7071186493
H   1.7391710705 -0.7937764105 -1.4634503903
H   1.6560165484 -1.3236450843  0.3173900176
7
Image 21  Energy = -29.6799889422
C   0.9529488281  0.6262578854 -0.1207962782
H   0.9370081242  1.4704236272 -0.8028521639
O   0.3632662620  0.9151950436  1.0966293417
C   1.4779821549 -0.5657126217 -0.4396610085
H   0.4735190908  0.1611638726  1.7066860393
H   1.7431742708 -0.7918471544 -1.4627231239
H   1.6533472706 -1.3251030400  0.3166564230
7
Image 22  Energy = -29.6800597823
C   0.9524621757  0.6257587261 -0.1209074448
H   0.9331177276  1.4687487410 -0.8044932138
O   0.3687287925  0.9176297029  1.0986922436
C   1.4777012880 -0.5656877916 -0.4395714185
H   0.4715011934  0.1605125577  1.7063025061
H   1.7471884106 -0.7899486813 -1.4620229926
H   1.6505464192 -1.3266356406  0.3159395424
7
Image 23  Energy = -29.6801199085
C   0.9519350381  0.6254997663 -0.1209753841
H   0.9292259988  1.4670542671 -0.8060893848
O   0.3740871422  0.9198866191  1.1006922712
C   1.4776073540 -0.5658209975 -0.4395144056
H   0.4695987479  0.1599665779  1.7059195163
H   1.7511631575 -0.7880627523 -1.4612827127
H   1.6476285697 -1.3281458586  0.3151893216
7
Image 24  Energy = -29.6801788276
C   0.9515058798  0.6250773476 -0.1210697497
H   0.9252933433  1.4654062611 -0.8076803190
O   0.3793451552  0.9220929289  1.1026391345
C   1.4775202931 -0.5657650462 -0.4394228027
H   0.4678168188  0.1594666782  1.7055836141
H   1.7551753794 -0.7861968868 -1.4605489701
H   1.6445891414 -1.3297036619  0.3144383082
7
Image 25  Energy = -29.6802298790
C   0.9510411272  0.6247918243 -0.1211389371
H   0.9213654833  1.4637590163 -0.8092310419
O   0.3844867885  0.9241563959  1.1045236732
C   1.4775381736 -0.5658054786 -0.4393575241
H   0.4661783925  0.1590668754  1.7052694647
H   1.7592011482 -0.7843381128 -1.4597818848
H   1.6414348970 -1.3312528951  0.3136554615
7
Image 26  Energy = -29.6802784717
C   0.9506277696  0.6244031661 -0.1212412861
H   0.9174196177  1.4621448633 -0.8107588270
O   0.3895030766  0.9261559508  1.1063519448
C   1.4775493298 -0.5657289014 -0.4392779301
H   0.4646973291  0.1587310760  1.7050130899
H   1.7632918274 -0.7824879455 -1.4590074025
H   1.6381570595 -1.3328405761  0.3128596324
7
Image 27  Energy = -29.6803208506
C   0.9501730837  0.6240912792 -0.1213166623
H   0.9134865477  1.4605469756 -0.8122537059
O   0.3943794258  0.9280254135  1.1081080022
C   1.4776168603 -0.5657205116 -0.4392222400
H   0.4633989583  0.1585015454  1.7047975142
H   1.7674370431 -0.7806364126 -1.4582002648
H   1.6347540906 -1.3344306629  0.3120265784
7
Image 28  Energy = -29.6803604281
C   0.9497476110  0.6237111010 -0.1214536863
H   0.9095537646  1.4589687602 -0.8137080289
O   0.3990845436  0.9298289313  1.1098058492
C   1.4776654547 -0.5656343866 -0.4391664109
H   0.4623076729  0.1583467891  1.7046626534
H   1.7716725927 -0.7787809513 -1.4573711674
H   1.6312143719 -1.3360626231  0.3111700258
7
Image 29  Energy = -29.6803947902
C   0.9492605512  0.6233685049 -0.1215204726
H   0.9056472820  1.4574336686 -0.8151485971
O   0.4036146527  0.9314826488  1.1114016636
C   1.4777433091 -0.5656092662 -0.4391278293
H   0.4614553920  0.1583233578  1.7045812851
H   1.7759962514 -0.7769167736 -1.4565102911
H   1.6275285780 -1.3377045106  0.3102634737
7
Image 30  Energy = -29.6804263359
C   0.9488117400  0.6229968716 -0.1217585489
H   0.9017640813  1.4558735325 -0.8164973125
O   0.4078844290  0.9331054046  1.1129396040
C   1.4777877205 -0.5655109448 -0.4391066818
H   0.4608826162  0.1583562661  1.7046347935
H   1.7804279840 -0.7750319526 -1.4556046374
H   1.6236874518 -1.3394115504  0.3093320178
7
Image 31  Energy = -29.6804533815
C   0.9482167601  0.6225847628 -0.1216404991
H   0.8979363813  1.4544805334 -0.8179467611
O   0.4119613507  0.9344423444  1.1142831255
C   1.4778578397 -0.5655122372 -0.4390712381
H   0.4606263213  0.1586292509  1.7046950636
H   1.7849774622 -0.7731419594 -1.4546917015
H   1.6196698961 -1.3411050587  0.3083112321
7
Image 32  Energy = -29.6804768956
C   0.9478678216  0.6223718950 -0.1225551935
H   0.8941927096  1.4527256452 -0.8189362723
O   0.4154657905  0.9360887418  1.1157237018
C   1.4778587372 -0.5653477562 -0.4391532239
H   0.4607557326  0.1587029597  1.7051473164
H   1.7895822672 -0.7711915824 -1.4536280031
H   1.6155229625 -1.3429722785  0.3073409210
7
Image 33  Energy = -29.6804936296
C   0.9475531196  0.6211776404 -0.1214078141
H   0.8925336166  1.4527809163 -0.8200938159
O   0.4171609077  0.9362357761  1.1159037455
C   1.4776452099 -0.5648749941 -0.4388929015
H   0.4609876923  0.1592173164  1.7050516039
H   1.7917928081 -0.7704365999 -1.4534178835
H   1.6135726767 -1.3437224367  0.3067963134
7
Image 34  Energy = -29.6805003798
C   0.9476738611  0.6211297504 -0.1222896889
H   0.8916672785  1.4521449769 -0.8200640655
O   0.4177149024  0.9368998400  1.1163340030
C   1.4775561330 -0.5646049513 -0.4389695577
H   0.4611765168  0.1590526418  1.7053949578
H   1.7929177786 -0.7699423944 -1.4530961438
H   1.6125395599 -1.3443022371  0.3066297467
7
Image 35  Energy = -29.6805051482
C   0.9474808926  0.6209853489 -0.1221356464
H   0.8908199111  1.4519019108 -0.8204352167
O   0.4184653701  0.9370721766  1.1165319062
C   1.4775644157 -0.5646273484 -0.4389486915
H   0.4613750326  0.1592455388  1.7054590626
H   1.7940675797 -0.7694865523 -1.4528683102
H   1.6114728295 -1.3447134490  0.3063361532
7
Image 36  Energy = -29.6805096632
C   0.9473399733  0.6209078871 -0.1222198472
H   0.8899756912  1.4515581534 -0.8207048612
O   0.4191463869  0.9373366798  1.1167727360
C   1.4775631934 -0.5646153439 -0.4389596306
H   0.4616036580  0.1593721980  1.7055949535
H   1.7952207327 -0.7690158002 -1.4526091369
H   1.6103963961 -1.3451661512  0.3060650455
7
Image 37  Energy = -29.6805138952
C   0.9471896854  0.6208194958 -0.1222550256
H   0.8891629332  1.4512477886 -0.8209840145
O   0.4197920711  0.9375644974  1.1169875248
C   1.4775628774 -0.5646125336 -0.4389641797
H   0.4618511622  0.1595185752  1.7057225774
H   1.7963474516 -0.7685594261 -1.4523600532
H   1.6093398504 -1.3456007773  0.3057924310
7
Image 38  Energy = -29.6805179632
C   0.9470426215  0.6207381276 -0.1223013857
H   0.8883761278  1.4509420831 -0.8212489056
O   0.4203961622  0.9377830190  1.1171907253
C   1.4775615307 -0.5646099716 -0.4389708967
H   0.4621183686  0.1596658362  1.7058582441
H   1.7974527487 -0.7681117451 -1.4521126070
H   1.6082984682 -1.3460297329  0.3055240876
7
Image 39  Energy = -29.6805217928
C   0.9468980295  0.6206553500 -0.1223448021
H   0.8876181342  1.4506494938 -0.8215051136
O   0.4209598852  0.9379869373  1.1173788413
C   1.4775581948 -0.5646060536 -0.4389771197
H   0.4624025509  0.1598167904  1.7059974996
H   1.7985320605 -0.7676757017 -1.4518700161
H   1.6072771710 -1.3464492003  0.3052599799
7
Image 40  Energy = -29.6805253691
C   0.9467545906  0.6205766282 -0.1223883982
H   0.8868863813  1.4503663302 -0.8217516381
O   0.4214860977  0.9381777599  1.1175539578
C   1.4775544103 -0.5646041251 -0.4389839732
H   0.4627030441  0.1599709596  1.7061406918
H   1.7995881533 -0.7672496379 -1.4516308898
H   1.6062733477 -1.3468603018  0.3049995152
7
Image 41  Energy = -29.6805288112
C   0.9466141569  0.6204959220 -0.1224317006
H   0.8861790746  1.4500937508 -0.8219901132
O   0.4219768516  0.9383571729  1.1177164437
C   1.4775481886 -0.5645994626 -0.4389901819
H   0.4630189386  0.1601276492  1.7062878186
H   1.8006226875 -0.7668333445 -1.4513957415
H   1.6052861262 -1.3472640795  0.3047427405
7
Image 42  Energy = -29.6805320895
C   0.9464740553  0.6204206262 -0.1224745649
H   0.8854957123  1.4498295480 -0.8222197552
O   0.4224341373  0.9385243485  1.1178671380
C   1.4775423229 -0.5645983386 -0.4389972921
H   0.4633490426  0.1602872687  1.7064380072
H   1.8016355456 -0.7664260722 -1.4511634292
H   1.6043152072 -1.3476597741  0.3044891578
7
Image 43  Energy = -29.6805351442
C   0.9463368887  0.6203453501 -0.1225169443
H   0.8848378712  1.4495758152 -0.8224409420
O   0.4228575082  0.9386804120  1.1180060823
C   1.4775348346 -0.5645958972 -0.4390041165
H   0.4636909188  0.1604482541  1.7065907752
H   1.8026236530 -0.7660296295 -1.4509358324
H   1.6033643468 -1.3480466978  0.3042402388
7
Image 44  Energy = -29.6805381542
C   0.9462023933  0.6202703883 -0.1225589195
H   0.8842036186  1.4493316546 -0.8226540816
O   0.4232495152  0.9388259825  1.1181339399
C   1.4775258478 -0.5645923524 -0.4390107695
H   0.4640437951  0.1606106243  1.7067458508
H   1.8035888285 -0.7656431592 -1.4507123948
H   1.6024320221 -1.3484255340  0.3039956327
7
Image 45  Energy = -29.6805409706
C   0.9460704803  0.6201977395 -0.1226002269
H   0.8835949234  1.4490974358 -0.8228584994
O   0.4236102098  0.9389608615  1.1182510622
C   1.4775162803 -0.5645895019 -0.4390174447
H   0.4644049146  0.1607734163  1.7069020805
H   1.8045271675 -0.7652679767 -1.4504937985
H   1.6015220481 -1.3487943701  0.3037560932
7
Image 46  Energy = -29.6805436379
C   0.9459383881  0.6201319946 -0.1226410160
H   0.8830067175  1.4488697850 -0.8230552982
O   0.4239442535  0.9390854176  1.1183590462
C   1.4775078533 -0.5645913896 -0.4390250833
H   0.4647755802  0.1609381010  1.7070598841
H   1.8054456183 -0.7649008445 -1.4502778610
H   1.6006276124 -1.3491554719  0.3035195925
7
Image 47  Energy = -29.6805461711
C   0.9458091425  0.6200636501 -0.1226813525
H   0.8824366381  1.4486502991 -0.8232463345
O   0.4242532370  0.9392023989  1.1184581178
C   1.4774973431 -0.5645902306 -0.4390322625
H   0.4651557548  0.1611037563  1.7072198881
H   1.8063469834 -0.7645414107 -1.4500652609
H   1.5997469217 -1.3495108665  0.3032864693
7
Image 48  Energy = -29.6805486000
C   0.9456833047  0.6199945989 -0.1227215060
H   0.8818878055  1.4484396689 -0.8234304112
O   0.4245364523  0.9393110880  1.1185485321
C   1.4774852276 -0.5645871545 -0.4390388367
H   0.4655419574  0.1612692516  1.7073807919
H   1.8072256822 -0.7641917983 -1.4498573043
H   1.5988855904 -1.3498580543  0.3030579954
7
Image 49  Energy = -28.7072511083
C  -11.2771293056 -5.9769632772 -0.1486477920
H  -2.9403528305 -0.6136397039 -0.8330747997
O   7.6069223491  4.8059633993  1.1386776797
C   3.5852109653  0.5722544628 -0.4299037871
H   6.0834202859  3.2024860028  1.7102561434
H   1.2194385484 -1.0806383722 -1.4520979335
H   3.3236784532 -0.4192252105  0.3087252434
7
Image 50  Energy = -28.7152321702
C  -11.2771293056 -5.9769632772 -0.1486477920
H  -2.9405569458 -0.6136168095 -0.8330444530
O   7.5781105617  4.7756375514  1.1494337718
C   3.5800126220  0.5422975726 -0.4005495385
H   6.1066509132  3.2267394865  1.6950046075
H   1.2210416383 -1.0798434051 -1.4513551242
H   3.3330589806 -0.3840138176  0.2830932848
7
Image 51  Energy = -28.7238064772
C  -11.2771293056 -5.9769632772 -0.1486477920
H  -2.9408014104 -0.6135894412 -0.8330081402
O   7.5291566111  4.7241039859  1.1674872381
C   3.5809049515  0.5391928837 -0.3930715636
H   6.1507405001  3.2729133267  1.6731939046
H   1.2224714212 -1.0789531302 -1.4509700196
H   3.3358456963 -0.3764670437  0.2789511296
7
Image 52  Energy = -28.7352955705
C  -11.2771293056 -5.9769632772 -0.1486477920
H  -2.9409052930 -0.6135778517 -0.8329927316
O   7.4818322433  4.6742751841  1.1847670892
C   3.5822835643  0.5452160041 -0.3973794742
H   6.1976068104  3.3222680301  1.6555381193
H   1.2232240236 -1.0784918383 -1.4507230986
H   3.3342764200 -0.3824889433  0.2833726442
7
Image 53  Energy = -28.7604015833
C  -11.2771293056 -5.9769632772 -0.1486477920
H  -2.9409105571 -0.6135772725 -0.8329919551
O   7.4349455644  4.6249158126  1.2019294292
C   3.5836813069  0.5517247524 -0.4028816079
H   6.2449039401  3.3720538217  1.6387069310
H   1.2232723070 -1.0784720920 -1.4506948597
H   3.3324252034 -0.3894444350  0.2885146088
7
Image 54  Energy = -28.7929112083
C  -11.2771293056 -5.9769632772 -0.1486477920
H  -2.9410208627 -0.6135649690 -0.8329755996
O   7.3902012521  4.5778106175  1.2183713142
C   3.5811534043  0.5449919112 -0.3988749488
H   6.2894675052  3.4188960466  1.6222167459
H   1.2238663407 -1.0780453460 -1.4506062899
H   3.3346501330 -0.3828876656  0.2844513286
7
Image 55  Energy = -28.8213142520
C  -11.2771293056 -5.9769632772 -0.1486477920
H  -2.9410055298 -0.6135666851 -0.8329778764
O   7.3526930907  4.5383184240  1.2321393254
C   3.5841062848  0.5537371654 -0.4040878271
H   6.3263964733  3.4578056298  1.6079820506
H   1.2237400155 -1.0781290939 -1.4506440787
H   3.3323874418 -0.3909648511  0.2901709578
7
Image 56  Energy = -28.8494722611
C  -11.2771293056 -5.9769632772 -0.1486477920
H  -2.9410617163 -0.6135604229 -0.8329695468
O   7.3169498322  4.5006868245  1.2452092440
C   3.5823610151  0.5488611716 -0.4011077987
H   6.3622547817  3.4955587059  1.5950004168
H   1.2240609909 -1.0778882159 -1.4506019557
H   3.3337528749 -0.3864574672  0.2870521957
7
Image 57  Energy = -28.8678958780
C  -11.2771293056 -5.9769632772 -0.1486477920
H  -2.9411037919 -0.6135557363 -0.8329633097
O   7.2880921424  4.4703045647  1.2557764137
C   3.5816221166  0.5465994474 -0.3994947735
H   6.3909599592  3.5257832255  1.5843217684
H   1.2243059431 -1.0777114473 -1.4505612987
H   3.3344414061 -0.3842194568  0.2855037525
7
Image 58  Energy = -28.8820010787
C  -11.2771293056 -5.9769632772 -0.1486477920
H  -2.9411308526 -0.6135527243 -0.8329592992
O   7.2648234823  4.4458067744  1.2642897129
C   3.5814745591  0.5464346955 -0.3994427792
H   6.4141422815  3.5501889069  1.5757508119
H   1.2244601334 -1.0776006222 -1.4505360358
H   3.3345481669 -0.3840764355  0.2854801402
7
Image 59  Energy = -28.8928240305
C  -11.2771293056 -5.9769632772 -0.1486477920
H  -2.9411583809 -0.6135496604 -0.8329552193
O   7.2463354708  4.4263421270  1.2710520032
C   3.5810200261  0.5453122529 -0.3987887807
H   6.4326070909  3.5696280983  1.5689751289
H   1.2246223671 -1.0774844856 -1.4505076135
H   3.3348911967 -0.3830477326  0.2848070322
7
Image 60  Energy = -28.9009322888
C  -11.2771293056 -5.9769632772 -0.1486477920
H  -2.9411817127 -0.6135470642 -0.8329517616
O   7.2315323315  4.4107569758  1.2764672051
C   3.5806783835  0.5444521682 -0.3982633898
H   6.4473671138  3.5851670397  1.5635320473
H   1.2247603599 -1.0773865874 -1.4504823918
H   3.3351612950 -0.3822419375  0.2842808411
7
Image 61  Energy = -28.9073374635
C  -11.2771293056 -5.9769632772 -0.1486477920
H  -2.9412060229 -0.6135443594 -0.8329481589
O   7.2190220973  4.3975858754  1.2810433326
C   3.5802702583  0.5432725130 -0.3974599002
H   6.4598014649  3.5982575377  1.5589052760
H   1.2249081323 -1.0772829540 -1.4504531584
H   3.3355218419 -0.3810880175  0.2834951595
7
Image 62  Energy = -28.9129076964
C  -11.2771293056 -5.9769632772 -0.1486477920
H  -2.9413011610 -0.6135337790 -0.8329340620
O   7.2065250938  4.3844283751  1.2856003460
C   3.5793259006  0.5409539404 -0.3959239771
H   6.4719440088  3.6110384208  1.5541138875
H   1.2254932689 -1.0768768296 -1.4503313250
H   3.3363306556 -0.3788095364  0.2820576722
7
Image 63  Energy = -28.9172913796
C  -11.2771293056 -5.9769632772 -0.1486477920
H  -2.9413457309 -0.6135288255 -0.8329274592
O   7.1941371093  4.3713858780  1.2901245941
C   3.5784725699  0.5384025710 -0.3941538790
H   6.4841693913  3.6239081989  1.5494816645
H   1.2257947325 -1.0766680486 -1.4502616829
H   3.3370896953 -0.3762991827  0.2803193039
7
Image 64  Energy = -28.9203358656
C  -11.2771293056 -5.9769632772 -0.1486477920
H  -2.9414072034 -0.6135219966 -0.8329183539
O   7.1817298235  4.3583230701  1.2946534175
C   3.5775200752  0.5357739642 -0.3923820376
H   6.4963524110  3.6367327246  1.5448045128
H   1.2262347769 -1.0763676011 -1.4501503571
H   3.3378878843 -0.3737395683  0.2785753599
7
Image 65  Energy = -28.9217735893
C  -11.2771293056 -5.9769632772 -0.1486477920
H  -2.9415154540 -0.6135099794 -0.8329023243
O   7.1693254119  4.3452632456  1.2991796044
C   3.5761612067  0.5324223287 -0.3902200577
H   6.5083516767  3.6493619988  1.5400110488
H   1.2270489446 -1.0758145734 -1.4499334619
H   3.3389459817 -0.3705224276  0.2764477322
7
Image 66  Energy = -28.9218290216
C  -11.2771293056 -5.9769632772 -0.1486477920
H  -2.9418164055 -0.6134766187 -0.8328577861
O   7.1664146710  4.3421986919  1.3002401009
C   3.5742336534  0.5305893299 -0.3898094773
H   6.5100256266  3.6511118132  1.5381375391
H   1.2295819491 -1.0741033196 -1.4491971547
H   3.3398782729 -0.3691193039  0.2760693196
7
Image 67  Energy = -28.9218337899
C  -11.2771293056 -5.9769632772 -0.1486477920
H  -2.9419152366 -0.6134657109 -0.8328431867
O   7.1661902405  4.3419623989  1.3003215695
C   3.5736750448  0.5311359562 -0.3906797708
H   6.5096634344  3.6507246646  1.5376708227
H   1.2307835765 -1.0732657476 -1.4488112398
H   3.3399207080 -0.3698909683  0.2769243466
7
Image 68  Energy = -28.9218377239
C  -11.2771293056 -5.9769632772 -0.1486477920
H  -2.9420104721 -0.6134552217 -0.8328291311
O   7.1658894726  4.3416457315  1.3004305906
C   3.5727470138  0.5308991874 -0.3910840862
H   6.5092448983  3.6502770864  1.5370894489
H   1.2322376105 -1.0722302139 -1.4483320809
H   3.3402092445 -0.3699359767  0.2773078002
7
Image 69  Energy = -28.9218416578
C  -11.2771293056 -5.9769632772 -0.1486477920
H  -2.9420735904 -0.6134482879 -0.8328198261
O   7.1655925321  4.3413330907  1.3005378994
C   3.5717886540  0.5306103098 -0.3914702108
H   6.5088227760  3.6498259194  1.5365100755
H   1.2336919268 -1.0711728819 -1.4478290344
H   3.3404954692 -0.3699475572  0.2776536379
7
Image 70  Energy = -28.9218457705
C  -11.2771293056 -5.9769632772 -0.1486477920
H  -2.9421045676 -0.6134448937 -0.8328152646
O   7.1652956678  4.3410205274  1.3006448540
C   3.5708007262  0.5303113680 -0.3918814839
H   6.5084014550  3.6493757877  1.5359317663
H   1.2351604453 -1.0700850186 -1.4472949849
H   3.3407640408 -0.3699771778  0.2779976545
7
Image 71  Energy = -28.9218501216
C  -11.2771293056 -5.9769632772 -0.1486477920
H  -2.9421029010 -0.6134450752 -0.8328155093
O   7.1650051077  4.3407145989  1.3007492281
C   3.5697703657  0.5299861791 -0.3923165219
H   6.5079755607  3.6489210439  1.5353573070
H   1.2366534715 -1.0689595491 -1.4467246161
H   3.3410161630 -0.3700166044  0.2783326537
7
Image 72  Energy = -28.9218547708
C  -11.2771293056 -5.9769632772 -0.1486477920
H  -2.9420680584 -0.6134488704 -0.8328206263
O   7.1647150972  4.3404092467  1.3008530930
C   3.5686852325  0.5296303073 -0.3927847717
H   6.5075503497  3.6484672219  1.5347842990
H   1.2381858017 -1.0677864081 -1.4461104509
H   3.3412493449 -0.3700709043  0.2786609984
7
Image 73  Energy = -28.9218598968
C  -11.2771293056 -5.9769632772 -0.1486477920
H  -2.9419994134 -0.6134563258 -0.8328306938
O   7.1644327061  4.3401119144  1.3009539322
C   3.5675394752  0.5292385636 -0.3932906550
H   6.5071238381  3.6480122818  1.5342185944
H   1.2397615270 -1.0665636515 -1.4454489030
H   3.3414596347 -0.3701421894  0.2789802666
7
Image 74  Energy = -28.9218654400
C  -11.2771293056 -5.9769632772 -0.1486477920
H  -2.9418963858 -0.6134674809 -0.8328457817
O   7.1641571624  4.3398217893  1.3010520415
C   3.5663193945  0.5288054901 -0.3938445351
H   6.5066969875  3.6475572409  1.5336600189
H   1.2413972398 -1.0652803566 -1.4447312366
H   3.3416433693 -0.3702360898  0.2792920345
7
Image 75  Energy = -28.9218716985
C  -11.2771293056 -5.9769632772 -0.1486477920
H  -2.9417572589 -0.6134824953 -0.8328661238
O   7.1638915290  4.3395420962  1.3011463682
C   3.5649930674  0.5283132262 -0.3944615906
H   6.5062609993  3.6470927968  1.5331058636
H   1.2431329788 -1.0639090124 -1.4439370381
H   3.3417964521 -0.3703560183  0.2795950620
7
Image 76  Energy = -28.9218790895
C  -11.2771293056 -5.9769632772 -0.1486477920
H  -2.9415797361 -0.6135015863 -0.8328920343
O   7.1636344380  4.3392713960  1.3012374155
C   3.5635405078  0.5277510351 -0.3951546613
H   6.5058185026  3.6466217385  1.5325564525
H   1.2449918099 -1.0624340263 -1.4430524580
H   3.3419122454 -0.3705079639  0.2798878269
7
Image 77  Energy = -28.9218879110
C  -11.2771293056 -5.9769632772 -0.1486477920
H  -2.9413610140 -0.6135250187 -0.8329238962
O   7.1633856088  4.3390093927  1.3013253082
C   3.5619324096  0.5271022906 -0.3959409854
H   6.5053704941  3.6461451353  1.5320121304
H   1.2470112699 -1.0608312862 -1.4420549499
H   3.3419789995 -0.3706999204  0.2801649341
7
Image 78  Energy = -28.9218986994
C  -11.2771293056 -5.9769632772 -0.1486477920
H  -2.9410959323 -0.6135533001 -0.8329624273
O   7.1631547895  4.3387663513  1.3014066566
C   3.5601329612  0.5263480354 -0.3968416513
H   6.5049057601  3.6456511872  1.5314753286
H   1.2492349737 -1.0590704437 -1.4409180552
H   3.3419852156 -0.3709412368  0.2804226899
7
Image 79  Energy = -28.9219122893
C  -11.2771293056 -5.9769632772 -0.1486477920
H  -2.9407850698 -0.6135863137 -0.8330075009
O   7.1629361307  4.3385361131  1.3014835351
C   3.5581162604  0.5254699629 -0.3978742180
H   6.5044411387  3.6451577142  1.5309511672
H   1.2516999470 -1.0571339988 -1.4396178505
H   3.3419093608 -0.3712428844  0.2806474084
7
Image 80  Energy = -28.9219289786
C  -11.2771293056 -5.9769632772 -0.1486477920
H  -2.9404171030 -0.6136251939 -0.8330607041
O   7.1627248832  4.3383136768  1.3015576276
C   3.5558814250  0.5244743923 -0.3990434933
H   6.5039768680  3.6446649562  1.5304350059
H   1.2544072230 -1.0550143895 -1.4381451657
H   3.3417444719 -0.3716128485  0.2808392711
7
Image 81  Energy = -28.9219497210
C  -11.2771293056 -5.9769632772 -0.1486477920
H  -2.9399797327 -0.6136711502 -0.8331237416
O   7.1625359572  4.3381147455  1.3016237925
C   3.5533800073  0.5233346355 -0.4003722382
H   6.5034882460  3.6441468670  1.5299255790
H   1.2574177919 -1.0526653491 -1.4364599515
H   3.3414754986 -0.3720591552  0.2809891013
7
Image 82  Energy = -28.9219661123
C  -11.2771293056 -5.9769632772 -0.1486477920
H  -2.9392148018 -0.6137509962 -0.8332335661
O   7.1634836618  4.3391126718  1.3012965819
C   3.5490898236  0.5213238581 -0.4026805035
H   6.5015270925  3.6420770137  1.5295900572
H   1.2626159353 -1.0486729905 -1.4334722672
H   3.3408160570 -0.3728889635  0.2810822391
7
Image 83  Energy = -28.9220518237
C  -11.2771293056 -5.9769632772 -0.1486477920
H  -2.9383770381 -0.6138375582 -0.8333531103
O   7.1621631519  4.3377221844  1.3017523213
C   3.5443905161  0.5190611514 -0.4052622030
H   6.5019357414  3.6425037874  1.5285381760
H   1.2684773944 -1.0443170909 -1.4299906011
H   3.3397280027 -0.3739318805  0.2808979586
7
Image 84  Energy = -28.9221188194
C  -11.2771293056 -5.9769632772 -0.1486477920
H  -2.9375395138 -0.6139230322 -0.8334716824
O   7.1624952199  4.3380718543  1.3016393121
C   3.5397749796  0.5167920936 -0.4078427535
H   6.5008690401  3.6413784246  1.5281712071
H   1.2745694685 -1.0399832709 -1.4262232049
H   3.3381485745 -0.3751354760  0.2803096632
7
Image 85  Energy = -28.9222283131
C  -11.2771293056 -5.9769632772 -0.1486477920
H  -2.9366505440 -0.6140127046 -0.8335965393
O   7.1619259814  4.3374724463  1.3018349503
C   3.5351592080  0.5145186440 -0.4104663200
H   6.5007871047  3.6412908362  1.5275502325
H   1.2811004088 -1.0355161784 -1.4220169486
H   3.3359956097 -0.3765524501  0.2792771668
7
Image 86  Energy = -28.9223643905
C  -11.2771293056 -5.9769632772 -0.1486477920
H  -2.9356710005 -0.6141102730 -0.8337328536
O   7.1616229014  4.3371533027  1.3019396704
C   3.5305095575  0.5122303619 -0.4131362368
H   6.5004805588  3.6409673638  1.5270474625
H   1.2883859428 -1.0307722604 -1.4171009987
H   3.3329898085 -0.3782679019  0.2775654979
7
Image 87  Energy = -28.9225787884
C  -11.2771293056 -5.9769632772 -0.1486477920
H  -2.9345444606 -0.6142209966 -0.8338879741
O   7.1608481998  4.3363375389  1.3022053144
C   3.5255193643  0.5097772245 -0.4160260863
H   6.5006420733  3.6411372935  1.5263815429
H   1.2973717331 -1.0252942706 -1.4107756591
H   3.3284808586 -0.3805361967  0.2746854040
7
Image 88  Energy = -28.9230839378
C  -11.2771293056 -5.9769632772 -0.1486477920
H  -2.9326252617 -0.6144067136 -0.8341486798
O   7.1591923910  4.3345939582  1.3027719918
C   3.5181379430  0.5062926947 -0.4204369224
H   6.5013763239  3.6419110919  1.5252134491
H   1.3138734396 -1.0160568908 -1.3985387223
H   3.3183629327 -0.3851335472  0.2677214251
7
Image 89  Energy = -28.9236860043
C  -11.2771293056 -5.9769632772 -0.1486477920
H  -2.9309710439 -0.6145621581 -0.8343669149
O   7.1587206687  4.3340972339  1.3029303134
C   3.5144148921  0.5049021014 -0.4229265616
H   6.5011948516  3.6417214252  1.5246290590
H   1.3288848138 -1.0089212791 -1.3862606019
H   3.3060735866 -0.3900367300  0.2585772472
7
Image 90  Energy = -28.9242874748
C  -11.2771293056 -5.9769632772 -0.1486477920
H  -2.9292574784 -0.6147199601 -0.8345873753
O   7.1585077099  4.3338729918  1.3030008414
C   3.5125168614  0.5045394413 -0.4243848388
H   6.5007889120  3.6412957746  1.5241548769
H   1.3431011983 -1.0027471395 -1.3738531418
H   3.2926605659 -0.3950405147  0.2482521786
7
Image 91  Energy = -28.9247186548
C  -11.2771293056 -5.9769632772 -0.1486477920
H  -2.9270661165 -0.6149182548 -0.8348624678
O   7.1583736258  4.3337318058  1.3030442709
C   3.5117768258  0.5048244199 -0.4250851221
H   6.5001536429  3.6406294395  1.5236096751
H   1.3564050182 -0.9970826928 -1.3613432555
H   3.2786747740 -0.3999841238  0.2372194415
7
Image 92  Energy = -28.9248935944
C  -11.2771293056 -5.9769632772 -0.1486477920
H  -2.9232396952 -0.6152589189 -0.8353312665
O   7.1580004130  4.3333388255  1.3031661344
C   3.5115066588  0.5053593598 -0.4251603610
H   6.4991729036  3.6396017162  1.5226048338
H   1.3683255906 -0.9911939175 -1.3484556726
H   3.2645518995 -0.4046464714  0.2257588745
7
Image 93  Energy = -28.9249154097
C  -11.2771293056 -5.9769632772 -0.1486477920
H  -2.9151270006 -0.6159692005 -0.8363007120
O   7.1566999440  4.3319694664  1.3035948186
C   3.5116567607  0.5062515245 -0.4241806890
H   6.4975100061  3.6378623604  1.5202442935
H   1.3669435750 -0.9873401688 -1.3429884387
H   3.2606344846 -0.4055733885  0.2222132701
