7
Coordinates from ORCA-job cineb E -153.664588227934
  C          -0.22573448910812      0.66737030649889     -0.14248882435175
  H          -0.39203897672104      1.42247428757005     -0.91582206103534
  O          -0.48789937374867      0.96173029497918      1.07448741797479
  C           0.20036193566348     -0.67245891005912     -0.23607804260270
  H          -0.33735373593545     -0.29714209296713      1.11852108357128
  H           0.07608599268978     -1.25156241436686     -1.14887106863954
  H           1.16657864716001     -0.83041147165500      0.25025149508326