7
Image 0  Energy = -28.7072511083
C  -11.2771293056 -5.9769632772 -0.1486477920
H  -2.9403528305 -0.6136397039 -0.8330747997
O   7.6069223491  4.8059633993  1.1386776797
C   3.5852109653  0.5722544628 -0.4299037871
H   6.0834202859  3.2024860028  1.7102561434
H   1.2194385484 -1.0806383722 -1.4520979335
H   3.3236784532 -0.4192252105  0.3087252434
7
Image 1  Energy = -28.7152321702
C  -11.2771293056 -5.9769632772 -0.1486477920
H  -2.9405569458 -0.6136168095 -0.8330444530
O   7.5781105617  4.7756375514  1.1494337718
C   3.5800126220  0.5422975726 -0.4005495385
H   6.1066509132  3.2267394865  1.6950046075
H   1.2210416383 -1.0798434051 -1.4513551242
H   3.3330589806 -0.3840138176  0.2830932848
7
Image 2  Energy = -28.7238064772
C  -11.2771293056 -5.9769632772 -0.1486477920
H  -2.9408014104 -0.6135894412 -0.8330081402
O   7.5291566111  4.7241039859  1.1674872381
C   3.5809049515  0.5391928837 -0.3930715636
H   6.1507405001  3.2729133267  1.6731939046
H   1.2224714212 -1.0789531302 -1.4509700196
H   3.3358456963 -0.3764670437  0.2789511296
7
Image 3  Energy = -28.7352955705
C  -11.2771293056 -5.9769632772 -0.1486477920
H  -2.9409052930 -0.6135778517 -0.8329927316
O   7.4818322433  4.6742751841  1.1847670892
C   3.5822835643  0.5452160041 -0.3973794742
H   6.1976068104  3.3222680301  1.6555381193
H   1.2232240236 -1.0784918383 -1.4507230986
H   3.3342764200 -0.3824889433  0.2833726442
7
Image 4  Energy = -28.7604015833
C  -11.2771293056 -5.9769632772 -0.1486477920
H  -2.9409105571 -0.6135772725 -0.8329919551
O   7.4349455644  4.6249158126  1.2019294292
C   3.5836813069  0.5517247524 -0.4028816079
H   6.2449039401  3.3720538217  1.6387069310
H   1.2232723070 -1.0784720920 -1.4506948597
H   3.3324252034 -0.3894444350  0.2885146088
7
Image 5  Energy = -28.7929112083
C  -11.2771293056 -5.9769632772 -0.1486477920
H  -2.9410208627 -0.6135649690 -0.8329755996
O   7.3902012521  4.5778106175  1.2183713142
C   3.5811534043  0.5449919112 -0.3988749488
H   6.2894675052  3.4188960466  1.6222167459
H   1.2238663407 -1.0780453460 -1.4506062899
H   3.3346501330 -0.3828876656  0.2844513286
7
Image 6  Energy = -28.8213142520
C  -11.2771293056 -5.9769632772 -0.1486477920
H  -2.9410055298 -0.6135666851 -0.8329778764
O   7.3526930907  4.5383184240  1.2321393254
C   3.5841062848  0.5537371654 -0.4040878271
H   6.3263964733  3.4578056298  1.6079820506
H   1.2237400155 -1.0781290939 -1.4506440787
H   3.3323874418 -0.3909648511  0.2901709578
7
Image 7  Energy = -28.8494722611
C  -11.2771293056 -5.9769632772 -0.1486477920
H  -2.9410617163 -0.6135604229 -0.8329695468
O   7.3169498322  4.5006868245  1.2452092440
C   3.5823610151  0.5488611716 -0.4011077987
H   6.3622547817  3.4955587059  1.5950004168
H   1.2240609909 -1.0778882159 -1.4506019557
H   3.3337528749 -0.3864574672  0.2870521957
7
Image 8  Energy = -28.8678958780
C  -11.2771293056 -5.9769632772 -0.1486477920
H  -2.9411037919 -0.6135557363 -0.8329633097
O   7.2880921424  4.4703045647  1.2557764137
C   3.5816221166  0.5465994474 -0.3994947735
H   6.3909599592  3.5257832255  1.5843217684
H   1.2243059431 -1.0777114473 -1.4505612987
H   3.3344414061 -0.3842194568  0.2855037525
7
Image 9  Energy = -28.8820010787
C  -11.2771293056 -5.9769632772 -0.1486477920
H  -2.9411308526 -0.6135527243 -0.8329592992
O   7.2648234823  4.4458067744  1.2642897129
C   3.5814745591  0.5464346955 -0.3994427792
H   6.4141422815  3.5501889069  1.5757508119
H   1.2244601334 -1.0776006222 -1.4505360358
H   3.3345481669 -0.3840764355  0.2854801402
7
Image 10  Energy = -28.8928240305
C  -11.2771293056 -5.9769632772 -0.1486477920
H  -2.9411583809 -0.6135496604 -0.8329552193
O   7.2463354708  4.4263421270  1.2710520032
C   3.5810200261  0.5453122529 -0.3987887807
H   6.4326070909  3.5696280983  1.5689751289
H   1.2246223671 -1.0774844856 -1.4505076135
H   3.3348911967 -0.3830477326  0.2848070322
7
Image 11  Energy = -28.9009322888
C  -11.2771293056 -5.9769632772 -0.1486477920
H  -2.9411817127 -0.6135470642 -0.8329517616
O   7.2315323315  4.4107569758  1.2764672051
C   3.5806783835  0.5444521682 -0.3982633898
H   6.4473671138  3.5851670397  1.5635320473
H   1.2247603599 -1.0773865874 -1.4504823918
H   3.3351612950 -0.3822419375  0.2842808411
7
Image 12  Energy = -28.9073374635
C  -11.2771293056 -5.9769632772 -0.1486477920
H  -2.9412060229 -0.6135443594 -0.8329481589
O   7.2190220973  4.3975858754  1.2810433326
C   3.5802702583  0.5432725130 -0.3974599002
H   6.4598014649  3.5982575377  1.5589052760
H   1.2249081323 -1.0772829540 -1.4504531584
H   3.3355218419 -0.3810880175  0.2834951595
7
Image 13  Energy = -28.9129076964
C  -11.2771293056 -5.9769632772 -0.1486477920
H  -2.9413011610 -0.6135337790 -0.8329340620
O   7.2065250938  4.3844283751  1.2856003460
C   3.5793259006  0.5409539404 -0.3959239771
H   6.4719440088  3.6110384208  1.5541138875
H   1.2254932689 -1.0768768296 -1.4503313250
H   3.3363306556 -0.3788095364  0.2820576722
7
Image 14  Energy = -28.9172913796
C  -11.2771293056 -5.9769632772 -0.1486477920
H  -2.9413457309 -0.6135288255 -0.8329274592
O   7.1941371093  4.3713858780  1.2901245941
C   3.5784725699  0.5384025710 -0.3941538790
H   6.4841693913  3.6239081989  1.5494816645
H   1.2257947325 -1.0766680486 -1.4502616829
H   3.3370896953 -0.3762991827  0.2803193039
7
Image 15  Energy = -28.9203358656
C  -11.2771293056 -5.9769632772 -0.1486477920
H  -2.9414072034 -0.6135219966 -0.8329183539
O   7.1817298235  4.3583230701  1.2946534175
C   3.5775200752  0.5357739642 -0.3923820376
H   6.4963524110  3.6367327246  1.5448045128
H   1.2262347769 -1.0763676011 -1.4501503571
H   3.3378878843 -0.3737395683  0.2785753599
7
Image 16  Energy = -28.9217735893
C  -11.2771293056 -5.9769632772 -0.1486477920
H  -2.9415154540 -0.6135099794 -0.8329023243
O   7.1693254119  4.3452632456  1.2991796044
C   3.5761612067  0.5324223287 -0.3902200577
H   6.5083516767  3.6493619988  1.5400110488
H   1.2270489446 -1.0758145734 -1.4499334619
H   3.3389459817 -0.3705224276  0.2764477322
7
Image 17  Energy = -28.9218290216
C  -11.2771293056 -5.9769632772 -0.1486477920
H  -2.9418164055 -0.6134766187 -0.8328577861
O   7.1664146710  4.3421986919  1.3002401009
C   3.5742336534  0.5305893299 -0.3898094773
H   6.5100256266  3.6511118132  1.5381375391
H   1.2295819491 -1.0741033196 -1.4491971547
H   3.3398782729 -0.3691193039  0.2760693196
7
Image 18  Energy = -28.9218337899
C  -11.2771293056 -5.9769632772 -0.1486477920
H  -2.9419152366 -0.6134657109 -0.8328431867
O   7.1661902405  4.3419623989  1.3003215695
C   3.5736750448  0.5311359562 -0.3906797708
H   6.5096634344  3.6507246646  1.5376708227
H   1.2307835765 -1.0732657476 -1.4488112398
H   3.3399207080 -0.3698909683  0.2769243466
7
Image 19  Energy = -28.9218377239
C  -11.2771293056 -5.9769632772 -0.1486477920
H  -2.9420104721 -0.6134552217 -0.8328291311
O   7.1658894726  4.3416457315  1.3004305906
C   3.5727470138  0.5308991874 -0.3910840862
H   6.5092448983  3.6502770864  1.5370894489
H   1.2322376105 -1.0722302139 -1.4483320809
H   3.3402092445 -0.3699359767  0.2773078002
7
Image 20  Energy = -28.9218416578
C  -11.2771293056 -5.9769632772 -0.1486477920
H  -2.9420735904 -0.6134482879 -0.8328198261
O   7.1655925321  4.3413330907  1.3005378994
C   3.5717886540  0.5306103098 -0.3914702108
H   6.5088227760  3.6498259194  1.5365100755
H   1.2336919268 -1.0711728819 -1.4478290344
H   3.3404954692 -0.3699475572  0.2776536379
7
Image 21  Energy = -28.9218457705
C  -11.2771293056 -5.9769632772 -0.1486477920
H  -2.9421045676 -0.6134448937 -0.8328152646
O   7.1652956678  4.3410205274  1.3006448540
C   3.5708007262  0.5303113680 -0.3918814839
H   6.5084014550  3.6493757877  1.5359317663
H   1.2351604453 -1.0700850186 -1.4472949849
H   3.3407640408 -0.3699771778  0.2779976545
7
Image 22  Energy = -28.9218501216
C  -11.2771293056 -5.9769632772 -0.1486477920
H  -2.9421029010 -0.6134450752 -0.8328155093
O   7.1650051077  4.3407145989  1.3007492281
C   3.5697703657  0.5299861791 -0.3923165219
H   6.5079755607  3.6489210439  1.5353573070
H   1.2366534715 -1.0689595491 -1.4467246161
H   3.3410161630 -0.3700166044  0.2783326537
7
Image 23  Energy = -28.9218547708
C  -11.2771293056 -5.9769632772 -0.1486477920
H  -2.9420680584 -0.6134488704 -0.8328206263
O   7.1647150972  4.3404092467  1.3008530930
C   3.5686852325  0.5296303073 -0.3927847717
H   6.5075503497  3.6484672219  1.5347842990
H   1.2381858017 -1.0677864081 -1.4461104509
H   3.3412493449 -0.3700709043  0.2786609984
7
Image 24  Energy = -28.9218598968
C  -11.2771293056 -5.9769632772 -0.1486477920
H  -2.9419994134 -0.6134563258 -0.8328306938
O   7.1644327061  4.3401119144  1.3009539322
C   3.5675394752  0.5292385636 -0.3932906550
H   6.5071238381  3.6480122818  1.5342185944
H   1.2397615270 -1.0665636515 -1.4454489030
H   3.3414596347 -0.3701421894  0.2789802666
7
Image 25  Energy = -28.9218654400
C  -11.2771293056 -5.9769632772 -0.1486477920
H  -2.9418963858 -0.6134674809 -0.8328457817
O   7.1641571624  4.3398217893  1.3010520415
C   3.5663193945  0.5288054901 -0.3938445351
H   6.5066969875  3.6475572409  1.5336600189
H   1.2413972398 -1.0652803566 -1.4447312366
H   3.3416433693 -0.3702360898  0.2792920345
7
Image 26  Energy = -28.9218716985
C  -11.2771293056 -5.9769632772 -0.1486477920
H  -2.9417572589 -0.6134824953 -0.8328661238
O   7.1638915290  4.3395420962  1.3011463682
C   3.5649930674  0.5283132262 -0.3944615906
H   6.5062609993  3.6470927968  1.5331058636
H   1.2431329788 -1.0639090124 -1.4439370381
H   3.3417964521 -0.3703560183  0.2795950620
7
Image 27  Energy = -28.9218790895
C  -11.2771293056 -5.9769632772 -0.1486477920
H  -2.9415797361 -0.6135015863 -0.8328920343
O   7.1636344380  4.3392713960  1.3012374155
C   3.5635405078  0.5277510351 -0.3951546613
H   6.5058185026  3.6466217385  1.5325564525
H   1.2449918099 -1.0624340263 -1.4430524580
H   3.3419122454 -0.3705079639  0.2798878269
7
Image 28  Energy = -28.9218879110
C  -11.2771293056 -5.9769632772 -0.1486477920
H  -2.9413610140 -0.6135250187 -0.8329238962
O   7.1633856088  4.3390093927  1.3013253082
C   3.5619324096  0.5271022906 -0.3959409854
H   6.5053704941  3.6461451353  1.5320121304
H   1.2470112699 -1.0608312862 -1.4420549499
H   3.3419789995 -0.3706999204  0.2801649341
7
Image 29  Energy = -28.9218986994
C  -11.2771293056 -5.9769632772 -0.1486477920
H  -2.9410959323 -0.6135533001 -0.8329624273
O   7.1631547895  4.3387663513  1.3014066566
C   3.5601329612  0.5263480354 -0.3968416513
H   6.5049057601  3.6456511872  1.5314753286
H   1.2492349737 -1.0590704437 -1.4409180552
H   3.3419852156 -0.3709412368  0.2804226899
7
Image 30  Energy = -28.9219122893
C  -11.2771293056 -5.9769632772 -0.1486477920
H  -2.9407850698 -0.6135863137 -0.8330075009
O   7.1629361307  4.3385361131  1.3014835351
C   3.5581162604  0.5254699629 -0.3978742180
H   6.5044411387  3.6451577142  1.5309511672
H   1.2516999470 -1.0571339988 -1.4396178505
H   3.3419093608 -0.3712428844  0.2806474084
7
Image 31  Energy = -28.9219289786
C  -11.2771293056 -5.9769632772 -0.1486477920
H  -2.9404171030 -0.6136251939 -0.8330607041
O   7.1627248832  4.3383136768  1.3015576276
C   3.5558814250  0.5244743923 -0.3990434933
H   6.5039768680  3.6446649562  1.5304350059
H   1.2544072230 -1.0550143895 -1.4381451657
H   3.3417444719 -0.3716128485  0.2808392711
7
Image 32  Energy = -28.9219497210
C  -11.2771293056 -5.9769632772 -0.1486477920
H  -2.9399797327 -0.6136711502 -0.8331237416
O   7.1625359572  4.3381147455  1.3016237925
C   3.5533800073  0.5233346355 -0.4003722382
H   6.5034882460  3.6441468670  1.5299255790
H   1.2574177919 -1.0526653491 -1.4364599515
H   3.3414754986 -0.3720591552  0.2809891013
7
Image 33  Energy = -28.9219661123
C  -11.2771293056 -5.9769632772 -0.1486477920
H  -2.9392148018 -0.6137509962 -0.8332335661
O   7.1634836618  4.3391126718  1.3012965819
C   3.5490898236  0.5213238581 -0.4026805035
H   6.5015270925  3.6420770137  1.5295900572
H   1.2626159353 -1.0486729905 -1.4334722672
H   3.3408160570 -0.3728889635  0.2810822391
7
Image 34  Energy = -28.9220518237
C  -11.2771293056 -5.9769632772 -0.1486477920
H  -2.9383770381 -0.6138375582 -0.8333531103
O   7.1621631519  4.3377221844  1.3017523213
C   3.5443905161  0.5190611514 -0.4052622030
H   6.5019357414  3.6425037874  1.5285381760
H   1.2684773944 -1.0443170909 -1.4299906011
H   3.3397280027 -0.3739318805  0.2808979586
7
Image 35  Energy = -28.9221188194
C  -11.2771293056 -5.9769632772 -0.1486477920
H  -2.9375395138 -0.6139230322 -0.8334716824
O   7.1624952199  4.3380718543  1.3016393121
C   3.5397749796  0.5167920936 -0.4078427535
H   6.5008690401  3.6413784246  1.5281712071
H   1.2745694685 -1.0399832709 -1.4262232049
H   3.3381485745 -0.3751354760  0.2803096632
7
Image 36  Energy = -28.9222283131
C  -11.2771293056 -5.9769632772 -0.1486477920
H  -2.9366505440 -0.6140127046 -0.8335965393
O   7.1619259814  4.3374724463  1.3018349503
C   3.5351592080  0.5145186440 -0.4104663200
H   6.5007871047  3.6412908362  1.5275502325
H   1.2811004088 -1.0355161784 -1.4220169486
H   3.3359956097 -0.3765524501  0.2792771668
7
Image 37  Energy = -28.9223643905
C  -11.2771293056 -5.9769632772 -0.1486477920
H  -2.9356710005 -0.6141102730 -0.8337328536
O   7.1616229014  4.3371533027  1.3019396704
C   3.5305095575  0.5122303619 -0.4131362368
H   6.5004805588  3.6409673638  1.5270474625
H   1.2883859428 -1.0307722604 -1.4171009987
H   3.3329898085 -0.3782679019  0.2775654979
7
Image 38  Energy = -28.9225787884
C  -11.2771293056 -5.9769632772 -0.1486477920
H  -2.9345444606 -0.6142209966 -0.8338879741
O   7.1608481998  4.3363375389  1.3022053144
C   3.5255193643  0.5097772245 -0.4160260863
H   6.5006420733  3.6411372935  1.5263815429
H   1.2973717331 -1.0252942706 -1.4107756591
H   3.3284808586 -0.3805361967  0.2746854040
7
Image 39  Energy = -28.9230839378
C  -11.2771293056 -5.9769632772 -0.1486477920
H  -2.9326252617 -0.6144067136 -0.8341486798
O   7.1591923910  4.3345939582  1.3027719918
C   3.5181379430  0.5062926947 -0.4204369224
H   6.5013763239  3.6419110919  1.5252134491
H   1.3138734396 -1.0160568908 -1.3985387223
H   3.3183629327 -0.3851335472  0.2677214251
7
Image 40  Energy = -28.9236860043
C  -11.2771293056 -5.9769632772 -0.1486477920
H  -2.9309710439 -0.6145621581 -0.8343669149
O   7.1587206687  4.3340972339  1.3029303134
C   3.5144148921  0.5049021014 -0.4229265616
H   6.5011948516  3.6417214252  1.5246290590
H   1.3288848138 -1.0089212791 -1.3862606019
H   3.3060735866 -0.3900367300  0.2585772472
7
Image 41  Energy = -28.9242874748
C  -11.2771293056 -5.9769632772 -0.1486477920
H  -2.9292574784 -0.6147199601 -0.8345873753
O   7.1585077099  4.3338729918  1.3030008414
C   3.5125168614  0.5045394413 -0.4243848388
H   6.5007889120  3.6412957746  1.5241548769
H   1.3431011983 -1.0027471395 -1.3738531418
H   3.2926605659 -0.3950405147  0.2482521786
7
Image 42  Energy = -28.9247186548
C  -11.2771293056 -5.9769632772 -0.1486477920
H  -2.9270661165 -0.6149182548 -0.8348624678
O   7.1583736258  4.3337318058  1.3030442709
C   3.5117768258  0.5048244199 -0.4250851221
H   6.5001536429  3.6406294395  1.5236096751
H   1.3564050182 -0.9970826928 -1.3613432555
H   3.2786747740 -0.3999841238  0.2372194415
7
Image 43  Energy = -28.9248935944
C  -11.2771293056 -5.9769632772 -0.1486477920
H  -2.9232396952 -0.6152589189 -0.8353312665
O   7.1580004130  4.3333388255  1.3031661344
C   3.5115066588  0.5053593598 -0.4251603610
H   6.4991729036  3.6396017162  1.5226048338
H   1.3683255906 -0.9911939175 -1.3484556726
H   3.2645518995 -0.4046464714  0.2257588745
7
Image 44  Energy = -28.9249154097
C  -11.2771293056 -5.9769632772 -0.1486477920
H  -2.9151270006 -0.6159692005 -0.8363007120
O   7.1566999440  4.3319694664  1.3035948186
C   3.5116567607  0.5062515245 -0.4241806890
H   6.4975100061  3.6378623604  1.5202442935
H   1.3669435750 -0.9873401688 -1.3429884387
H   3.2606344846 -0.4055733885  0.2222132701
