22
Image 0  Energy = -424.82195292
C  -0.2742554203  0.0337928944 -0.5267369832
C  -0.3546789457  0.7390547122 -1.7426488014
H  -0.3971005320  0.1148112045 -2.6259594231
O   0.0189233266 -1.2789614875 -0.5556467758
H   1.0593888962 -1.3475144410 -0.4536745127
O   1.9140689146  0.6753316095 -2.0150031751
H   2.1904969647  0.4317563506 -2.9033010562
C   0.1166834015  0.7591046171  0.7379897318
H  -0.4389713394  1.6741385282  0.8955782244
H  -0.0348974318  0.0791693273  1.5694165133
H   1.1773593995  0.9866437577  0.6340666585
C  -2.0590115409  0.2221994594 -0.7877328810
H  -2.2765540050  1.1576174120 -0.2811232216
H  -2.5045970059  0.1758888586 -1.7819753187
H  -2.3346050749 -0.6600126222 -0.2071574322
C  -0.4281184806  2.2171060636 -1.9583279813
H   0.3565863848  2.4963573209 -2.6533932443
H  -1.3920136028  2.4641248083 -2.4003777280
H  -0.2924400469  2.7820315169 -1.0444790445
O   2.5274869502 -1.0029471349 -0.4144649758
H   3.0977643691 -1.6904587235 -0.7653906506
H   2.3384210112 -0.1285184739 -1.2418769904
