22
Image 0  Energy = -424.93222265
C  -0.5289344222  0.0964831573 -0.6461382739
C   0.0364366146  0.7723418699 -1.9123846532
H  -0.3675667472  0.2189315803 -2.7643377949
O  -0.2465770530 -1.3003634433 -0.7193748963
H   0.6761254702 -1.4437756000 -0.4892962173
O   1.4654395193  0.6089687444 -1.8827504101
H   1.8455959176  1.0759000606 -2.6286914008
C   0.0667873156  0.6869381629  0.6269286500
H  -0.2654568704  1.7088575224  0.7858094055
H  -0.2591729633  0.0946454618  1.4792986531
H   1.1537627360  0.6762644183  0.5930495706
C  -2.0472251848  0.2113822155 -0.6360084000
H  -2.3739044827  1.2368107793 -0.4681562181
H  -2.4593406433 -0.1378326152 -1.5802329462
H  -2.4450110110 -0.4138881816  0.1582471980
C  -0.3122427930  2.2450095327 -2.0648695643
H   0.1443408780  2.6337797450 -2.9754641497
H  -1.3844137386  2.4044480075 -2.1342105964
H   0.0730096538  2.8186563227 -1.2251829578
O   2.8613086615 -1.2968696008 -0.4233201094
H   3.8095517782 -1.3562684170 -0.5444500817
H   2.5674248624 -0.6397053706 -1.0706830852
22
Image 1  Energy = -424.92883888
C  -0.4895143747  0.1020808146 -0.6511030559
C   0.0537300569  0.8036602705 -1.9169319740
H  -0.3419715644  0.2367219886 -2.7656675199
O  -0.1756090364 -1.2831554857 -0.7441450480
H   0.7514368259 -1.4085905923 -0.5146837025
O   1.4900927467  0.6815694399 -1.8964138283
H   1.8428181346  1.1061848343 -2.6811183777
C   0.0874043426  0.7038436348  0.6297390953
H  -0.2117150737  1.7423960713  0.7532992886
H  -0.2911894267  0.1428921660  1.4826085685
H   1.1745913509  0.6493387499  0.6313583740
C  -2.0108216810  0.1669524594 -0.6305203491
H  -2.3740534452  1.1816621939 -0.4733599408
H  -2.4234875209 -0.2136747569 -1.5634441490
H  -2.3778070161 -0.4600494273  0.1783593886
C  -0.3310174734  2.2664476771 -2.0701337038
H   0.0786392075  2.6586981025 -3.0024418383
H  -1.4089452782  2.3982313415 -2.0990113213
H   0.0718438401  2.8607201252 -1.2520816969
O   2.7024242384 -1.3302346366 -0.4339098259
H   3.6398866120 -1.5174870479 -0.4615851414
H   2.5532027436 -0.5874934015 -1.0410317876
22
Image 2  Energy = -424.92880716
C  -0.4853033993  0.1063780397 -0.6500582881
C   0.0575601615  0.8082516505 -1.9149169064
H  -0.3365740298  0.2414654248 -2.7643390254
O  -0.1659204549 -1.2789596119 -0.7391225597
H   0.7556580717 -1.4020736113 -0.4868550622
O   1.4953194185  0.6901644881 -1.8941804561
H   1.8398983913  0.9956061167 -2.7359939995
C   0.0909522784  0.7148502927  0.6289208999
H  -0.2703530292  1.7287044411  0.7850298107
H  -0.2239394821  0.1122633860  1.4792599081
H   1.1787952105  0.7332625073  0.5976860325
C  -2.0066345968  0.1677928587 -0.6361556092
H  -2.3735862405  1.1709766087 -0.4211675455
H  -2.4117856961 -0.1541039442 -1.5944675124
H  -2.3765502697 -0.5091617115  0.1300900112
C  -0.3363717925  2.2683123643 -2.0631493172
H   0.1399038622  2.6905286891 -2.9486569389
H  -1.4115981437  2.3804941352 -2.1723577883
H  -0.0118149058  2.8489550129 -1.2023859452
O   2.7129559286 -1.2742938458 -0.3729755180
H   3.5937205923 -1.5989610200 -0.5582686018
H   2.5556051427 -0.5397387589 -0.9881542104
22
Image 3  Energy = -424.92832441
C  -0.4804377588  0.1082760984 -0.6492847519
C   0.0630245788  0.8104292649 -1.9131902513
H  -0.3290698042  0.2440765059 -2.7635120925
O  -0.1599773891 -1.2770440961 -0.7367449020
H   0.7574823668 -1.3999512376 -0.4691252576
O   1.5024076026  0.6960601752 -1.8953552591
H   1.8381955330  0.8956209221 -2.7720567962
C   0.0969624716  0.7196260244  0.6289195775
H  -0.3150956158  1.7080662936  0.8169034715
H  -0.1587406992  0.0827070125  1.4738981100
H   1.1807439498  0.8012932488  0.5704240419
C  -2.0023506667  0.1704851383 -0.6408647062
H  -2.3690475321  1.1649081982 -0.3881750696
H  -2.4019077562 -0.1091689809 -1.6147409342
H  -2.3771611576 -0.5371300916  0.0945544249
C  -0.3390180117  2.2684884613 -2.0553203745
H   0.1918189890  2.7166576157 -2.8947302582
H  -1.4061599692  2.3651528020 -2.2353067660
H  -0.0872439652  2.8350475478 -1.1615201297
O   2.7198114654 -1.2315311924 -0.3399571611
H   3.5406510372 -1.6334622844 -0.6245072635
H   2.5450497636 -0.4978934077 -0.9525260624
22
Image 4  Energy = -424.92750607
C  -0.4722378991  0.1079132995 -0.6451224129
C   0.0719014938  0.8074681526 -1.9095689463
H  -0.3132088544  0.2366338625 -2.7594803312
O  -0.1535573277 -1.2777226529 -0.7297767380
H   0.7640305254 -1.3979178682 -0.4589949147
O   1.5139092681  0.7030612565 -1.8966635707
H   1.8374651982  0.8033200767 -2.7947645048
C   0.1055426832  0.7224508320  0.6326590406
H  -0.3420353384  1.6902578004  0.8445651723
H  -0.1055603173  0.0631565956  1.4726091688
H   1.1836181819  0.8507822133  0.5552484679
C  -1.9945901924  0.1766931531 -0.6448310178
H  -2.3578955740  1.1619267404 -0.3545627210
H  -2.3868791088 -0.0588925474 -1.6337156384
H  -2.3791412715 -0.5600776568  0.0568895952
C  -0.3395479418  2.2624606752 -2.0488701218
H   0.2296186681  2.7278575883 -2.8517993206
H  -1.3977147953  2.3451236551 -2.2840006233
H  -0.1474536150  2.8187501540 -1.1362554711
O   2.7083683842 -1.1877295725 -0.3240580180
H   3.4705547811 -1.6426209747 -0.6827249686
H   2.5147499975 -0.4521803855 -0.9290008179
22
Image 5  Energy = -424.92636548
C  -0.4597456809  0.1063628928 -0.6347278126
C   0.0814143814  0.7992558079 -1.9031613221
H  -0.3017183481  0.2214048010 -2.7479617731
O  -0.1370947188 -1.2788912499 -0.7087483332
H   0.7855222708 -1.3900164066 -0.4463224969
O   1.5252405758  0.7081938565 -1.9087589692
H   1.8234840813  0.6998500372 -2.8211537211
C   0.1111546739  0.7290304560  0.6433603309
H  -0.3619089390  1.6821396991  0.8657619116
H  -0.0742147426  0.0589635692  1.4809681282
H   1.1847333062  0.8883795908  0.5604955221
C  -1.9830781897  0.1808713071 -0.6515911264
H  -2.3436169952  1.1530074912 -0.3165724886
H  -2.3611421473  0.0041982218 -1.6584825941
H  -2.3848797347 -0.5889823688  0.0023900720
C  -0.3380665494  2.2512801098 -2.0445345795
H   0.2645160217  2.7256837626 -2.8168427769
H  -1.3861341285  2.3262426137 -2.3227807094
H  -0.1913859443  2.7986345275 -1.1180481223
O   2.7007371251 -1.1323831542 -0.3115009462
H   3.3736817259 -1.6478345332 -0.7561518102
H   2.4824388903 -0.3946756043 -0.9078546087
22
Image 6  Energy = -424.92493510
C  -0.4460272783  0.1051759048 -0.6240610741
C   0.0890466947  0.7944286042 -1.8967646944
H  -0.2978443121  0.2139956680 -2.7366117899
O  -0.1116286261 -1.2770481180 -0.6885152006
H   0.8148538314 -1.3731723201 -0.4279559384
O   1.5337002472  0.7089296342 -1.9335953024
H   1.7956969302  0.6126721989 -2.8520372884
C   0.1111314182  0.7385985829  0.6563991952
H  -0.3825932241  1.6809166481  0.8793329812
H  -0.0613451978  0.0653718281  1.4945605728
H   1.1815776246  0.9211851318  0.5782901669
C  -1.9707704083  0.1752689458 -0.6582384753
H  -2.3360325461  1.1332554283 -0.2894420797
H  -2.3327964004  0.0424624142 -1.6779544519
H  -2.3830794217 -0.6219057596 -0.0450991080
C  -0.3332683685  2.2456455151 -2.0354980643
H   0.3005461558  2.7288028195 -2.7763978941
H  -1.3693546051  2.3169770527 -2.3556717933
H  -0.2294908759  2.7827391644 -1.0973965236
O   2.6901473585 -1.0852947488 -0.3155984829
H   3.2901380262 -1.6519526736 -0.8000794455
H   2.4573294554 -0.3563359445 -0.9198843632
22
Image 7  Energy = -424.92325640
C  -0.4360221257  0.1069385109 -0.6216278174
C   0.1009844720  0.7853017671 -1.9000840847
H  -0.2818453591  0.1985205551 -2.7375967330
O  -0.0851333919 -1.2710312791 -0.6681489307
H   0.8498455162 -1.3366053778 -0.4249495479
O   1.5483299169  0.7166421714 -1.9537474844
H   1.7932209128  0.5515927399 -2.8666597361
C   0.1040344688  0.7526087914  0.6606890126
H  -0.4153060710  1.6796524455  0.8906133407
H  -0.0515640561  0.0678963470  1.4927358090
H   1.1696324158  0.9607327300  0.5838251012
C  -1.9624471311  0.1744493852 -0.6612331150
H  -2.3262888850  1.1170624747 -0.2522107278
H  -2.3236666595  0.0861642403 -1.6859043115
H  -2.3761047999 -0.6466033870 -0.0813280746
C  -0.3268535734  2.2326897475 -2.0298668375
H   0.3152714694  2.7339897707 -2.7497659275
H  -1.3597223325  2.2923514259 -2.3618277809
H  -0.2434699365  2.7487138222 -1.0775654171
O   2.6946587007 -1.0171296001 -0.3129627727
H   3.1630894360 -1.6984545844 -0.7937976505
H   2.4592933355 -0.3347671493 -0.9708056514
22
Image 8  Energy = -424.92150577
C  -0.4254475477  0.0942245138 -0.6056699078
C   0.1054506896  0.7783265702 -1.8892772668
H  -0.2829819682  0.1801246933 -2.7133036326
O  -0.0583325075 -1.2780596610 -0.6439911394
H   0.8926266738 -1.3317977729 -0.4421863340
O   1.5619591637  0.7381858904 -1.9679764261
H   1.8267005497  0.5054510765 -2.8657709892
C   0.0991913109  0.7526886959  0.6796369879
H  -0.4279559561  1.6785306595  0.8970761895
H  -0.0522973802  0.0749860693  1.5194544409
H   1.1641504055  0.9665323294  0.6034653382
C  -1.9592631721  0.1647539032 -0.6650507425
H  -2.3110493751  1.1087933431 -0.2484084636
H  -2.3252347590  0.1050637293 -1.6920030810
H  -2.3973489771 -0.6563805955 -0.1016549431
C  -0.3268821895  2.2267419031 -2.0222611883
H   0.3468714513  2.6942173244 -2.7332143227
H  -1.3514365361  2.3197970677 -2.3772423555
H  -0.2484575637  2.7474131161 -1.0716932475
O   2.6374135179 -0.9942387192 -0.3521584676
H   3.1325132804 -1.6675750363 -0.8170665949
H   2.4097492393 -0.3070634480 -1.0129235814
22
Image 9  Energy = -424.91049825
C  -0.4207133089  0.0796897814 -0.5877740702
C   0.0783997527  0.7580848924 -1.8817326491
H  -0.3299201800  0.1503977149 -2.6865938462
O  -0.0334005473 -1.2852965114 -0.5992935515
H   0.9382646299 -1.3257423656 -0.4566394572
O   1.5948931753  0.7241407286 -1.9999948611
H   1.9706179804  0.4796038098 -2.8622961449
C   0.0972858180  0.7554486485  0.6968523410
H  -0.4344971015  1.6786768651  0.9069445441
H  -0.0451883810  0.0846282307  1.5449785630
H   1.1615154485  0.9783196766  0.6193926234
C  -1.9675193905  0.1683416630 -0.6866113180
H  -2.3004913751  1.1118332502 -0.2524366995
H  -2.3764820722  0.1388992058 -1.7059754567
H  -2.3986520810 -0.6638497806 -0.1423805396
C  -0.3480977498  2.2165631534 -1.9998161290
H   0.3576201328  2.6330926174 -2.7034382983
H  -1.3590844308  2.3732299714 -2.3830592646
H  -0.2735368077  2.7548319208 -1.0568729533
O   2.5916396700 -0.9636559109 -0.4037515280
H   3.1106162483 -1.6687438214 -0.7876864155
H   2.3966641596 -0.2777800897 -1.0940336436
22
Image 10  Energy = -424.86703933
C  -0.4107930393  0.0601314754 -0.5530164430
C  -0.0727073596  0.7578854640 -1.8322095742
H  -0.3722491237  0.1254507394 -2.6580221519
O  -0.0016376386 -1.2890221649 -0.5763778919
H   0.9971344907 -1.3314297687 -0.4597516788
O   1.7467044408  0.7232299273 -2.0267470257
H   2.1123865064  0.4423026786 -2.8792687867
C   0.1035555515  0.7561970619  0.7171676816
H  -0.4361421548  1.6787960336  0.9053362207
H  -0.0383157515  0.0845867022  1.5628309576
H   1.1675029049  0.9814569105  0.6257615406
C  -1.9926684453  0.1741799126 -0.7124580287
H  -2.2895566952  1.1258866065 -0.2660302019
H  -2.4334892939  0.1598985224 -1.7288624592
H  -2.3918043602 -0.6694099014 -0.1699372411
C  -0.3862648391  2.2170487090 -1.9795966937
H   0.3630324434  2.5585832731 -2.6772565516
H  -1.3749070649  2.4281906923 -2.3948515898
H  -0.2865984891  2.7709784332 -1.0488536927
O   2.5538865732 -0.9618374597 -0.4338622509
H   3.0934625781 -1.6768477850 -0.7766926356
H   2.3594050108 -0.2155403578 -1.1595206013
22
Image 11  Energy = -424.83184997
C  -0.3738699526  0.0476549093 -0.5362498946
C  -0.2407461835  0.7571397627 -1.7868083722
H  -0.3848299628  0.1171701365 -2.6449360756
O   0.0084016008 -1.2864083836 -0.5656051854
H   1.0326023511 -1.3386205995 -0.4583089869
O   1.8782938746  0.6918758417 -2.0158752694
H   2.1735588074  0.4300753377 -2.8975585774
C   0.1108794514  0.7584432735  0.7294101661
H  -0.4373294813  1.6775567208  0.9029321620
H  -0.0360564653  0.0822713497  1.5677442426
H   1.1732846083  0.9834726008  0.6287730581
C  -2.0226534235  0.1902368404 -0.7418307577
H  -2.2815691873  1.1409897657 -0.2735697096
H  -2.4748526631  0.1702113993 -1.7509756100
H  -2.3661647986 -0.6706684288 -0.1876376276
C  -0.4095261263  2.2168578700 -1.9673180671
H   0.3604251732  2.5216142190 -2.6632739272
H  -1.3834349681  2.4540591777 -2.4004275962
H  -0.2921635923  2.7790246642 -1.0472297997
O   2.5392405755 -0.9886057379 -0.4205540661
H   3.0937537202 -1.6886902940 -0.7655532081
H   2.3426928309 -0.1449448645 -1.2273660282
22
Image 12  Energy = -424.82195292
C  -0.2742554203  0.0337928944 -0.5267369832
C  -0.3546789457  0.7390547122 -1.7426488014
H  -0.3971005320  0.1148112045 -2.6259594231
O   0.0189233266 -1.2789614875 -0.5556467758
H   1.0593888962 -1.3475144410 -0.4536745127
O   1.9140689146  0.6753316095 -2.0150031751
H   2.1904969647  0.4317563506 -2.9033010562
C   0.1166834015  0.7591046171  0.7379897318
H  -0.4389713394  1.6741385282  0.8955782244
H  -0.0348974318  0.0791693273  1.5694165133
H   1.1773593995  0.9866437577  0.6340666585
C  -2.0590115409  0.2221994594 -0.7877328810
H  -2.2765540050  1.1576174120 -0.2811232216
H  -2.5045970059  0.1758888586 -1.7819753187
H  -2.3346050749 -0.6600126222 -0.2071574322
C  -0.4281184806  2.2171060636 -1.9583279813
H   0.3565863848  2.4963573209 -2.6533932443
H  -1.3920136028  2.4641248083 -2.4003777280
H  -0.2924400469  2.7820315169 -1.0444790445
O   2.5274869502 -1.0029471349 -0.4144649758
H   3.0977643691 -1.6904587235 -0.7653906506
H   2.3384210112 -0.1285184739 -1.2418769904
22
Image 13  Energy = -424.82580939
C  -0.2431235652  0.0177745847 -0.5193963407
C  -0.4107801805  0.7297444057 -1.7211479258
H  -0.4039097389  0.1135711411 -2.6166710960
O   0.0256482630 -1.2680106293 -0.5528999301
H   1.1579464659 -1.3565426919 -0.4379638589
O   1.9736713450  0.6914434016 -2.0182586789
H   2.2070669243  0.4256124418 -2.9102907106
C   0.1124534659  0.7588514287  0.7401533584
H  -0.4432545886  1.6740170322  0.8939362225
H  -0.0291655883  0.0777698070  1.5719184153
H   1.1735426235  0.9904981501  0.6375427129
C  -2.0680990051  0.2445835236 -0.8131161273
H  -2.2850062950  1.1688178841 -0.2868855203
H  -2.5466207977  0.1790352967 -1.7902564481
H  -2.3046130760 -0.6457151737 -0.2210239947
C  -0.4448085665  2.2148069235 -1.9517107633
H   0.3518901796  2.4752146624 -2.6442198091
H  -1.4012892267  2.4743665210 -2.4000950596
H  -0.2946751689  2.7821581932 -1.0408835951
O   2.4593884382 -1.0592796347 -0.4094087453
H   3.0939483833 -1.7007319148 -0.7465349009
H   2.3297258807 -0.0872698398 -1.2850064008
22
Image 14  Energy = -424.84299548
C  -0.2202568417  0.0048412364 -0.5114475360
C  -0.4534344290  0.7229049154 -1.7017983395
H  -0.4148543298  0.1101819336 -2.6021200274
O  -0.0001424230 -1.2548727219 -0.5569948448
H   1.3160340651 -1.3648673346 -0.4323303848
O   2.0174897235  0.7094108502 -2.0227229357
H   2.2145442363  0.4152187573 -2.9152650166
C   0.1118506968  0.7579119288  0.7426908582
H  -0.4470090733  1.6721917276  0.8897792005
H  -0.0230549610  0.0750565225  1.5746362431
H   1.1732542444  0.9943626952  0.6415338012
C  -2.0746448548  0.2616006250 -0.8401332864
H  -2.2936020315  1.1765478151 -0.2950836103
H  -2.5857291826  0.1819031520 -1.7989518386
H  -2.2866581294 -0.6289321469 -0.2367839815
C  -0.4573760566  2.2113058543 -1.9437558867
H   0.3469631195  2.4569650715 -2.6356071073
H  -1.4059955694  2.4849192442 -2.4004766113
H  -0.2987526989  2.7815557869 -1.0368330106
O   2.4189410186 -1.1076260511 -0.3665427661
H   3.0584393690 -1.7262694452 -0.7374508813
H   2.3139301982 -0.0335950122 -1.3365612745
22
Image 15  Energy = -424.87175034
C  -0.1368391811 -0.0116113910 -0.5044937436
C  -0.6000525746  0.6947028084 -1.6614418016
H  -0.4373350326  0.1108743900 -2.5737639275
O  -0.0158234299 -1.2466309663 -0.5464157242
H   1.4393219282 -1.4024544570 -0.4192915767
O   2.0678096811  0.7219610058 -2.0220799782
H   2.2030892622  0.4093641566 -2.9181209453
C   0.1305720201  0.7486738822  0.7549495887
H  -0.4426157317  1.6630271088  0.8831062237
H  -0.0136738333  0.0754952253  1.5865261524
H   1.1868541419  1.0046503046  0.6591422649
C  -2.0788456757  0.3070615107 -0.9224961231
H  -2.3111336685  1.1813154948 -0.3162258781
H  -2.6594228137  0.1874698912 -1.8189320313
H  -2.2570161490 -0.5828335714 -0.2798691575
C  -0.4732195555  2.1969502736 -1.9335943680
H   0.3410813412  2.4324852873 -2.6226660197
H  -1.4073336196  2.5063805456 -2.4013183881
H  -0.3079062651  2.7796977492 -1.0323649360
O   2.4222325959 -1.1319263970 -0.3336633013
H   3.0430834471 -1.7476374953 -0.7320582863
H   2.3171093428  0.0037000605 -1.3671474776
22
Image 16  Energy = -424.89871091
C  -0.1027488277 -0.0160488434 -0.4979738757
C  -0.6762355238  0.6813870382 -1.6426318517
H  -0.4747731663  0.1062889846 -2.5492980259
O  -0.0109647390 -1.2429357723 -0.5395708903
H   1.5298701879 -1.4407307175 -0.3965065771
O   2.1133014438  0.7568710342 -2.0351036876
H   2.1853236936  0.3996197115 -2.9213374706
C   0.1600652211  0.7440017233  0.7666969355
H  -0.4339299370  1.6493011038  0.8829549266
H   0.0081481407  0.0749042283  1.6035423851
H   1.2119416847  1.0202998552  0.6917036271
C  -2.1196670019  0.3434701428 -0.9882537547
H  -2.3482801187  1.1947211694 -0.3501640268
H  -2.7593840621  0.2069763377 -1.8428085867
H  -2.2386840048 -0.5412275096 -0.3356478823
C  -0.4926859677  2.1821073971 -1.9251013610
H   0.3364140039  2.3939769260 -2.6043349330
H  -1.4129869944  2.5255685486 -2.4001628757
H  -0.3213520544  2.7678301128 -1.0249145477
O   2.4739811560 -1.1616544377 -0.2872826775
H   3.0472533387 -1.7894662711 -0.7294536134
H   2.3353303137  0.0454546728 -1.3965717526
22
Image 17  Energy = -424.91523283
C  -0.0827145403 -0.0163758826 -0.4866678306
C  -0.7240863746  0.6692899327 -1.6250650315
H  -0.5139341450  0.0926803893 -2.5271015933
O   0.0188260792 -1.2404797340 -0.5314197040
H   1.5896961500 -1.4552944534 -0.3608802272
O   2.1434916770  0.7896888898 -2.0431206570
H   2.1616607238  0.4032962912 -2.9207705280
C   0.1987564990  0.7340942333  0.7821187676
H  -0.4205084568  1.6230781230  0.8720416418
H   0.0501210085  0.0681803616  1.6274723590
H   1.2442536257  1.0392115332  0.7278080371
C  -2.1604156311  0.3784422398 -1.0449287168
H  -2.4096218022  1.2184030304 -0.4012103372
H  -2.8561048710  0.2507465409 -1.8631319747
H  -2.2319346439 -0.5077996549 -0.4076129301
C  -0.5111680378  2.1649819694 -1.9127199579
H   0.3250003406  2.3395290836 -2.5879995523
H  -1.4179764595  2.5350609336 -2.3942203892
H  -0.3372022480  2.7631659092 -1.0200687119
O   2.5298272446 -1.1766707236 -0.2786641433
H   3.0550532958 -1.8505918451 -0.7136302246
H   2.3589183113  0.0780768757 -1.4124475850
22
Image 18  Energy = -424.92468334
C  -0.0699221283 -0.0179311825 -0.4908433047
C  -0.7867381096  0.6594966413 -1.6105088869
H  -0.5951407113  0.0722136175 -2.5069365091
O   0.0987633919 -1.2279473631 -0.5444549715
H   1.6871139947 -1.4783350168 -0.3242794487
O   2.1083316488  0.7867466548 -2.0374171443
H   2.1712720203  0.3828395680 -2.9050264516
C   0.2277315130  0.7407305352  0.7687113672
H  -0.4182396732  1.6058072840  0.8808967435
H   0.1238113641  0.0713786200  1.6167000893
H   1.2577722051  1.0910412145  0.7110969593
C  -2.2249879162  0.4209249906 -1.0759702304
H  -2.4784695744  1.2464905930 -0.4135659559
H  -2.9296583195  0.3494862470 -1.8965604388
H  -2.3011907994 -0.4929143154 -0.4900160103
C  -0.5383508355  2.1466527717 -1.9013865076
H   0.3290215915  2.2916393544 -2.5368190708
H  -1.4114692939  2.5570822584 -2.4114756309
H  -0.3849117876  2.7378228635 -0.9996660314
O   2.6388576078 -1.2328766526 -0.2485937453
H   3.1178509350 -1.9234727535 -0.7087677830
H   2.3884880586  0.1138430202 -1.3973376189
22
Image 19  Energy = -424.93022888
C  -0.0768475028 -0.0102206851 -0.4873043318
C  -0.8366411573  0.6561662824 -1.5985360502
H  -0.6686960940  0.0563565939 -2.4917185740
O   0.1285301439 -1.2127531582 -0.5480593181
H   1.7600487646 -1.5284130414 -0.3404871375
O   2.0943962920  0.7630900824 -1.9967240626
H   2.1523034991  0.3950910541 -2.8805337404
C   0.2508511142  0.7518651475  0.7640642931
H  -0.3965951698  1.6123745977  0.8961298206
H   0.1675154898  0.0798684321  1.6119254614
H   1.2793071574  1.1080431355  0.7047347260
C  -2.2864327780  0.4517957129 -1.0977988136
H  -2.5548523299  1.2597822843 -0.4198867638
H  -2.9804738763  0.4313914148 -1.9317928052
H  -2.3883243493 -0.4883435175 -0.5567190335
C  -0.5435849406  2.1316645848 -1.8970125424
H   0.3495845782  2.2504985323 -2.5013783257
H  -1.3909729671  2.5626669508 -2.4317335697
H  -0.4020911433  2.7132137769 -0.9860651757
O   2.7006554511 -1.2662527568 -0.2233281912
H   3.2263751578 -1.8987226014 -0.7167298889
H   2.4258800699  0.0815565444 -1.3932642974
22
Image 20  Energy = -424.93196525
C  -0.0903902875 -0.0081726197 -0.4761822849
C  -0.8675734339  0.6529015000 -1.5878163595
H  -0.7021711989  0.0466610072 -2.4775747494
O   0.1361736463 -1.2064468489 -0.5439224429
H   1.7783188322 -1.5085526011 -0.3333537816
O   2.1175324542  0.7403149221 -2.0049360035
H   2.2465471804  0.4441383502 -2.9072274691
C   0.2482558594  0.7484667706  0.7771547011
H  -0.3842056287  1.6196757695  0.9083862578
H   0.1491454156  0.0750306981  1.6230514965
H   1.2850347299  1.0834009573  0.7328296060
C  -2.3237710282  0.4624867012 -1.1037845080
H  -2.6095189437  1.2832168865 -0.4449999574
H  -3.0172312093  0.4306962195 -1.9389095030
H  -2.4248674289 -0.4712275395 -0.5551779485
C  -0.5500236110  2.1213663920 -1.8938735661
H   0.3247889409  2.2084841909 -2.5306200250
H  -1.4027476736  2.5797096714 -2.3970982918
H  -0.3587992207  2.6930757725 -0.9870368579
O   2.7235244440 -1.2464053389 -0.2442481460
H   3.2488216095 -1.8998823119 -0.7089690994
H   2.4830933976  0.0517757298 -1.4279087149
22
Image 21  Energy = -424.93186054
C  -0.1084465837 -0.0159192629 -0.4504140882
C  -0.8816913208  0.6386312130 -1.5661260608
H  -0.7039497221  0.0290975979 -2.4509627013
O   0.1320828855 -1.2106826161 -0.5143553086
H   1.7740841786 -1.4528758464 -0.3051368226
O   2.1671794710  0.7282015178 -2.0992106601
H   2.4036525059  0.4523416752 -2.9862004686
C   0.2375852313  0.7538387037  0.7917524440
H  -0.4056037995  1.6159337389  0.9271669276
H   0.1692442819  0.0843937147  1.6446447054
H   1.2684001082  1.1049226968  0.7159969040
C  -2.3457336318  0.4654595844 -1.1027994770
H  -2.6308819354  1.2956185050 -0.4561753294
H  -3.0232172687  0.4375260244 -1.9519001176
H  -2.4694840745 -0.4640525698 -0.5504036193
C  -0.5605782630  2.1065476866 -1.8719206579
H   0.3111697971  2.1896325919 -2.5127890364
H  -1.4152451726  2.5676468744 -2.3701627406
H  -0.3660076491  2.6774707443 -0.9646662834
O   2.7300645989 -1.2149226605 -0.2775237051
H   3.2111625426 -1.9420868857 -0.6768286116
H   2.5161511907  0.0539909022 -1.4942046365
22
Image 22  Energy = -424.93489820
C  -0.1204981063 -0.0130872072 -0.4322817819
C  -0.8966847314  0.6354504714 -1.5481073341
H  -0.7083470728  0.0276779686 -2.4319386174
O   0.1294809191 -1.2061261891 -0.4920483348
H   1.7751426189 -1.4215410878 -0.2895704143
O   2.2196578411  0.7027083471 -2.1673793293
H   2.5019328444  0.4059428383 -3.0347701095
C   0.2413529306  0.7709817685  0.7943046720
H  -0.4325740094  1.6047046465  0.9536711873
H   0.2443196762  0.1038130923  1.6509034042
H   1.2491493923  1.1711970543  0.6644934342
C  -2.3669146889  0.4634615629 -1.1093122124
H  -2.6509606667  1.2726524250 -0.4360065965
H  -3.0306316888  0.4807304936 -1.9698168305
H  -2.5134178486 -0.4854518330 -0.5961426294
C  -0.5775333970  2.1042544802 -1.8467865277
H   0.3242065913  2.1970851592 -2.4428879394
H  -1.4112291672  2.5492409333 -2.3920866371
H  -0.4425448710  2.6835440481 -0.9335403139
O   2.7385004519 -1.2128468318 -0.2902474666
H   3.1840197391 -1.9845703724 -0.6434212218
H   2.5535108465  0.0508927918 -1.5292478040
22
Image 23  Energy = -424.93835999
C  -0.1237714279 -0.0032464292 -0.4428319772
C  -0.9266082825  0.6406642524 -1.5442193633
H  -0.7415697941  0.0388055973 -2.4317498735
O   0.1527059283 -1.1883053301 -0.5144946508
H   1.8018794921 -1.4175855468 -0.2848657382
O   2.2449744455  0.6743786504 -2.1562704210
H   2.5493383652  0.3711212773 -3.0141706122
C   0.2542058979  0.7864770048  0.7750655759
H  -0.4449968216  1.5925233535  0.9657120816
H   0.3198416681  0.1162794619  1.6263896968
H   1.2387607741  1.2286773347  0.6058305478
C  -2.3961691152  0.4685315626 -1.1102158256
H  -2.6743483149  1.2467591699 -0.3989063969
H  -3.0578837716  0.5366601756 -1.9704201317
H  -2.5560935300 -0.5032290932 -0.6454402560
C  -0.5990761108  2.1082385959 -1.8385438727
H   0.3287183540  2.1993729829 -2.3931517339
H  -1.4075137172  2.5467819755 -2.4240068503
H  -0.5088544890  2.6924868714 -0.9233964726
O   2.7731001951 -1.2468490283 -0.2681797492
H   3.1905526757 -2.0307773589 -0.6287135165
H   2.5927448464  0.0429492757 -1.5056389664
22
Image 24  Energy = -424.93996562
C  -0.1317247843 -0.0024423304 -0.4555390351
C  -0.9667441577  0.6384157184 -1.5371678082
H  -0.7967186434  0.0341503866 -2.4270590175
O   0.1799052191 -1.1779575721 -0.5443350167
H   1.8492361515 -1.4198781671 -0.2734403603
O   2.2666698813  0.6510863008 -2.1387913238
H   2.5961143189  0.3795557408 -2.9979990495
C   0.2655946157  0.7908385448  0.7546474743
H  -0.4545158047  1.5695103674  0.9803830012
H   0.3954859632  0.1191687071  1.5969312236
H   1.2246898791  1.2711712634  0.5445914619
C  -2.4369112298  0.4874502442 -1.1041451051
H  -2.7007719164  1.2452182501 -0.3654072503
H  -3.0961272879  0.6068215795 -1.9617682644
H  -2.6234937556 -0.4972222831 -0.6780556040
C  -0.6175943319  2.0992033289 -1.8358042979
H   0.3268612865  2.1750246923 -2.3646979904
H  -1.4040000267  2.5425327835 -2.4468090986
H  -0.5465492212  2.6878926480 -0.9212750522
O   2.8218799651 -1.2655980222 -0.2455871397
H   3.2291483171 -2.0553739417 -0.6052638182
H   2.6295027412  0.0211462077 -1.4956258331
22
Image 25  Energy = -424.94099811
C  -0.1417346458 -0.0071922194 -0.4471042985
C  -0.9899663834  0.6326611218 -1.5222975042
H  -0.8233413839  0.0260224328 -2.4116704343
O   0.1858207903 -1.1768119821 -0.5401420099
H   1.8802692738 -1.4102040491 -0.2572150170
O   2.2725864849  0.6117029382 -2.1856473729
H   2.6322929341  0.3547885901 -3.0372799058
C   0.2690678855  0.7979240086  0.7515191852
H  -0.4869815044  1.5277489634  1.0225316322
H   0.4898515703  0.1305913690  1.5778572343
H   1.1806415694  1.3440364260  0.4928700132
C  -2.4645699487  0.5018589363 -1.1012395175
H  -2.7128915680  1.2213076687 -0.3199764635
H  -3.1138122790  0.6952722663 -1.9538986962
H  -2.6845239285 -0.5005569094 -0.7371728468
C  -0.6218783995  2.0882378670 -1.8200004040
H   0.3555031772  2.1536386417 -2.2873310535
H  -1.3650452097  2.5232642100 -2.4884190928
H  -0.6095596290  2.6887301893 -0.9100192416
O   2.8510768229 -1.2509480819 -0.2385403625
H   3.2586905050 -2.0503344471 -0.5756215586
H   2.6484411114 -0.0010236702 -1.5334205669
22
Image 26  Energy = -424.94097817
C  -0.1362164380 -0.0079516968 -0.4314761248
C  -0.9684403404  0.6383914799 -1.5166055890
H  -0.7870383028  0.0370463127 -2.4080754591
O   0.1718544527 -1.1830629849 -0.5150378165
H   1.8739270763 -1.3963139851 -0.2510190146
O   2.2109425673  0.5523752468 -2.2872837841
H   2.5853736296  0.2804992197 -3.1288007523
C   0.2599964352  0.7961181747  0.7731822090
H  -0.5346612795  1.4734773534  1.0703798932
H   0.5324759592  0.1288447181  1.5834459729
H   1.1276632234  1.4072825305  0.5120149084
C  -2.4410813555  0.5002411654 -1.1043770370
H  -2.6896302144  1.1896672074 -0.2960855293
H  -3.0884694914  0.7280547163 -1.9485190719
H  -2.6608985467 -0.5150667287 -0.7792606034
C  -0.6015805774  2.0988139705 -1.8013589237
H   0.4076685743  2.1750370651 -2.1951387274
H  -1.2982167224  2.5135066957 -2.5309220244
H  -0.6680213886  2.7106801471 -0.8999545605
O   2.8355740949 -1.2006724416 -0.2427583966
H   3.2867171635 -2.0019074572 -0.5156723676
H   2.5919982919 -0.0243459482 -1.6088954644
